LAMMPS (10 Dec 2025 - Development - patch_10Dec2025-670-gf52584f29b-modified)
  using 1 OpenMP thread(s) per MPI task
variable        T   equal  298
variable        dt  equal  0.5
variable        P   equal  1.0
variable        nsteps  equal 100
variable        thermo_freq equal 1
variable        dump_freq equal 1


processors      * * * map xyz

units           real
atom_style      full
boundary        p p p

read_data       initial.data
Reading data file ...
  orthogonal box = (-0.0018761415 -0.0018761415 -0.0018761415) to (24.682677 24.682677 24.682677)
  1 by 1 by 1 MPI processor grid
  reading atoms ...
  1536 atoms
  reading velocities ...
  1536 velocities
  scanning bonds ...
  2 = max bonds/atom
  scanning angles ...
  1 = max angles/atom
  orthogonal box = (-0.0018761415 -0.0018761415 -0.0018761415) to (24.682677 24.682677 24.682677)
  1 by 1 by 1 MPI processor grid
  reading bonds ...
  1024 bonds
  reading angles ...
  512 angles
Finding 1-2 1-3 1-4 neighbors ...
  special bond factors lj:    0        0        0       
  special bond factors coul:  0        0        0       
     2 = max # of 1-2 neighbors
     1 = max # of 1-3 neighbors
     1 = max # of 1-4 neighbors
     2 = max # of special neighbors
  special bonds CPU = 0.000 seconds
  read_data CPU = 0.018 seconds
#read_restart    restart.old

pair_style      mbx 9.0

bond_style      none
angle_style     none
dihedral_style  none
improper_style  none

pair_coeff      * * 1 h2o 1 2 2 json mbx.json

neighbor        2.0 bin
neigh_modify    every 1 delay 10

timestep        ${dt}
timestep        0.5

compute         mbx all pair mbx
variable        e1bpip    equal c_mbx[1]
variable        e2bpip    equal c_mbx[2]
variable        e3bpip    equal c_mbx[3]
variable        e4bpip    equal c_mbx[4]
variable        edisp     equal c_mbx[5]
variable        ebuck     equal c_mbx[6]
variable        eperm     equal c_mbx[7]
variable        eind      equal c_mbx[8]
variable        eele      equal c_mbx[9]
variable        etot      equal c_mbx[10]

fix             1 all npt temp ${T} ${T} $(200.0*dt) iso 1.0 1.0 $(2000.0*dt)
fix             1 all npt temp 298 ${T} $(200.0*dt) iso 1.0 1.0 $(2000.0*dt)
fix             1 all npt temp 298 298 $(200.0*dt) iso 1.0 1.0 $(2000.0*dt)
fix             1 all npt temp 298 298 100 iso 1.0 1.0 $(2000.0*dt)
fix             1 all npt temp 298 298 100 iso 1.0 1.0 1000

velocity        all create ${T} 428459 rot yes dist gaussian
velocity        all create 298 428459 rot yes dist gaussian
velocity        all zero linear
velocity        all zero angular

thermo_style    custom step time temp etotal ke pe enthalpy density lx ly lz vol pxx pyy pzz press
thermo          ${thermo_freq}
thermo          1
thermo_modify   flush yes

fix             thermo_print all print ${thermo_freq} "$(step) $(0.001*time) $(temp) $(etotal) $(ke) $(pe) $(enthalpy) $(density) $(lx) $(ly) $(lz) $(vol) $(pxx) $(pyy) $(pzz) $(press)" file thermo.out screen no title "# step time temp etotal ke pe enthalpy density lx ly lz vol pxx pyy pzz press"
fix             thermo_print all print 1 "$(step) $(0.001*time) $(temp) $(etotal) $(ke) $(pe) $(enthalpy) $(density) $(lx) $(ly) $(lz) $(vol) $(pxx) $(pyy) $(pzz) $(press)" file thermo.out screen no title "# step time temp etotal ke pe enthalpy density lx ly lz vol pxx pyy pzz press"
fix             verbose_mbx_thermo_print all print ${thermo_freq} "$(step) $(0.001*time) $(temp) $(etotal) $(ke) $(pe) $(enthalpy) $(density) $(lx) $(ly) $(lz) $(vol) $(pxx) $(pyy) $(pzz) $(press) $(v_e1bpip) $(v_e2bpip) $(v_e3bpip) $(v_e4bpip) $(v_edisp) $(v_ebuck) $(v_eperm) $(v_eind) $(v_eele) $(v_etot)" file mbx_thermo.out screen no title "# step time temp etotal ke pe enthalpy density lx ly lz vol pxx pyy pzz press e1bpip e2bpip e3bpip e4bpip edisp ebuck eperm eind eele etot"
fix             verbose_mbx_thermo_print all print 1 "$(step) $(0.001*time) $(temp) $(etotal) $(ke) $(pe) $(enthalpy) $(density) $(lx) $(ly) $(lz) $(vol) $(pxx) $(pyy) $(pzz) $(press) $(v_e1bpip) $(v_e2bpip) $(v_e3bpip) $(v_e4bpip) $(v_edisp) $(v_ebuck) $(v_eperm) $(v_eind) $(v_eele) $(v_etot)" file mbx_thermo.out screen no title "# step time temp etotal ke pe enthalpy density lx ly lz vol pxx pyy pzz press e1bpip e2bpip e3bpip e4bpip edisp ebuck eperm eind eele etot"

dump            1 all custom ${dump_freq} dump.lammpstrj id mol type q x y z
dump            1 all custom 1 dump.lammpstrj id mol type q x y z
dump_modify     1 append no sort id format line "%d %d %d %8.4f %15.8f %15.8f %15.8f"

restart         10 restart.1 restart.2

run             ${nsteps} upto
run             100 upto

CITE-CITE-CITE-CITE-CITE-CITE-CITE-CITE-CITE-CITE-CITE-CITE-CITE

Your simulation uses code contributions which should be cited:

- pair mbx command:

@article{10.1063/5.0156036,
 author = {Riera, Marc and Knight, Christopher and Bull-Vulpe, Ethan F. and Zhu, Xuanyu and Agnew, Henry and Smith, Daniel G. A. and Simmonett, Andrew C. and Paesani, Francesco},
 title = "{MBX: A many-body energy and force calculator for data-driven many-body simulations}",
 journal = {The Journal of Chemical Physics},
 volume = {159},
 number = {5},
 pages = {054802},
 year = {2023},
 doi = {10.1063/5.0156036},
 version = {1.3.5}
}

CITE-CITE-CITE-CITE-CITE-CITE-CITE-CITE-CITE-CITE-CITE-CITE-CITE

Generated 0 of 1 mixed pair_coeff terms from arithmetic mixing rule
WARNING: Bonds are defined but no bond style is set (src/force.cpp:198)
WARNING: Likewise 1-2 special neighbor interactions != 1.0 (src/force.cpp:200)
WARNING: Angles are defined but no angle style is set (src/force.cpp:203)
WARNING: Likewise 1-3 special neighbor interactions != 1.0 (src/force.cpp:205)
Neighbor list info ...
  update: every = 1 steps, delay = 10 steps, check = yes
  max neighbors/atom: 2000, page size: 100000
  master list distance cutoff = 11
  ghost atom cutoff = 11
  binsize = 5.5, bins = 5 5 5
  1 neighbor lists, perpetual/occasional/extra = 1 0 0
  (1) pair mbx, perpetual
      attributes: half, newton on
      pair build: half/bin/newton
      stencil: half/bin/3d
      bin: standard
Per MPI rank memory allocation (min/avg/max) = 9.584 | 9.584 | 9.584 Mbytes
   Step          Time           Temp          TotEng         KinEng         PotEng        Enthalpy       Density           Lx             Ly             Lz           Volume          Pxx            Pyy            Pzz           Press     
         0   0              298           -3410.4565      1363.5119     -4773.9684     -3142.8535      1.0183267      24.684553      24.684553      24.684553      15040.969      2089.1295     -456.52219      2027.219       1219.9421    
         1   0.5            294.87695     -3410.1195      1349.2223     -4759.3418     -3163.418       1.0183266      24.684554      24.684554      24.684554      15040.97       2195.5832      54.246045      1124.1412      1124.6568    
         2   1              287.95431     -3409.3666      1317.5474     -4726.9141     -3152.9669      1.0183263      24.684557      24.684557      24.684557      15040.975      2309.9427      804.04563      392.61802      1168.8688    
         3   1.5            279.65645     -3408.6781      1279.5802     -4688.2583     -3126.6363      1.0183257      24.684561      24.684561      24.684561      15040.983      2351.1858      1614.7104     -108.60355      1285.7642    
         4   2              272.51619     -3407.9377      1246.9097     -4654.8474     -3103.8885      1.0183249      24.684567      24.684567      24.684567      15040.994      2237.1367      2322.6514     -401.51815      1386.09      
         5   2.5            269.05685     -3407.2403      1231.0813     -4638.3216     -3102.4544      1.0183239      24.684575      24.684575      24.684575      15041.009      1914.924       2808.0222     -554.60554      1389.4469    
         6   3              271.23239     -3407.2238      1241.0356     -4648.2594     -3130.7863      1.0183226      24.684586      24.684586      24.684586      15041.028      1391.1428      3011.4759     -621.98319      1260.2119    
         7   3.5            278.67713     -3408.2413      1275.0993     -4683.3406     -3178.563       1.0183211      24.684598      24.684598      24.684598      15041.051      767.32668      2957.9738     -584.16193      1047.0462    
         8   4              287.83649     -3409.7923      1317.0083     -4726.8007     -3215.9035      1.0183194      24.684612      24.684612      24.684612      15041.076      238.44134      2752.4689     -339.24146      883.88959    
         9   4.5            293.54883     -3410.9211      1343.1454     -4754.0666     -3207.2857      1.0183175      24.684627      24.684627      24.684627      15041.104      25.572481      2525.173       234.21399      928.31981    
        10   5              292.06247     -3410.9029      1336.3445     -4747.2474     -3132.7494      1.0183155      24.684643      24.684643      24.684643      15041.134      271.01999      2355.4284      1177.6282      1268.0255    
        11   5.5            283.37893     -3409.6545      1296.6126     -4706.2671     -3003.0999      1.0183132      24.684662      24.684662      24.684662      15041.168      954.75012      2225.1023      2380.2492      1853.3672    
        12   6              271.51966     -3407.7664      1242.35       -4650.1164     -2859.7212      1.0183106      24.684683      24.684683      24.684683      15041.206      1882.2604      2030.9412      3581.9265      2498.376     
        13   6.5            262.60535     -3406.1557      1201.5622     -4607.7179     -2757.899       1.0183075      24.684708      24.684708      24.684708      15041.252      2758.0394      1652.2986      4455.2676      2955.2019    
        14   7              261.83718     -3405.5904      1198.0474     -4603.6378     -2741.5981      1.0183039      24.684737      24.684737      24.684737      15041.305      3314.5695      1039.8403      4726.365       3026.9249    
        15   7.5            270.90384     -3406.3902      1239.5323     -4645.9225     -2822.0522      1.0182997      24.684771      24.684771      24.684771      15041.367      3434.2738      276.68949      4280.424       2663.7958    
        16   8              286.90998     -3408.2877      1312.7691     -4721.0568     -2969.981       1.0182951      24.684809      24.684809      24.684809      15041.436      3201.7323     -419.68425      3212.1923      1998.0801    
        17   8.5            303.34796     -3410.4285      1387.9818     -4798.4103     -3125.9654      1.01829        24.684849      24.684849      24.684849      15041.51       2854.5702     -760.30499      1796.0057      1296.757     
        18   9              312.96713     -3411.736       1431.9947     -4843.7307     -3226.0145      1.0182847      24.684892      24.684892      24.684892      15041.588      2656.8489     -496.80282      379.83779      846.62796    
        19   9.5            311.29587     -3411.5165      1424.3478     -4835.8643     -3231.1676      1.0182793      24.684936      24.684936      24.684936      15041.669      2760.1733      453.74535     -747.52187      822.13226    
        20   10             298.93755     -3409.8074      1367.8017     -4777.6091     -3145.9854      1.0182737      24.684981      24.684981      24.684981      15041.751      3125.9663      1928.9567     -1446.9935      1202.6432    
        21   10.5           281.46183     -3407.3304      1287.8408     -4695.1712     -3016.6075      1.0182679      24.685028      24.685028      24.685028      15041.837      3544.6092      3540.1082     -1741.3711      1781.1155    
        22   11             266.94365     -3405.231       1221.4123     -4626.6432     -2909.116       1.0182618      24.685078      24.685078      24.685078      15041.927      3734.4883      4809.4048     -1759.294       2261.533     
        23   11.5           262.10603     -3404.5868      1199.2775     -4603.8643     -2877.5787      1.0182552      24.685131      24.685131      24.685131      15042.024      3476.2806      5374.2672     -1643.5174      2402.3435    
        24   12             268.84703     -3405.6975      1230.1212     -4635.8188     -2936.6773      1.0182482      24.685187      24.685187      24.685187      15042.128      2730.6226      5141.1618     -1457.8036      2137.9936    
        25   12.5           283.28312     -3407.8589      1296.1742     -4704.0331     -3054.0305      1.0182408      24.685247      24.685247      24.685247      15042.237      1681.6523      4293.3381     -1136.3235      1612.8889    
        26   13             297.90016     -3409.9879      1363.0551     -4773.043      -3166.7249      1.0182332      24.685309      24.685309      24.685309      15042.35       671.3598       3170.0029     -514.72444      1108.8794    
        27   13.5           305.12597     -3411.2189      1396.1171     -4807.336      -3211.3165      1.0182253      24.685373      24.685373      24.685373      15042.467      55.139374      2110.6854      567.83316      911.2193     
        28   14             300.42625     -3411.0399      1374.6133     -4785.6533     -3152.4693      1.0182172      24.685438      24.685438      24.685438      15042.586      51.204899      1334.1305      2150.5814      1178.639     
        29   14.5           284.16149     -3409.342       1300.1932     -4709.5352     -2999.7479      1.0182089      24.685505      24.685505      24.685505      15042.708      646.1636       881.33099      4073.6014      1867.032     
        30   15             261.85748     -3406.6111      1198.1403     -4604.7514     -2806.6113      1.0182003      24.685574      24.685574      24.685574      15042.835      1593.0329      631.8289       5979.9145      2734.9254    
        31   15.5           242.35743     -3404.0251      1108.917      -4512.942      -2649.87        1.0181912      24.685648      24.685648      24.685648      15042.97       2511.164       387.65877      7413.8789      3437.5672    
        32   16             233.84342     -3402.9719      1069.9607     -4472.9326     -2594.9601      1.0181814      24.685727      24.685727      24.685727      15043.114      3059.7868     -3.0962959      7992.3693      3683.0199    
        33   16.5           239.428       -3404.0734      1095.5132     -4499.5866     -2662.2256      1.018171       24.685811      24.685811      24.685811      15043.268      3106.1901     -535.48435      7573.4975      3381.4011    
        34   17             255.20625     -3406.6901      1167.7073     -4574.3974     -2813.9041      1.01816        24.6859        24.6859        24.6859        15043.432      2789.9268     -1011.3489      6327.2303      2701.9361    
        35   17.5           272.22678     -3409.4193      1245.5854     -4655.0047     -2970.8271      1.0181484      24.685994      24.685994      24.685994      15043.602      2440.9168     -1108.5898      4664.9541      1999.0937    
        36   18             280.99897     -3410.9668      1285.723      -4696.6898     -3049.5251      1.0181365      24.68609       24.68609       24.68609       15043.779      2401.0705     -528.8204       3070.0229      1647.4243    
        37   18.5           275.85811     -3410.6783      1262.2008     -4672.8791     -3000.1205      1.0181243      24.686189      24.686189      24.686189      15043.959      2848.7625      846.20017      1918.8453      1871.2693    
        38   19             257.31302     -3408.6391      1177.3469     -4585.9859     -2828.0534      1.0181117      24.686291      24.686291      24.686291      15044.145      3709.1768      2859.3546      1370.0731      2646.2015    
        39   19.5           231.80603     -3405.6186      1060.6386     -4466.2572     -2591.709       1.0180986      24.686396      24.686396      24.686396      15044.338      4684.3002      5090.5215      1353.9809      3709.6008    
        40   20             209.03204     -3402.9182      956.43517     -4359.3534     -2377.239       1.0180849      24.686507      24.686507      24.686507      15044.541      5387.0918      6985.8785      1651.2255      4674.7319    
        41   20.5           197.53203     -3401.8683      903.81637     -4305.6846     -2259.9894      1.0180703      24.686625      24.686625      24.686625      15044.757      5523.3636      8063.57        2025.8459      5204.2598    
        42   21             200.38809     -3402.9666      916.8844      -4319.851      -2269.345       1.0180547      24.686751      24.686751      24.686751      15044.987      5037.7997      8106.0982      2355.7446      5166.5475    
        43   21.5           213.63485     -3405.4515      977.49555     -4382.947      -2375.7977      1.0180382      24.686884      24.686884      24.686884      15045.231      4147.9455      7236.3671      2693.5832      4692.6319    
        44   22             228.53879     -3407.9505      1045.6892     -4453.6397     -2507.9611      1.0180208      24.687025      24.687025      24.687025      15045.487      3249.4516      5832.9038      3222.5006      4101.6187    
        45   22.5           236.02507     -3409.299       1079.9429     -4489.2419     -2588.2811      1.0180027      24.687171      24.687171      24.687171      15045.755      2745.6313      4344.3294      4134.9775      3741.6461    
        46   23             230.72175     -3408.8837      1055.6774     -4464.5611     -2568.6531      1.0179839      24.687323      24.687323      24.687323      15046.033      2878.2531      3111.2616      5497.8875      3829.1341    
        47   23.5           213.18249     -3406.7649      975.42573     -4382.1906     -2451.4682      1.0179644      24.687481      24.687481      24.687481      15046.322      3625.4193      2269.8025      7165.0815      4353.4344    
        48   24             189.7474      -3403.662       868.19748     -4271.8595     -2288.3312      1.0179441      24.687646      24.687646      24.687646      15046.622      4707.0793      1759.0462      8781.7749      5082.6335    
        49   24.5           170.03881     -3400.8411      778.01998     -4178.8611     -2156.8532      1.0179228      24.687817      24.687817      24.687817      15046.937      5704.7866      1410.7186      9890.9361      5668.8138    
        50   25             162.67263     -3399.64        744.31567     -4143.9557     -2123.8931      1.0179005      24.687998      24.687998      24.687998      15047.266      6256.258       1073.3012      10110.674      5813.4109    
        51   25.5           170.89786     -3400.6506      781.95058     -4182.6012     -2211.3197      1.0178771      24.688187      24.688187      24.688187      15047.612      6232.7639      718.22766      9307.5092      5419.5003    
        52   26             190.68882     -3403.2395      872.50496     -4275.7445     -2382.8249      1.0178528      24.688384      24.688384      24.688384      15047.972      5795.0573      482.48292      7671.4913      4649.6772    
        53   26.5           212.72033     -3405.9149      973.31112     -4379.226      -2560.6051      1.0178275      24.688588      24.688588      24.688588      15048.345      5294.4859      617.84023      5642.7422      3851.6894    
        54   27             227.13406     -3407.2363      1039.2618     -4446.4981     -2663.448       1.0178016      24.688797      24.688797      24.688797      15048.728      5082.9642      1357.2465      3726.8377      3389.0161    
        55   27.5           228.32146     -3406.5124      1044.6948     -4451.2071     -2645.8519      1.017775       24.689012      24.689012      24.689012      15049.121      5336.3961      2762.4526      2298.5594      3465.8027    
        56   28             217.39334     -3403.9715      994.69265     -4398.6642     -2519.025       1.0177478      24.689232      24.689232      24.689232      15049.523      5971.845       4636.0428      1488.0533      4031.9804    
        57   28.5           201.51187     -3400.6618      922.02632     -4322.6881     -2345.2473      1.0177199      24.689458      24.689458      24.689458      15049.936      6687.2143      6550.1383      1188.2426      4808.5317    
        58   29             190.37219     -3398.1288      871.05623     -4269.185      -2208.3061      1.0176911      24.689691      24.689691      24.689691      15050.362      7103.9029      7992.6104      1165.7382      5420.7505    
        59   29.5           191.14999     -3397.5854      874.61508     -4272.2005     -2172.8721      1.0176613      24.689932      24.689932      24.689932      15050.803      6949.8578      8570.7892      1217.9913      5579.5461    
        60   30             204.65762     -3398.9615      936.41984     -4335.3813     -2253.602       1.0176304      24.690181      24.690181      24.690181      15051.26       6193.7136      8164.9066      1294.9837      5217.868     
        61   30.5           225.38561     -3401.047       1031.2616     -4432.3087     -2412.2006      1.0175986      24.690439      24.690439      24.690439      15051.73       5058.6923      6941.6372      1513.7917      4504.707     
        62   31             245.03628     -3402.6271      1121.1742     -4523.8012     -2581.515       1.017566       24.690703      24.690703      24.690703      15052.213      3914.5194      5244.61        2062.2814      3740.4703    
        63   31.5           256.52778     -3403.0358      1173.754      -4576.7898     -2698.4211      1.0175327      24.690972      24.690972      24.690972      15052.706      3110.0046      3457.4143      3061.6108      3209.6765    
        64   32             256.55575     -3402.0131      1173.882      -4575.8951     -2729.8472      1.0174988      24.691246      24.691246      24.691246      15053.207      2825.1005      1893.7982      4466.3901      3061.7629    
        65   32.5           246.64977     -3399.6986      1128.5567     -4528.2553     -2685.0563      1.0174643      24.691525      24.691525      24.691525      15053.717      3002.2631      722.48259      6040.6604      3255.1354    
        66   33             232.70359     -3396.7413      1064.7454     -4461.4867     -2610.7176      1.0174292      24.691809      24.691809      24.691809      15054.236      3379.721      -52.144326      7412.8682      3580.1483    
        67   33.5           222.70347     -3394.2653      1018.9894     -4413.2547     -2569.4118      1.0173935      24.692098      24.692098      24.692098      15054.765      3615.7461     -540.15594      8195.0397      3756.8766    
        68   34             223.01511     -3393.3138      1020.4153     -4413.7292     -2608.5507      1.0173571      24.692393      24.692393      24.692393      15055.304      3460.6651     -868.91966      8130.7145      3574.1533    
        69   34.5           235.03147     -3394.0992      1075.3967     -4469.4959     -2734.6456      1.01732        24.692693      24.692693      24.692693      15055.853      2890.3522     -1087.8776      7207.5134      3003.3294    
        70   35             254.39111     -3395.8705      1163.9776     -4559.848      -2908.07        1.0172823      24.692997      24.692997      24.692997      15056.41       2118.2446     -1125.9083      5672.1418      2221.4927    
        71   35.5           273.27506     -3397.4283      1250.3819     -4647.8102     -3061.556       1.0172443      24.693305      24.693305      24.693305      15056.973      1481.0197     -825.96953      3933.5681      1529.5394    
        72   36             284.30332     -3397.7702      1300.8422     -4698.6123     -3132.1489      1.017206       24.693615      24.693615      24.693615      15057.54       1270.1679     -45.358996      2403.9168      1209.5753    
        73   36.5           283.96552     -3396.477       1299.2966     -4695.7736     -3090.568       1.0171674      24.693927      24.693927      24.693927      15058.11       1596.006       1227.4127      1355.5309      1392.9832    
        74   37             274.17143     -3393.8238      1254.4833     -4648.3071     -2954.751       1.0171287      24.694241      24.694241      24.694241      15058.685      2339.5107      2805.2851      853.04443      1999.2801    
        75   37.5           261.36487     -3390.7776      1195.8863     -4586.664      -2781.9802      1.0170895      24.694558      24.694558      24.694558      15059.265      3205.4038      4332.6833      777.91231      2771.9998    
        76   38             253.30926     -3388.6578      1159.0275     -4547.6853     -2642.1427      1.0170498      24.694879      24.694879      24.694879      15059.852      3853.5424      5413.577       929.66553      3398.9283    
        77   38.5           254.86504     -3388.2758      1166.1461     -4554.4218     -2584.1468      1.0170095      24.695205      24.695205      24.695205      15060.449      4049.8116      5778.89        1154.6062      3661.1026    
        78   39             265.38562     -3389.3085      1214.2834     -4603.592      -2614.246       1.0169686      24.695537      24.695537      24.695537      15061.055      3760.1977      5398.2279      1427.4483      3528.6246    
        79   39.5           279.5236      -3390.699       1278.9724     -4669.6714     -2698.7107      1.0169269      24.695874      24.695874      24.695874      15061.672      3142.8624      4471.4537      1836.5351      3150.2837    
        80   40             290.45301     -3391.4752      1328.9804     -4720.4556     -2785.9905      1.0168847      24.696215      24.696215      24.696215      15062.297      2458.0277      3317.0724      2493.9824      2756.3608    
        81   40.5           293.14336     -3391.1274      1341.2902     -4732.4176     -2833.3809      1.016842       24.696561      24.696561      24.696561      15062.929      1948.9187      2232.8747      3435.0104      2538.9346    
        82   41             286.26123     -3389.6201      1309.8007     -4699.4208     -2825.8627      1.0167989      24.69691       24.69691       24.69691       15063.569      1737.6583      1402.7959      4558.1102      2566.1881    
        83   41.5           272.46732     -3387.2619      1246.6861     -4633.9479     -2780.9938      1.0167552      24.697264      24.697264      24.697264      15064.215      1771.3754      881.07869      5626.2723      2759.5755    
        84   42             257.37355     -3384.6909      1177.6238     -4562.3148     -2739.6469      1.0167111      24.697621      24.697621      24.697621      15064.869      1850.762       625.85528      6331.2216      2935.9463    
        85   42.5           247.26023     -3382.8613      1131.3499     -4514.2112     -2745.8342      1.0166664      24.697983      24.697983      24.697983      15065.531      1745.1765      546.49547      6406.3164      2899.3295    
        86   43             246.01335     -3382.3999      1125.6448     -4508.0446     -2822.4652      1.0166212      24.698349      24.698349      24.698349      15066.201      1337.08        562.93549      5745.0105      2548.342     
        87   43.5           253.12495     -3383.0917      1158.1842     -4541.2759     -2956.5493      1.0165755      24.698719      24.698719      24.698719      15066.878      702.16871      658.10271      4463.2306      1941.1674    
        88   44             264.18497     -3384.2115      1208.7898     -4593.0013     -3103.4438      1.0165295      24.699092      24.699092      24.699092      15067.561      77.474345      887.08614      2868.5353      1277.6986    
        89   44.5           273.17599     -3384.9726      1249.9286     -4634.9012     -3206.2973      1.0164832      24.699467      24.699467      24.699467      15068.247     -249.93225      1339.0322      1350.0986      813.06617    
        90   45             275.2117      -3384.7151      1259.2431     -4643.9582     -3220.6787      1.0164368      24.699843      24.699843      24.699843      15068.935     -71.551703      2071.7953      239.00859      746.41741    
        91   45.5           268.83178     -3383.1414      1230.0515     -4613.1929     -3134.6555      1.0163902      24.70022       24.70022       24.70022       15069.625      648.4          3045.4811     -301.96883      1130.6374    
        92   46             256.96381     -3380.6166      1175.7491     -4556.3657     -2975.5287      1.0163435      24.700598      24.700598      24.700598      15070.318      1750.2814      4090.8281     -311.78399      1843.1085    
        93   46.5           245.66425     -3378.1779      1124.0474     -4502.2253     -2798.2587      1.0162964      24.70098       24.70098       24.70098       15071.017      2942.0856      4945.4913      27.776228      2638.451     
        94   47             240.78108     -3376.9366      1101.7043     -4478.6409     -2659.3004      1.0162488      24.701365      24.701365      24.701365      15071.722      3924.8253      5356.6614      513.11554      3264.8674    
        95   47.5           244.47663     -3377.1894      1118.6134     -4495.8028     -2589.9497      1.0162006      24.701756      24.701756      24.701756      15072.437      4516.7305      5197.4883      1029.8523      3581.357     
        96   48             254.19879     -3378.2149      1163.0976     -4541.3125     -2585.8667      1.0161518      24.702151      24.702151      24.702151      15073.161      4706.2153      4523.8112      1583.2456      3604.424     
        97   48.5           264.70835     -3379.0229      1211.1845     -4590.2075     -2617.604       1.0161023      24.702552      24.702552      24.702552      15073.895      4609.488       3540.1842      2240.9979      3463.5567    
        98   49             271.13976     -3379.0864      1240.6117     -4619.6981     -2651.4414      1.0160522      24.702959      24.702959      24.702959      15074.639      4377.3331      2510.0042      3041.9476      3309.7616    
        99   49.5           270.93954     -3378.3321      1239.6956     -4618.0277     -2666.7588      1.0160014      24.70337       24.70337       24.70337       15075.392      4114.9846      1663.468       3931.0371      3236.4966    
       100   50             264.40799     -3376.8209      1209.8103     -4586.6311     -2663.9438      1.0159501      24.703786      24.703786      24.703786      15076.153      3844.6093      1131.7885      4750.3904      3242.2627    
Loop time of 173.998 on 1 procs for 100 steps with 1536 atoms

Performance: 0.025 ns/day, 966.657 hours/ns, 0.575 timesteps/s, 882.768 atom-step/s
99.6% CPU use with 1 MPI tasks x 1 OpenMP threads

MPI task timing breakdown:
Section |  min time  |  avg time  |  max time  |%varavg| %total
---------------------------------------------------------------
Pair    | 173.08     | 173.08     | 173.08     |   0.0 | 99.47
Bond    | 5.3262e-05 | 5.3262e-05 | 5.3262e-05 |   0.0 |  0.00
Neigh   | 0.090066   | 0.090066   | 0.090066   |   0.0 |  0.05
Comm    | 0.0096089  | 0.0096089  | 0.0096089  |   0.0 |  0.01
Output  | 0.38866    | 0.38866    | 0.38866    |   0.0 |  0.22
Modify  | 0.42419    | 0.42419    | 0.42419    |   0.0 |  0.24
Other   |            | 0.001667   |            |       |  0.00

Nlocal:           1536 ave        1536 max        1536 min
Histogram: 1 0 0 0 0 0 0 0 0 0
Nghost:           8814 ave        8814 max        8814 min
Histogram: 1 0 0 0 0 0 0 0 0 0
Neighs:         434207 ave      434207 max      434207 min
Histogram: 1 0 0 0 0 0 0 0 0 0

Total # of neighbors = 434207
Ave neighs/atom = 282.68685
Ave special neighs/atom = 2
Neighbor list builds = 10
Dangerous builds = 0

write_data      final.data nocoeff
System init for write_data ...
Generated 0 of 1 mixed pair_coeff terms from arithmetic mixing rule
WARNING: Bonds are defined but no bond style is set (src/force.cpp:198)
WARNING: Likewise 1-2 special neighbor interactions != 1.0 (src/force.cpp:200)
WARNING: Angles are defined but no angle style is set (src/force.cpp:203)
WARNING: Likewise 1-3 special neighbor interactions != 1.0 (src/force.cpp:205)
write_restart   restart.new
System init for write_restart ...
Generated 0 of 1 mixed pair_coeff terms from arithmetic mixing rule
WARNING: Bonds are defined but no bond style is set (src/force.cpp:198)
WARNING: Likewise 1-2 special neighbor interactions != 1.0 (src/force.cpp:200)
WARNING: Angles are defined but no angle style is set (src/force.cpp:203)
WARNING: Likewise 1-3 special neighbor interactions != 1.0 (src/force.cpp:205)
Total wall time: 0:02:55
