LAMMPS (11 Feb 2026 - Development - patch_11Feb2026-156-g48a5c9ef8e)
  using 1 OpenMP thread(s) per MPI task
variable        T   equal  298
variable        dt  equal  0.5
variable        P   equal  1.0
variable        nsteps  equal 100
variable        thermo_freq equal 1
variable        dump_freq equal 1


processors      * * * map xyz

units           real
atom_style      full
boundary        p p p

read_data       initial.data
Reading data file ...
  orthogonal box = (0.00024108338 0.00024108338 0.00024108338) to (31.286383 31.286383 31.286383)
  1 by 1 by 1 MPI processor grid
  reading atoms ...
  3072 atoms
  reading velocities ...
  3072 velocities
  scanning bonds ...
  2 = max bonds/atom
  scanning angles ...
  1 = max angles/atom
  orthogonal box = (0.00024108338 0.00024108338 0.00024108338) to (31.286383 31.286383 31.286383)
  1 by 1 by 1 MPI processor grid
  reading bonds ...
  2048 bonds
  reading angles ...
  1024 angles
Finding 1-2 1-3 1-4 neighbors ...
  special bond factors lj:    0        0        0       
  special bond factors coul:  0        0        0       
     2 = max # of 1-2 neighbors
     1 = max # of 1-3 neighbors
     1 = max # of 1-4 neighbors
     2 = max # of special neighbors
  special bonds CPU = 0.001 seconds
  read_data CPU = 0.031 seconds
#read_restart    restart.old

pair_style      mbx 9.0

bond_style      none
angle_style     none
dihedral_style  none
improper_style  none

pair_coeff      * * 1 h2o 1 2 2 json mbx.json

neighbor        2.0 bin
neigh_modify    every 1 delay 10

timestep        ${dt}
timestep        0.5

compute         mbx all pair mbx
variable        e1bpip    equal c_mbx[1]
variable        e2bpip    equal c_mbx[2]
variable        e3bpip    equal c_mbx[3]
variable        e4bpip    equal c_mbx[4]
variable        edisp     equal c_mbx[5]
variable        ebuck     equal c_mbx[6]
variable        eperm     equal c_mbx[7]
variable        eind      equal c_mbx[8]
variable        eele      equal c_mbx[9]
variable        etot      equal c_mbx[10]

fix             1 all npt temp ${T} ${T} $(200.0*dt) iso 1.0 1.0 $(2000.0*dt)
fix             1 all npt temp 298 ${T} $(200.0*dt) iso 1.0 1.0 $(2000.0*dt)
fix             1 all npt temp 298 298 $(200.0*dt) iso 1.0 1.0 $(2000.0*dt)
fix             1 all npt temp 298 298 100 iso 1.0 1.0 $(2000.0*dt)
fix             1 all npt temp 298 298 100 iso 1.0 1.0 1000

velocity        all create ${T} 428459 rot yes dist gaussian
velocity        all create 298 428459 rot yes dist gaussian
velocity        all zero linear
velocity        all zero angular

thermo_style    custom step time temp etotal ke pe enthalpy density lx ly lz vol pxx pyy pzz press
thermo          ${thermo_freq}
thermo          1
thermo_modify   flush yes

fix             thermo_print all print ${thermo_freq} "$(step) $(0.001*time) $(temp) $(etotal) $(ke) $(pe) $(enthalpy) $(density) $(lx) $(ly) $(lz) $(vol) $(pxx) $(pyy) $(pzz) $(press)" file thermo.out screen no title "# step time temp etotal ke pe enthalpy density lx ly lz vol pxx pyy pzz press"
fix             thermo_print all print 1 "$(step) $(0.001*time) $(temp) $(etotal) $(ke) $(pe) $(enthalpy) $(density) $(lx) $(ly) $(lz) $(vol) $(pxx) $(pyy) $(pzz) $(press)" file thermo.out screen no title "# step time temp etotal ke pe enthalpy density lx ly lz vol pxx pyy pzz press"
fix             verbose_mbx_thermo_print all print ${thermo_freq} "$(step) $(0.001*time) $(temp) $(etotal) $(ke) $(pe) $(enthalpy) $(density) $(lx) $(ly) $(lz) $(vol) $(pxx) $(pyy) $(pzz) $(press) $(v_e1bpip) $(v_e2bpip) $(v_e3bpip) $(v_e4bpip) $(v_edisp) $(v_ebuck) $(v_eperm) $(v_eind) $(v_eele) $(v_etot)" file mbx_thermo.out screen no title "# step time temp etotal ke pe enthalpy density lx ly lz vol pxx pyy pzz press e1bpip e2bpip e3bpip e4bpip edisp ebuck eperm eind eele etot"
fix             verbose_mbx_thermo_print all print 1 "$(step) $(0.001*time) $(temp) $(etotal) $(ke) $(pe) $(enthalpy) $(density) $(lx) $(ly) $(lz) $(vol) $(pxx) $(pyy) $(pzz) $(press) $(v_e1bpip) $(v_e2bpip) $(v_e3bpip) $(v_e4bpip) $(v_edisp) $(v_ebuck) $(v_eperm) $(v_eind) $(v_eele) $(v_etot)" file mbx_thermo.out screen no title "# step time temp etotal ke pe enthalpy density lx ly lz vol pxx pyy pzz press e1bpip e2bpip e3bpip e4bpip edisp ebuck eperm eind eele etot"

dump            1 all custom ${dump_freq} dump.lammpstrj id mol type q x y z
dump            1 all custom 1 dump.lammpstrj id mol type q x y z
dump_modify     1 append no sort id format line "%d %d %d %8.4f %15.8f %15.8f %15.8f"

restart         10 restart.1 restart.2

run             ${nsteps} upto
run             100 upto

CITE-CITE-CITE-CITE-CITE-CITE-CITE-CITE-CITE-CITE-CITE-CITE-CITE

Your simulation uses code contributions which should be cited:

- pair mbx command:

@article{10.1063/5.0156036,
 author = {Riera, Marc and Knight, Christopher and Bull-Vulpe, Ethan F. and Zhu, Xuanyu and Agnew, Henry and Smith, Daniel G. A. and Simmonett, Andrew C. and Paesani, Francesco},
 title = "{MBX: A many-body energy and force calculator for data-driven many-body simulations}",
 journal = {The Journal of Chemical Physics},
 volume = {159},
 number = {5},
 pages = {054802},
 year = {2023},
 doi = {10.1063/5.0156036},
 version = {1.3.7}
}

CITE-CITE-CITE-CITE-CITE-CITE-CITE-CITE-CITE-CITE-CITE-CITE-CITE

Generated 0 of 1 mixed pair_coeff terms from geometric mixing rule
WARNING: Bonds are defined but no bond style is set (src/force.cpp:198)
WARNING: Likewise 1-2 special neighbor interactions != 1.0 (src/force.cpp:200)
WARNING: Angles are defined but no angle style is set (src/force.cpp:203)
WARNING: Likewise 1-3 special neighbor interactions != 1.0 (src/force.cpp:205)
Neighbor list info ...
  update: every = 1 steps, delay = 10 steps, check = yes
  max neighbors/atom: 2000, page size: 100000
  master list distance cutoff = 11
  ghost atom cutoff = 11
  binsize = 5.5, bins = 6 6 6
  1 neighbor lists, perpetual/occasional/extra = 1 0 0
  (1) pair mbx, perpetual
      attributes: half, newton on
      pair build: half/bin/newton
      stencil: half/bin/3d
      bin: standard
Per MPI rank memory allocation (min/avg/max) = 11.58 | 11.58 | 11.58 Mbytes
   Step          Time           Temp          TotEng         KinEng         PotEng        Enthalpy       Density           Lx             Ly             Lz           Volume          Pxx            Pyy            Pzz           Press     
         0   0              298           -6846.0043      2727.9122     -9573.9165     -6974.2205      1.0003153      31.286142      31.286142      31.286142      30623.584      608.88792     -860.72201     -609.42137     -287.08515    
         1   0.5            301.69491     -6847.6218      2761.7356     -9609.3573     -6793.6885      1.0003153      31.286141      31.286141      31.286141      30623.583      447.3737      -704.17578      619.0837       120.76054    
         2   1              302.66785     -6848.5064      2770.642      -9619.1484     -6610.0669      1.0003153      31.286141      31.286141      31.286141      30623.583      198.44609     -467.75028      1870.9539      533.88323    
         3   1.5            299.56091     -6848.149       2742.2009     -9590.3498     -6429.8687      1.0003152      31.286142      31.286142      31.286142      30623.586     -66.790487     -149.74978      3026.2191      936.5596     
         4   2              293.1674      -6846.3076      2683.6742     -9529.9818     -6283.7294      1.000315       31.286145      31.286145      31.286145      30623.594     -323.27249      173.98388      3928.2466      1259.6527    
         5   2.5            286.60554     -6843.7458      2623.6065     -9467.3523     -6221.594       1.0003145      31.28615       31.28615       31.28615       30623.61      -597.8756       371.10719      4405.8934      1393.0417    
         6   3              283.8819      -6842.3761      2598.6741     -9441.0501     -6288.5193      1.0003137      31.286158      31.286158      31.286158      30623.633     -923.04766      313.63906      4329.7785      1240.1233    
         7   3.5            286.99348     -6843.5759      2627.1577     -9470.7337     -6489.0025      1.0003127      31.286168      31.286168      31.286168      30623.663     -1267.2811     -39.965842      3688.9871      793.91338    
         8   4              293.9853      -6846.566       2691.1614     -9537.7273     -6768.4804      1.0003116      31.28618       31.28618       31.28618       30623.697     -1507.4934     -599.27628      2631.2853      174.83851    
         9   4.5            300.12955     -6849.1387      2747.4062     -9596.545      -7034.2059      1.0003104      31.286192      31.286192      31.286192      30623.733     -1481.1783     -1178.73        1416.7782     -414.37671    
        10   5              301.27395     -6849.6089      2757.8821     -9607.491      -7202.5226      1.0003093      31.286204      31.286204      31.286204      30623.766     -1085.2108     -1593.4301      308.05703     -790.19461    
        11   5.5            296.52828     -6847.9048      2714.4399     -9562.3447     -7238.8597      1.0003084      31.286213      31.286213      31.286213      30623.795     -350.20471     -1747.8973     -528.00903     -875.37036    
        12   6              288.48273     -6845.3276      2640.7904     -9486.118      -7166.7277      1.0003076      31.286221      31.286221      31.286221      30623.819      558.48717     -1667.698      -1049.6865     -719.63242    
        13   6.5            281.27563     -6843.3017      2574.8162     -9418.1179     -7045.49        1.000307       31.286228      31.286228      31.286228      30623.839      1408.9953     -1467.0981     -1300.0282     -452.71036    
        14   7              278.34834     -6842.3586      2548.0195     -9390.3781     -6936.2496      1.0003064      31.286234      31.286234      31.286234      30623.856      1992.4073     -1281.2894     -1341.7982     -210.22679    
        15   7.5            281.32295     -6842.5838      2575.2494     -9417.8332     -6876.4134      1.0003059      31.28624       31.28624       31.28624       30623.872      2187.568      -1200.6119     -1214.1943     -75.746031    
        16   8              289.65084     -6844.1777      2651.4834     -9495.6611     -6867.2236      1.0003054      31.286245      31.286245      31.286245      30623.888      1989.1684     -1226.3022     -917.66848     -51.600767    
        17   8.5            300.46958     -6846.789       2750.5189     -9597.3079     -6873.1541      1.0003049      31.28625       31.28625       31.28625       30623.903      1501.0895     -1260.9329     -417.25491     -59.032782    
        18   9              309.36411     -6849.187       2831.94       -9681.1269     -6839.0562      1.0003044      31.286255      31.286255      31.286255      30623.918      892.46394     -1151.669       327.25497      22.683309    
        19   9.5            312.33227     -6850.1317      2859.1107     -9709.2424     -6722.5102      1.0003039      31.28626       31.28626       31.28626       30623.933      327.14134     -776.1779       1306.2881      285.7505     
        20   10             307.79246     -6849.135       2817.553      -9666.688      -6523.1697      1.0003033      31.286266      31.286266      31.286266      30623.95      -101.97507     -123.01022      2414.5383      729.851      
        21   10.5           297.43916     -6846.5255      2722.7782     -9569.3038     -6292.2837      1.0003027      31.286273      31.286273      31.286273      30623.971     -402.84155      678.96757      3446.7896      1240.9719    
        22   11             285.69183     -6843.25        2615.2423     -9458.4923     -6117.3849      1.0003017      31.286283      31.286283      31.286283      30623.999     -665.54949      1397.5796      4143.6967      1625.2422    
        23   11.5           277.98233     -6840.7914      2544.669      -9385.4604     -6087.2134      1.0003005      31.286295      31.286295      31.286295      30624.036     -999.83828      1787.7177      4273.9926      1687.2907    
        24   12             278.19355     -6840.7303      2546.6026     -9387.3329     -6248.3421      1.000299       31.286311      31.286311      31.286311      30624.082     -1451.759       1702.5925      3728.3015      1326.3783    
        25   12.5           286.21214     -6843.4595      2620.0053     -9463.4649     -6572.127       1.0002973      31.28633       31.28633       31.28633       30624.136     -1943.0086      1175.3378      2590.2378      607.52231    
        26   13             297.44783     -6847.5047      2722.8576     -9570.3623     -6955.4501      1.0002954      31.286349      31.286349      31.286349      30624.194     -2278.898       416.78772      1137.0324     -241.69263    
        27   13.5           305.16074     -6850.6203      2793.4621     -9644.0824     -7262.3211      1.0002935      31.286368      31.286368      31.286368      30624.25      -2233.0649     -279.52917     -252.82939     -921.80781    
        28   14             304.07275     -6851.2359      2783.5026     -9634.7384     -7384.0547      1.0002919      31.286386      31.286386      31.286386      30624.301     -1666.072      -670.25577     -1242.6477     -1192.9918    
        29   14.5           293.03949     -6849.0247      2682.5033     -9531.528      -7285.6925      1.0002904      31.286401      31.286401      31.286401      30624.345     -615.31287     -662.18952     -1655.617      -977.70647    
        30   15             275.64326     -6844.9208      2523.257      -9368.1778     -7018.179       1.0002892      31.286414      31.286414      31.286414      30624.384      691.33777     -339.29589     -1515.8242     -387.92743    
        31   15.5           258.60506     -6840.789       2367.2882     -9208.0772     -6692.3793      1.000288       31.286426      31.286426      31.286426      30624.42       1912.6553      88.209673     -1003.9927      332.29079    
        32   16             248.67806     -6838.5546      2276.4158     -9114.9703     -6426.6271      1.0002867      31.286439      31.286439      31.286439      30624.459      2732.6779      388.83437     -354.58496      922.30911    
        33   16.5           249.45229     -6839.2618      2283.5032     -9122.765      -6292.4058      1.0002853      31.286454      31.286454      31.286454      30624.502      2991.9206      424.04009      257.27939      1224.4134    
        34   17             259.59764     -6842.613       2376.3744     -9218.9873     -6283.8795      1.0002837      31.286471      31.286471      31.286471      30624.553      2744.3856      219.31946      789.31008      1251.005     
        35   17.5           273.37827     -6847.0111      2502.5231     -9349.5343     -6325.1643      1.0002818      31.286491      31.286491      31.286491      30624.61       2218.6891     -44.95505       1331.5069      1168.4137    
        36   18             283.28294     -6850.37        2593.1912     -9443.5612     -6312.5401      1.0002797      31.286513      31.286513      31.286513      30624.674      1708.4645     -123.86271      2027.989       1204.1969    
        37   18.5           283.47071     -6851.1878      2594.9101     -9446.0979     -6170.7398      1.0002774      31.286537      31.286537      31.286537      30624.745      1442.9483      163.50938      2964.0858      1523.5145    
        38   19             272.36203     -6849.0052      2493.2204     -9342.2257     -5895.2768      1.0002748      31.286564      31.286564      31.286564      30624.825      1492.1409      831.92445      4082.0756      2135.3803    
        39   19.5           253.43892     -6844.5239      2319.997      -9164.5209     -5562.3602      1.0002718      31.286595      31.286595      31.286595      30624.916      1744.9217      1701.7051      5165.5698      2870.7322    
        40   20             233.9638      -6839.6056      2141.7204     -8981.326      -5301.2125      1.0002683      31.286632      31.286632      31.286632      30625.024      1971.23        2459.691       5902.313       3444.4113    
        41   20.5           221.78626     -6836.6667      2030.2464     -8866.9131     -5236.8558      1.0002641      31.286675      31.286675      31.286675      30625.151      1945.18        2792.4579      6008.0881      3581.9087    
        42   21             221.38975     -6837.3208      2026.6168     -8863.9376     -5426.8011      1.0002593      31.286725      31.286725      31.286725      30625.298      1574.0375      2536.7391      5363.4592      3158.0786    
        43   21.5           231.35974     -6841.1189      2117.8827     -8959.0016     -5824.6477      1.0002539      31.286782      31.286782      31.286782      30625.463      966.46841      1767.1927      4093.7769      2275.8127    
        44   22             245.09774     -6845.7956      2243.6413     -9089.4369     -6294.3279      1.0002481      31.286842      31.286842      31.286842      30625.641      399.01842      765.07212      2539.9885      1234.693     
        45   22.5           254.37839     -6848.9289      2328.597      -9177.5259     -6668.9819      1.0002421      31.286905      31.286905      31.286905      30625.826      194.26012     -114.35207      1128.7462      402.88474    
        46   23             253.3571      -6849.1787      2319.2481     -9168.4268     -6821.4338      1.0002359      31.286969      31.286969      31.286969      30626.014      572.51936     -596.81218      210.64646      62.117878    
        47   23.5           241.0054      -6846.4018      2206.1797     -9052.5816     -6713.0256      1.0002298      31.287033      31.287033      31.287033      30626.201      1545.808      -591.7092      -58.258362      298.61348    
        48   24             221.46967     -6841.4693      2027.3483     -8868.8176     -6404.5232      1.0002236      31.287097      31.287097      31.287097      30626.39       2895.8227     -209.55531      248.52509      978.26415    
        49   24.5           202.51982     -6836.2245      1853.8801     -8690.1046     -6027.6274      1.0002173      31.287164      31.287164      31.287164      30626.585      4245.7015      303.19452      882.09342      1810.3298    
        50   25             192.34284     -6833.0339      1760.7194     -8593.7532     -5726.6008      1.0002106      31.287233      31.287233      31.287233      30626.79       5204.7425      685.42782      1541.2024      2477.1242    
        51   25.5           195.62978     -6833.5496      1790.8082     -8624.3578     -5592.5554      1.0002034      31.287308      31.287308      31.287308      30627.009      5529.3563      789.83147      2015.9064      2778.3647    
        52   26             210.95277     -6837.4433      1931.0759     -8768.5191     -5622.3309      1.0001958      31.287388      31.287388      31.287388      30627.244      5220.6005      657.51954      2283.0777      2720.3993    
        53   26.5           231.30423     -6842.4348      2117.3746     -8959.8094     -5726.4323      1.0001876      31.287473      31.287473      31.287473      30627.494      4505.0031      494.89297      2495.5778      2498.4913    
        54   27             247.68292     -6845.8699      2267.3062     -9113.1762     -5783.07        1.000179       31.287563      31.287563      31.287563      30627.758      3712.4588      558.76926      2866.8564      2379.3615    
        55   27.5           253.44792     -6846.1365      2320.0794     -9166.2159     -5706.5218      1.0001699      31.287657      31.287657      31.287657      30628.035      3117.7586      1011.7908      3524.3766      2551.3086    
        56   28             247.18232     -6842.965       2262.7236     -9105.6886     -5494.3943      1.0001604      31.287757      31.287757      31.287757      30628.327      2821.3966      1822.6679      4413.1737      3019.0794    
        57   28.5           233.22661     -6837.4457      2134.9721     -8972.4178     -5234.6793      1.0001503      31.287862      31.287862      31.287862      30628.636      2718.997       2756.1621      5289.194       3588.1177    
        58   29             219.76746     -6831.9402      2011.7662     -8843.7064     -5069.5063      1.0001396      31.287974      31.287974      31.287974      30628.965      2571.8487      3460.9809      5803.7406      3945.5234    
        59   29.5           214.88367     -6829.0976      1967.0596     -8796.1572     -5127.9485      1.0001281      31.288094      31.288094      31.288094      30629.316      2149.6663      3624.5264      5650.6554      3808.2827    
        60   30             222.28147     -6830.1107      2034.7796     -8864.8903     -5458.7188      1.0001159      31.288221      31.288221      31.288221      30629.689      1374.0718      3122.311       4713.7177      3070.0335    
        61   30.5           239.36249     -6833.8149      2191.1404     -9024.9553     -6000.2584      1.0001032      31.288353      31.288353      31.288353      30630.08       381.58022      2078.8859      3137.5258      1865.9973    
        62   31             258.93206     -6837.7165      2370.2816     -9207.9981     -6606.0582      1.0000901      31.28849       31.28849       31.28849       30630.48      -529.68274      806.41672      1279.0144      518.58279    
        63   31.5           273.11776     -6839.7543      2500.1385     -9339.8928     -7108.088       1.0000769      31.288627      31.288627      31.288627      30630.884     -1034.5324     -335.68742     -431.80661     -600.67547    
        64   32             276.9011      -6839.0475      2534.7714     -9373.8189     -7382.5529      1.0000638      31.288764      31.288764      31.288764      30631.284     -923.78036     -1080.6629     -1645.4826     -1216.642     
        65   32.5           269.8587      -6835.7191      2470.3048     -9306.0239     -7391.1548      1.000051       31.288898      31.288898      31.288898      30631.678     -195.64115     -1337.6092     -2196.7459     -1243.3321    
        66   33             256.09158     -6830.6992      2344.2797     -9174.9788     -7187.216       1.0000384      31.289029      31.289029      31.289029      30632.064      933.38028     -1197.8766     -2129.6418     -798.04603    
        67   33.5           242.6175      -6825.6387      2220.937      -9046.5757     -6887.6962      1.0000259      31.289159      31.289159      31.289159      30632.446      2101.3841     -872.55381     -1645.5639     -138.91119    
        68   34             236.52629     -6822.4607      2165.1777     -8987.6384     -6620.9552      1.0000135      31.289289      31.289289      31.289289      30632.827      2937.6957     -587.66189     -996.88598      451.04926    
        69   34.5           241.762       -6822.4213      2213.1057     -9035.527      -6470.6966      1.0000009      31.28942       31.28942       31.28942       30633.211      3211.2594     -479.09232     -370.29843      787.28955    
        70   35             257.07098     -6825.2177      2353.2451     -9178.4628     -6441.9021      0.99998826     31.289552      31.289552      31.289552      30633.599      2920.454      -533.58229      187.10054      857.99076    
        71   35.5           276.47628     -6828.9997      2530.8825     -9359.8823     -6467.2682      0.99997543     31.289686      31.289686      31.289686      30633.992      2274.6139     -605.7092       760.09866      809.66779    
        72   36             292.21536     -6831.5053      2674.9592     -9506.4645     -6451.611       0.99996245     31.289821      31.289821      31.289821      30634.39       1577.5222     -505.16576      1478.5762      850.31088    
        73   36.5           298.46846     -6831.2145      2732.2005     -9563.415      -6329.4291      0.99994931     31.289958      31.289958      31.289958      30634.792      1078.2603     -111.37074      2402.4783      1123.1226    
        74   37             293.99431     -6827.8712      2691.2438     -9519.115      -6105.8437      0.99993597     31.290097      31.290097      31.290097      30635.201      863.02319      541.99446      3443.1586      1616.0587    
        75   37.5           282.6192      -6822.6193      2587.1153     -9409.7345     -5862.1602      0.99992233     31.290239      31.290239      31.290239      30635.619      832.55801      1255.5312      4360.9877      2149.6923    
        76   38             271.34954     -6817.5983      2483.952      -9301.5503     -5722.3104      0.9999083      31.290386      31.290386      31.290386      30636.049      773.34903      1736.6403      4844.3031      2451.4308    
        77   38.5           266.86344     -6814.8533      2442.886      -9257.7393     -5794.3622      0.99989381     31.290537      31.290537      31.290537      30636.493      486.53529      1726.832       4638.6042      2283.9905    
        78   39             272.14515     -6815.1894      2491.2352     -9306.4245     -6115.9873      0.9998789      31.290692      31.290692      31.290692      30636.95      -93.554074      1121.5443      3666.6525      1564.8809    
        79   39.5           285.10129     -6817.7372      2609.8365     -9427.5737     -6631.8852      0.9998637      31.290851      31.290851      31.290851      30637.415     -852.02179      21.962347      2077.9039      415.94814    
        80   40             299.87935     -6820.5393      2745.1159     -9565.6552     -7214.3817      0.99984843     31.29101       31.29101       31.29101       30637.883     -1537.8172     -1306.8124      200.33932     -881.4301     
        81   40.5           309.98162     -6821.8028      2837.5927     -9659.3955     -7715.5022      0.99983332     31.291168      31.291168      31.291168      30638.346     -1875.5008     -2547.5223     -1577.2572     -2000.0934    
        82   41             311.27556     -6820.744       2849.4376     -9670.1815     -8022.8149      0.99981858     31.291322      31.291322      31.291322      30638.798     -1688.2748     -3451.1716     -2931.1151     -2690.1872    
        83   41.5           303.50391     -6817.5647      2778.2954     -9595.8601     -8094.7548      0.99980433     31.29147       31.29147       31.29147       30639.235     -978.06972     -3910.3712     -3686.3391     -2858.26      
        84   42             290.10395     -6813.1445      2655.6312     -9468.7757     -7965.4461      0.99979061     31.291613      31.291613      31.291613      30639.655      67.692969     -3965.221      -3838.6715     -2578.7332    
        85   42.5           276.73867     -6808.8098      2533.2845     -9342.0942     -7721.5456      0.99977736     31.291752      31.291752      31.291752      30640.061      1144.9304     -3753.7682     -3518.9095     -2042.5824    
        86   43             269.00884     -6805.9896      2462.5251     -9268.5147     -7461.036       0.99976449     31.291886      31.291886      31.291886      30640.455      1951.8597     -3433.9586     -2915.5664     -1465.8884    
        87   43.5           270.01704     -6805.6422      2471.7542     -9277.3964     -7250.3864      0.99975189     31.292017      31.292017      31.292017      30640.842      2308.3944     -3110.3067     -2183.8483     -995.25356    
        88   44             278.80102     -6807.5678      2552.1634     -9359.7312     -7098.5985      0.99973948     31.292147      31.292147      31.292147      30641.222      2221.5255     -2793.2809     -1382.0357     -651.26369    
        89   44.5           290.69147     -6810.2531      2661.0094     -9471.2625     -6962.2357      0.99972718     31.292275      31.292275      31.292275      30641.599      1865.1965     -2409.6784     -475.81777     -340.09989    
        90   45             299.71814     -6811.7919      2743.6401     -9555.4321     -6780.5578      0.99971494     31.292403      31.292403      31.292403      30641.974      1483.1657     -1862.7004      589.21543      69.89358     
        91   45.5           301.69566     -6811.0142      2761.7425     -9572.7568     -6520.3832      0.9997027      31.292531      31.292531      31.292531      30642.35       1264.0615     -1111.2574      1798.2321      650.34541    
        92   46             296.21403     -6807.9857      2711.5633     -9519.549      -6204.9607      0.99969033     31.29266       31.29266       31.29266       30642.729      1254.8526     -224.99966      3018.2656      1349.3729    
        93   46.5           286.60265     -6803.8993      2623.58       -9427.4793     -5912.1252      0.99967771     31.292791      31.292791      31.292791      30643.115      1356.0823      616.8129       4013.5261      1995.4738    
        94   47             278.02273     -6800.3989      2545.0389     -9345.4378     -5742.8057      0.99966473     31.292927      31.292927      31.292927      30643.513      1392.4156      1189.1283      4517.9185      2366.4874    
        95   47.5           274.79422     -6798.6326      2515.4849     -9314.1175     -5776.1943      0.99965131     31.293067      31.293067      31.293067      30643.925      1210.8414      1317.4596      4335.0795      2287.7935    
        96   48             278.42905     -6798.7789      2548.7584     -9347.5372     -6034.4341      0.99963747     31.293211      31.293211      31.293211      30644.349      756.83671      953.45244      3420.5012      1710.2635    
        97   48.5           287.20044     -6800.1981      2629.0522     -9429.2504     -6472.2734      0.99962331     31.293359      31.293359      31.293359      30644.783      101.78112      192.51064      1906.9257      733.73914    
        98   49             297.14771     -6801.7719      2720.1103     -9521.8822     -6993.255       0.99960902     31.293508      31.293508      31.293508      30645.221     -583.92776     -765.92838      64.531254     -428.44163    
        99   49.5           303.94633     -6802.3661      2782.3452     -9584.7114     -7484.1116      0.99959481     31.293656      31.293656      31.293656      30645.657     -1102.9741     -1691.6262     -1781.5335     -1525.3779    
       100   50             304.82094     -6801.3728      2790.3515     -9591.7243     -7852.7137      0.99958088     31.293802      31.293802      31.293802      30646.084     -1317.8104     -2398.6672     -3340.4223     -2352.3       
Loop time of 328.18 on 1 procs for 100 steps with 3072 atoms

Performance: 0.013 ns/day, 1823.223 hours/ns, 0.305 timesteps/s, 936.071 atom-step/s
99.5% CPU use with 1 MPI tasks x 1 OpenMP threads

MPI task timing breakdown:
Section |  min time  |  avg time  |  max time  |%varavg| %total
---------------------------------------------------------------
Pair    | 326.41     | 326.41     | 326.41     |   0.0 | 99.46
Bond    | 3.4019e-05 | 3.4019e-05 | 3.4019e-05 |   0.0 |  0.00
Neigh   | 0.20597    | 0.20597    | 0.20597    |   0.0 |  0.06
Comm    | 0.013931   | 0.013931   | 0.013931   |   0.0 |  0.00
Output  | 0.67305    | 0.67305    | 0.67305    |   0.0 |  0.21
Modify  | 0.86983    | 0.86983    | 0.86983    |   0.0 |  0.27
Other   |            | 0.00386    |            |       |  0.00

Nlocal:           3072 ave        3072 max        3072 min
Histogram: 1 0 0 0 0 0 0 0 0 0
Nghost:          12028 ave       12028 max       12028 min
Histogram: 1 0 0 0 0 0 0 0 0 0
Neighs:         854528 ave      854528 max      854528 min
Histogram: 1 0 0 0 0 0 0 0 0 0

Total # of neighbors = 854528
Ave neighs/atom = 278.16667
Ave special neighs/atom = 2
Neighbor list builds = 10
Dangerous builds = 0

write_data      final.data nocoeff
System init for write_data ...
Generated 0 of 1 mixed pair_coeff terms from geometric mixing rule
WARNING: Bonds are defined but no bond style is set (src/force.cpp:198)
WARNING: Likewise 1-2 special neighbor interactions != 1.0 (src/force.cpp:200)
WARNING: Angles are defined but no angle style is set (src/force.cpp:203)
WARNING: Likewise 1-3 special neighbor interactions != 1.0 (src/force.cpp:205)
write_restart   restart.new
System init for write_restart ...
Generated 0 of 1 mixed pair_coeff terms from geometric mixing rule
WARNING: Bonds are defined but no bond style is set (src/force.cpp:198)
WARNING: Likewise 1-2 special neighbor interactions != 1.0 (src/force.cpp:200)
WARNING: Angles are defined but no angle style is set (src/force.cpp:203)
WARNING: Likewise 1-3 special neighbor interactions != 1.0 (src/force.cpp:205)
Total wall time: 0:05:31
