LAMMPS (10 Sep 2025 - Development - c68a6d42d5)
  using 1 OpenMP thread(s) per MPI task
variable        T   equal  298
variable        dt  equal  0.5
variable        P   equal  1.0
variable        nsteps  equal 100
variable        thermo_freq equal 1
variable        dump_freq equal 1


processors      * * * map xyz

units           real
atom_style      full
boundary        p p p

read_data       initial.data
Reading data file ...
  orthogonal box = (0.00024108338 0.00024108338 0.00024108338) to (31.286383 31.286383 31.286383)
  1 by 1 by 1 MPI processor grid
  reading atoms ...
  3072 atoms
  reading velocities ...
  3072 velocities
  scanning bonds ...
  2 = max bonds/atom
  scanning angles ...
  1 = max angles/atom
  orthogonal box = (0.00024108338 0.00024108338 0.00024108338) to (31.286383 31.286383 31.286383)
  1 by 1 by 1 MPI processor grid
  reading bonds ...
  2048 bonds
  reading angles ...
  1024 angles
Finding 1-2 1-3 1-4 neighbors ...
  special bond factors lj:    0        0        0       
  special bond factors coul:  0        0        0       
     2 = max # of 1-2 neighbors
     1 = max # of 1-3 neighbors
     1 = max # of 1-4 neighbors
     2 = max # of special neighbors
  special bonds CPU = 0.001 seconds
  read_data CPU = 0.029 seconds
#read_restart    restart.old

pair_style      mbx 9.0
pair_modify     mix arithmetic

bond_style      none
angle_style     none
dihedral_style  none
improper_style  none

pair_coeff      * * 1 h2o 1 2 2 json mbx.json

neighbor        2.0 bin
neigh_modify    every 1 delay 10

timestep        ${dt}
timestep        0.5

compute         mbx all pair mbx
variable        e1bpip    equal c_mbx[1]
variable        e2bpip    equal c_mbx[2]
variable        e3bpip    equal c_mbx[3]
variable        e4bpip    equal c_mbx[4]
variable        edisp     equal c_mbx[5]
variable        ebuck     equal c_mbx[6]
variable        eperm     equal c_mbx[7]
variable        eind      equal c_mbx[8]
variable        eele      equal c_mbx[9]
variable        etot      equal c_mbx[10]

fix             1 all npt temp 298 298 $(200.0*dt) iso 1.0 1.0 $(2000.0*dt)
fix             1 all npt temp 298 298 100 iso 1.0 1.0 $(2000.0*dt)
fix             1 all npt temp 298 298 100 iso 1.0 1.0 1000

velocity        all create 298 428459 rot yes dist gaussian
velocity        all zero linear
velocity        all zero angular

thermo_style    custom step time temp etotal ke pe enthalpy density lx ly lz vol pxx pyy pzz press
thermo          ${thermo_freq}
thermo          1
thermo_modify   flush yes

fix             thermo_print all print ${thermo_freq} "$(step) $(0.001*time) $(temp) $(etotal) $(ke) $(pe) $(enthalpy) $(density) $(lx) $(ly) $(lz) $(vol) $(pxx) $(pyy) $(pzz) $(press)" file thermo.out screen no title "# step time temp etotal ke pe enthalpy density lx ly lz vol pxx pyy pzz press"
fix             thermo_print all print 1 "$(step) $(0.001*time) $(temp) $(etotal) $(ke) $(pe) $(enthalpy) $(density) $(lx) $(ly) $(lz) $(vol) $(pxx) $(pyy) $(pzz) $(press)" file thermo.out screen no title "# step time temp etotal ke pe enthalpy density lx ly lz vol pxx pyy pzz press"
fix             verbose_mbx_thermo_print all print ${thermo_freq} "$(step) $(0.001*time) $(temp) $(etotal) $(ke) $(pe) $(enthalpy) $(density) $(lx) $(ly) $(lz) $(vol) $(pxx) $(pyy) $(pzz) $(press) $(v_e1bpip) $(v_e2bpip) $(v_e3bpip) $(v_e4bpip) $(v_edisp) $(v_ebuck) $(v_eperm) $(v_eind) $(v_eele) $(v_etot)" file mbx_thermo.out screen no title "# step time temp etotal ke pe enthalpy density lx ly lz vol pxx pyy pzz press e1bpip e2bpip e3bpip e4bpip edisp ebuck eperm eind eele etot"
fix             verbose_mbx_thermo_print all print 1 "$(step) $(0.001*time) $(temp) $(etotal) $(ke) $(pe) $(enthalpy) $(density) $(lx) $(ly) $(lz) $(vol) $(pxx) $(pyy) $(pzz) $(press) $(v_e1bpip) $(v_e2bpip) $(v_e3bpip) $(v_e4bpip) $(v_edisp) $(v_ebuck) $(v_eperm) $(v_eind) $(v_eele) $(v_etot)" file mbx_thermo.out screen no title "# step time temp etotal ke pe enthalpy density lx ly lz vol pxx pyy pzz press e1bpip e2bpip e3bpip e4bpip edisp ebuck eperm eind eele etot"

dump            1 all custom ${dump_freq} dump.lammpstrj id mol type q x y z
dump            1 all custom 1 dump.lammpstrj id mol type q x y z
dump_modify     1 append no sort id format line "%d %d %d %8.4f %15.8f %15.8f %15.8f"

restart         10 restart.1 restart.2

run             100  upto

CITE-CITE-CITE-CITE-CITE-CITE-CITE-CITE-CITE-CITE-CITE-CITE-CITE

Your simulation uses code contributions which should be cited:

- pair mbx command:

@article{10.1063/5.0156036,
 author = {Riera, Marc and Knight, Christopher and Bull-Vulpe, Ethan F. and Zhu, Xuanyu and Agnew, Henry and Smith, Daniel G. A. and Simmonett, Andrew C. and Paesani, Francesco},
 title = "{MBX: A many-body energy and force calculator for data-driven many-body simulations}",
 journal = {The Journal of Chemical Physics},
 volume = {159},
 number = {5},
 pages = {054802},
 year = {2023},
 doi = {10.1063/5.0156036},
}

CITE-CITE-CITE-CITE-CITE-CITE-CITE-CITE-CITE-CITE-CITE-CITE-CITE

Generated 0 of 1 mixed pair_coeff terms from arithmetic mixing rule
WARNING: Bonds are defined but no bond style is set (src/force.cpp:198)
WARNING: Likewise 1-2 special neighbor interactions != 1.0 (src/force.cpp:200)
WARNING: Angles are defined but no angle style is set (src/force.cpp:203)
WARNING: Likewise 1-3 special neighbor interactions != 1.0 (src/force.cpp:205)
Neighbor list info ...
  update: every = 1 steps, delay = 10 steps, check = yes
  max neighbors/atom: 2000, page size: 100000
  master list distance cutoff = 11
  ghost atom cutoff = 11
  binsize = 5.5, bins = 6 6 6
  1 neighbor lists, perpetual/occasional/extra = 1 0 0
  (1) pair mbx, perpetual
      attributes: half, newton on
      pair build: half/bin/newton
      stencil: half/bin/3d
      bin: standard
WARNING: Inconsistent image flags
For more information see https://docs.lammps.org/err0027 (src/domain.cpp:1052)
Per MPI rank memory allocation (min/avg/max) = 11.58 | 11.58 | 11.58 Mbytes
   Step          Time           Temp          TotEng         KinEng         PotEng        Enthalpy       Density           Lx             Ly             Lz           Volume          Pxx            Pyy            Pzz           Press     
         0   0              298           -6846.0044      2727.9122     -9573.9165     -6974.2205      1.0003153      31.286142      31.286142      31.286142      30623.584      613.15656     -863.15337     -611.25874     -287.08518    
         1   0.5            301.69261     -6847.6214      2761.7146     -9609.336      -6793.7265      1.0003153      31.286141      31.286141      31.286141      30623.583      451.85194     -707.19185      617.36362      120.67457    
         2   1              302.66566     -6848.5064      2770.622      -9619.1283     -6610.1536      1.0003153      31.286141      31.286141      31.286141      30623.583      203.00539     -471.30128      1869.3633      533.68912    
         3   1.5            299.56065     -6848.1499      2742.1985     -9590.3483     -6430.0017      1.0003152      31.286142      31.286142      31.286142      30623.586     -62.264339     -153.72221      3024.7782      936.26388    
         4   2              293.16935     -6846.3096      2683.692      -9530.0016     -6283.8821      1.000315       31.286145      31.286145      31.286145      30623.594     -318.84336      169.78381      3927.0054      1259.3153    
         5   2.5            286.60821     -6843.7485      2623.6309     -9467.3794     -6221.7169      1.0003145      31.28615       31.28615       31.28615       30623.61      -593.55906      366.94024      4404.9363      1392.7725    
         6   3              283.88281     -6842.3784      2598.6824     -9441.0609     -6288.5546      1.0003137      31.286158      31.286158      31.286158      30623.633     -918.84046      309.7911       4329.1982      1240.0496    
         7   3.5            286.99061     -6843.5773      2627.1315     -9470.7088     -6488.9082      1.0003127      31.286168      31.286168      31.286168      30623.663     -1263.2048     -43.248738      3688.8365      794.12767    
         8   4              293.97825     -6846.5662      2691.0968     -9537.6631     -6768.2524      1.0003116      31.28618       31.28618       31.28618       30623.697     -1503.6232     -601.85611      2631.5286      175.34977    
         9   4.5            300.11977     -6849.1383      2747.3167     -9596.455      -7033.8776      1.0003104      31.286192      31.286192      31.286192      30623.733     -1477.6279     -1180.5864      1417.2864     -413.64266    
        10   5              301.26418     -6849.6082      2757.7927     -9607.4009     -7202.1573      1.0003093      31.286204      31.286204      31.286204      30623.766     -1082.1091     -1594.6595      308.63412     -789.37816    
        11   5.5            296.52153     -6847.9047      2714.3782     -9562.2829     -7238.529       1.0003084      31.286213      31.286213      31.286213      30623.795     -347.64683     -1748.6804     -527.56233     -874.62986    
        12   6              288.48086     -6845.329       2640.7733     -9486.1023     -7166.4832      1.0003076      31.286221      31.286221      31.286221      30623.819      560.50364     -1668.2489     -1049.5006     -719.08196    
        13   6.5            281.27815     -6843.3044      2574.8392     -9418.1436     -7045.3415      1.000307       31.286228      31.286228      31.286228      30623.839      1410.5959     -1467.6154     -1300.0957     -452.37174    
        14   7              278.35259     -6842.3616      2548.0584     -9390.4201     -6936.1791      1.0003064      31.286234      31.286234      31.286234      30623.856      1993.7997     -1281.9601     -1342.0261     -210.06216    
        15   7.5            281.32564     -6842.5863      2575.2739     -9417.8602     -6876.3891      1.0003059      31.28624       31.28624       31.28624       30623.872      2188.977      -1201.5851     -1214.4505     -75.686207    
        16   8              289.6495      -6844.1792      2651.4711     -9495.6503     -6867.22        1.0003054      31.286245      31.286245      31.286245      30623.888      1990.7776     -1227.6824     -917.86345     -51.589424    
        17   8.5            300.46347     -6846.7894      2750.4629     -9597.2523     -6873.1648      1.0003049      31.28625       31.28625       31.28625       30623.903      1502.9819     -1262.7788     -417.37056     -59.055805    
        18   9              309.35428     -6849.1866      2831.85       -9681.0366     -6839.1069      1.0003044      31.286255      31.286255      31.286255      30623.918      894.59312     -1154.0016      327.11486      22.568794    
        19   9.5            312.32111     -6850.1311      2859.0086     -9709.1397     -6722.6404      1.0003039      31.28626       31.28626       31.28626       30623.933      329.36532     -778.95522      1305.9628      285.45763    
        20   10             307.78259     -6849.135       2817.4626     -9666.5976     -6523.4108      1.0003033      31.286266      31.286266      31.286266      30623.95      -99.833489     -126.09477      2413.862       729.31124    
        21   10.5           297.43205     -6846.5268      2722.7131     -9569.2399     -6292.6464      1.0003027      31.286273      31.286273      31.286273      30623.971     -400.94172      675.78523      3445.6438      1240.1624    
        22   11             285.68689     -6843.2524      2615.1971     -9458.4495     -6117.8363      1.0003017      31.286283      31.286283      31.286283      30623.999     -663.95556      1394.5642      4142.1023      1624.237     
        23   11.5           277.97708     -6840.794       2544.621      -9385.415      -6087.6836      1.0003005      31.286295      31.286295      31.286295      30624.036     -998.51744      1785.139       4272.1093      1686.2436    
        24   12             278.18504     -6840.7322      2546.5247     -9387.2568     -6248.7528      1.000299       31.286311      31.286311      31.286311      30624.082     -1450.6245      1700.6657      3726.3477      1325.463     
        25   12.5           286.19857     -6843.4602      2619.8811     -9463.3413     -6572.4141      1.0002972      31.28633       31.28633       31.28633       30624.136     -1941.961       1174.2007      2588.4031      606.88095    
        26   13             297.42924     -6847.5047      2722.6874     -9570.1921     -6955.5751      1.0002954      31.286349      31.286349      31.286349      30624.194     -2277.8537      416.493        1135.4429     -241.9726     
        27   13.5           305.13846     -6850.62        2793.2581     -9643.8781     -7262.2784      1.0002935      31.286368      31.286368      31.286368      30624.25      -2231.9608     -279.01066     -254.16703     -921.71283    
        28   14             304.04865     -6851.2354      2783.2819     -9634.5173     -7383.8713      1.0002919      31.286386      31.286386      31.286386      30624.301     -1664.8793     -669.01878     -1243.8489     -1192.5823    
        29   14.5           293.01565     -6849.024       2682.2851     -9531.3091     -7285.4065      1.0002904      31.286401      31.286401      31.286401      30624.345     -614.05245     -660.36392     -1656.7866     -977.06764    
        30   15             275.6217      -6844.9205      2523.0597     -9367.9801     -7017.8343      1.0002892      31.286414      31.286414      31.286414      30624.384      692.62896     -337.04616     -1517.0521     -387.15645    
        31   15.5           258.58687     -6840.7898      2367.1217     -9207.9115     -6692.0131      1.000288       31.286426      31.286426      31.286426      30624.42       1913.9592      90.690094     -1005.3113      333.11268    
        32   16             248.66233     -6838.5566      2276.2718     -9114.8284     -6426.2542      1.0002867      31.286439      31.286439      31.286439      30624.459      2734.0542      391.3437      -355.95268      923.1484     
        33   16.5           249.43606     -6839.2641      2283.3545     -9122.6186     -6292.0283      1.0002853      31.286454      31.286454      31.286454      30624.502      2993.4877      426.38416      255.91927      1225.2637    
        34   17             259.57737     -6842.6143      2376.1888     -9218.8031     -6283.5035      1.0002837      31.286471      31.286471      31.286471      30624.553      2746.2594      221.33228      787.95766      1251.8498    
        35   17.5           273.35183     -6847.0109      2502.2812     -9349.292      -6324.8217      1.0002818      31.286491      31.286491      31.286491      30624.61       2220.8887     -43.422861      1330.0747      1169.1802    
        36   18             283.25069     -6850.3683      2592.896      -9443.2642     -6312.2888      1.0002797      31.286513      31.286513      31.286513      30624.674      1710.8739     -122.93075      2026.3247      1204.7559    
        37   18.5           283.43513     -6851.1855      2594.5843     -9445.7698     -6170.6628      1.0002774      31.286537      31.286537      31.286537      30624.745      1445.3174      163.77329      2961.9543      1523.6817    
        38   19             272.32645     -6849.0032      2492.8948     -9341.898      -5895.455       1.0002748      31.286564      31.286564      31.286564      30624.825      1494.1505      831.5621       4079.2177      2134.9768    
        39   19.5           253.40579     -6844.5231      2319.6938     -9164.2169     -5562.8406      1.0002718      31.286595      31.286595      31.286595      30624.916      1746.2925      1700.8635      5161.8085      2869.6549    
        40   20             233.93329     -6839.6062      2141.4412     -8981.0474     -5301.9838      1.0002683      31.286632      31.286632      31.286632      30625.024      1971.8247      2458.5918      5897.6404      3442.6856    
        41   20.5           221.75615     -6836.6677      2029.9708     -8866.6385     -5237.8381      1.0002641      31.286675      31.286675      31.286675      30625.151      1945.047       2791.3634      6002.7248      3579.7117    
        42   21             221.35696     -6837.3207      2026.3166     -8863.6373     -5427.879       1.0002593      31.286725      31.286725      31.286725      30625.298      1573.3504      2535.8549      5357.7898      3155.665     
        43   21.5           231.32269     -6841.117       2117.5436     -8958.6606     -5825.7093      1.0002539      31.286782      31.286782      31.286782      30625.464      965.44298      1766.6529      4088.1983      2273.4314    
        44   22             245.05749     -6845.7926      2243.2729     -9089.0655     -6295.2861      1.0002481      31.286842      31.286842      31.286842      30625.642      397.82536      765.00053      2534.7974      1232.5411    
        45   22.5           254.33757     -6848.926       2328.2233     -9177.1493     -6669.7754      1.0002421      31.286905      31.286905      31.286905      30625.826      193.05422     -113.82727      1124.0783      401.10176    
        46   23             253.31815     -6849.1765      2318.8915     -9168.068      -6822.0166      1.0002359      31.286969      31.286969      31.286969      30626.014      571.42223     -595.55862      206.5607       60.808106    
        47   23.5           240.96956     -6846.4001      2205.8516     -9052.2517     -6713.3636      1.0002298      31.287033      31.287033      31.287033      30626.201      1544.9141     -589.60088     -61.754478      297.85291    
        48   24             221.43714     -6841.4674      2027.0505     -8868.5179     -6404.5868      1.0002236      31.287097      31.287097      31.287097      30626.39       2895.1922     -206.50606      245.66606      978.11741    
        49   24.5           202.49079     -6836.2217      1853.6144     -8689.8361     -6027.4147      1.0002173      31.287163      31.287163      31.287163      30626.585      4245.3074      307.15793      879.93451      1810.8       
        50   25             192.31824     -6833.0308      1760.4942     -8593.525      -5726.1447      1.0002106      31.287233      31.287233      31.287233      30626.79       5204.4751      690.1671       1539.7729      2478.1384    
        51   25.5           195.6104      -6833.5477      1790.6308     -8624.1785     -5591.9144      1.0002034      31.287308      31.287308      31.287308      30627.009      5529.0688      795.11383      2015.2045      2779.7957    
        52   26             210.9373      -6837.4427      1930.9343     -8768.377      -5621.5682      1.0001958      31.287388      31.287388      31.287388      30627.243      5220.1893      663.07352      2283.0536      2722.1055    
        53   26.5           231.2891      -6842.4338      2117.2361     -8959.6699     -5725.6165      1.0001876      31.287473      31.287473      31.287473      30627.493      4504.4313      500.41846      2496.096       2500.3153    
        54   27             247.66484     -6845.8667      2267.1407     -9113.0075     -5782.2976      1.000179       31.287563      31.287563      31.287563      30627.757      3711.6821      563.92114      2867.6472      2381.0835    
        55   27.5           253.42637     -6846.1311      2319.8821     -9166.0133     -5705.9204      1.0001699      31.287657      31.287657      31.287657      30628.035      3116.6503      1016.249       3525.0299      2552.6431    
        56   28             247.15959     -6842.9589      2262.5156     -9105.4744     -5494.1243      1.0001604      31.287756      31.287756      31.287756      30628.327      2819.7016      1826.1786      4413.131       3019.6704    
        57   28.5           233.20576     -6837.4403      2134.7813     -8972.2216     -5234.8897      1.0001503      31.287862      31.287862      31.287862      30628.635      2716.4346      2758.5878      5287.8814      3587.6346    
        58   29             219.75        -6831.9363      2011.6064     -8843.5427     -5070.2811      1.0001396      31.287974      31.287974      31.287974      30628.965      2568.2133      3462.3754      5800.7521      3943.7803    
        59   29.5           214.86845     -6829.0945      1966.9203     -8796.0148     -5129.2876      1.0001281      31.288093      31.288093      31.288093      30629.316      2144.9127      3625.0414      5645.8805      3805.2782    
        60   30             222.26557     -6830.107       2034.6341     -8864.7411     -5460.5469      1.0001159      31.28822       31.28822       31.28822       30629.689      1368.3412      3122.1322      4707.3251      3065.9329    
        61   30.5           239.34348     -6833.8095      2190.9664     -9024.776      -6002.45        1.0001032      31.288353      31.288353      31.288353      30630.079      375.15903      2078.2412      3129.8374      1861.0792    
        62   31             258.9096      -6837.7096      2370.076      -9207.7855     -6608.4657      1.0000901      31.28849       31.28849       31.28849       30630.479     -536.39215      805.5429       1270.3834      513.17806    
        63   31.5           273.09341     -6839.7466      2499.9155     -9339.6622     -7110.5438      1.0000769      31.288627      31.288627      31.288627      30630.883     -1041.0391     -336.45328     -441.07724     -606.18989    
        64   32             276.87714     -6839.04        2534.552      -9373.592      -7384.8804      1.0000639      31.288763      31.288763      31.288763      30631.283     -929.56467     -1080.9379     -1655.1041     -1221.8689    
        65   32.5           269.83665     -6835.7124      2470.103      -9305.8154     -7393.1734      1.000051       31.288897      31.288897      31.288897      30631.676     -200.17448     -1337.0637     -2206.3587     -1247.8656    
        66   33             256.0712      -6830.6933      2344.0931     -9174.7864     -7188.7618      1.0000384      31.289029      31.289029      31.289029      30632.063      930.59359     -1196.306      -2138.8456     -801.51934    
        67   33.5           242.59678     -6825.6326      2220.7474     -9046.38       -6888.6316      1.000026       31.289159      31.289159      31.289159      30632.444      2100.7492     -869.85471     -1653.9496     -141.01839    
        68   34             236.50314     -6822.4529      2164.9658     -8987.4187     -6621.2151      1.0000135      31.289288      31.289288      31.289288      30632.825      2939.3801     -583.83874     -1004.1911      450.45008    
        69   34.5           241.73661     -6822.4112      2212.8733     -9035.2845     -6470.3171      1.000001       31.289419      31.289419      31.289419      30633.209      3215.0971     -474.28415     -376.4639       788.11635    
        70   35             257.04637     -6825.2069      2353.0198     -9178.2268     -6441.0219      0.99998834     31.289551      31.289551      31.289551      30633.597      2925.9008     -528.03949      181.94923      859.93685    
        71   35.5           276.45583     -6828.9904      2530.6953     -9359.6858     -6466.0849      0.99997551     31.289685      31.289685      31.289685      30633.99       2280.8862     -599.6962       755.69707      812.2957     
        72   36             292.19968     -6831.4978      2674.8157     -9506.3134     -6450.3441      0.99996254     31.28982       31.28982       31.28982       30634.387      1583.7871     -498.99543      1474.5969      853.12953    
        73   36.5           298.4549      -6831.2068      2732.0764     -9563.2832     -6328.2634      0.99994941     31.289957      31.289957      31.289957      30634.789      1083.819      -105.40067      2398.7261      1125.7148    
        74   37             293.9793      -6827.862       2691.1064     -9518.9684     -6104.9573      0.99993608     31.290096      31.290096      31.290096      30635.198      867.32666      547.34026      3439.3992      1618.022     
        75   37.5           282.60062     -6822.6085      2586.9452     -9409.5537     -5861.7364      0.99992244     31.290238      31.290238      31.290238      30635.615      835.12367      1259.7842      4356.9428      2150.6169    
        76   38             271.32704     -6817.5866      2483.7461     -9301.3327     -5722.5055      0.99990841     31.290385      31.290385      31.290385      30636.045      773.73648      1739.4234      4839.7452      2450.9684    
        77   38.5           266.83758     -6814.8412      2442.6493     -9257.4905     -5795.3033      0.99989393     31.290536      31.290536      31.290536      30636.489      484.45219      1727.867       4633.2526      2281.8573    
        78   39             272.11671     -6815.1769      2490.9748     -9306.1516     -6117.7185      0.99987903     31.290691      31.290691      31.290691      30636.946     -98.058999      1120.7486      3660.2462      1560.9786    
        79   39.5           285.07097     -6817.7246      2609.559      -9427.2836     -6634.3726      0.99986384     31.29085       31.29085       31.29085       30637.411     -858.49501      19.337743      2070.2171      410.35326    
        80   40             299.84743     -6820.5268      2744.8237     -9565.3504     -7217.5122      0.99984857     31.291009      31.291009      31.291009      30637.879     -1545.4628     -1311.2028      191.27296     -888.46422    
        81   40.5           309.94779     -6821.7895      2837.2831     -9659.0726     -7719.0651      0.99983347     31.291166      31.291166      31.291166      30638.342     -1883.2847     -2553.4684     -1587.5382     -2008.0971    
        82   41             311.2401      -6820.7291      2849.1129     -9669.8421     -8026.5631      0.99981874     31.29132       31.29132       31.29132       30638.793     -1695.2386     -3458.332      -2942.2562     -2698.609     
        83   41.5           303.46854     -6817.5492      2777.9715     -9595.5208     -8098.3969      0.9998045      31.291469      31.291469      31.291469      30639.229     -983.42127     -3918.1315     -3697.785      -2866.4459    
        84   42             290.07055     -6813.1302      2655.3255     -9468.4556     -7968.6641      0.9997908      31.291612      31.291612      31.291612      30639.649      64.514369     -3972.6844     -3849.7315     -2585.9672    
        85   42.5           276.7068      -6808.7972      2532.9928     -9341.7899     -7724.0395      0.99977757     31.29175       31.29175       31.29175       30640.055      1144.2402     -3759.8736     -3528.9426     -2048.192     
        86   43             268.9752      -6805.9769      2462.2172     -9268.1941     -7462.5536      0.99976471     31.291884      31.291884      31.291884      30640.449      1953.7809     -3437.6165     -2924.1046     -1469.3134    
        87   43.5           269.9782      -6805.6271      2471.3987     -9277.0258     -7250.7845      0.99975213     31.292015      31.292015      31.292015      30640.834      2312.744      -3110.663      -2190.6159     -996.17828    
        88   44             278.75663     -6807.5504      2551.757      -9359.3074     -7097.9015      0.99973973     31.292144      31.292144      31.292144      30641.215      2227.7371     -2789.967      -1386.9994     -649.74312    
        89   44.5           290.64434     -6810.2351      2660.578      -9470.8131     -6960.6431      0.99972745     31.292272      31.292272      31.292272      30641.591      1872.2602     -2402.8816     -479.10798     -336.57647    
        90   45             299.67204     -6811.774       2743.2181     -9554.9921     -6778.4139      0.99971523     31.2924        31.2924        31.2924        30641.965      1489.6915     -1853.1326      587.39338      74.650731    
        91   45.5           301.65395     -6810.9964      2761.3606     -9572.357      -6518.1161      0.99970299     31.292528      31.292528      31.292528      30642.34       1268.4884     -1099.9741      1797.6215      655.37862    
        92   46             296.17876     -6807.9692      2711.2404     -9519.2096     -6203.0128      0.99969064     31.292657      31.292657      31.292657      30642.719      1255.8643     -213.35274      3018.5735      1353.695     
        93   46.5           286.57307     -6803.8838      2623.3093     -9427.1931     -5910.8761      0.99967804     31.292788      31.292788      31.292788      30643.105      1352.9827      627.31921      4014.4029      1998.2349    
        94   47             277.99571     -6800.3828      2544.7916     -9345.1744     -5742.5465      0.99966507     31.292923      31.292923      31.292923      30643.503      1385.1351      1197.0094      4518.9523      2367.0322    
        95   47.5           274.7664      -6798.6156      2515.2302     -9313.8458     -5777.09        0.99965166     31.293063      31.293063      31.293063      30643.914      1199.8572      1321.6506      4335.7486      2285.7521    
        96   48             278.39771     -6798.7608      2548.4714     -9347.2323     -6036.531       0.99963783     31.293208      31.293208      31.293208      30644.338      743.00842      953.55195      3420.0351      1705.5318    
        97   48.5           287.16411     -6800.1778      2628.7197     -9428.8975     -6475.4824      0.99962369     31.293355      31.293355      31.293355      30644.771      86.337275      188.88113      1904.3227      726.51369    
        98   49             297.10777     -6801.7495      2719.7446     -9521.4941     -6997.3713      0.99960941     31.293504      31.293504      31.293504      30645.209     -599.55095     -772.39775      58.841549     -437.70238    
        99   49.5           303.90654     -6802.3436      2781.9811     -9584.3246     -7488.8298      0.99959522     31.293652      31.293652      31.293652      30645.644     -1117.3318     -1699.9171     -1790.708      -1535.9857    
       100   50             304.78474     -6801.3513      2790.0202     -9591.3715     -7857.635       0.99958131     31.293797      31.293797      31.293797      30646.071     -1329.6444     -2407.7889     -3352.6468     -2363.3601    
Loop time of 297.88 on 1 procs for 100 steps with 3072 atoms

Performance: 0.015 ns/day, 1654.890 hours/ns, 0.336 timesteps/s, 1.031 katom-step/s
99.5% CPU use with 1 MPI tasks x 1 OpenMP threads

MPI task timing breakdown:
Section |  min time  |  avg time  |  max time  |%varavg| %total
---------------------------------------------------------------
Pair    | 296.12     | 296.12     | 296.12     |   0.0 | 99.41
Bond    | 3.2977e-05 | 3.2977e-05 | 3.2977e-05 |   0.0 |  0.00
Neigh   | 0.23028    | 0.23028    | 0.23028    |   0.0 |  0.08
Comm    | 0.014389   | 0.014389   | 0.014389   |   0.0 |  0.00
Output  | 0.65842    | 0.65842    | 0.65842    |   0.0 |  0.22
Modify  | 0.85752    | 0.85752    | 0.85752    |   0.0 |  0.29
Other   |            | 0.002565   |            |       |  0.00

Nlocal:           3072 ave        3072 max        3072 min
Histogram: 1 0 0 0 0 0 0 0 0 0
Nghost:          12032 ave       12032 max       12032 min
Histogram: 1 0 0 0 0 0 0 0 0 0
Neighs:         854461 ave      854461 max      854461 min
Histogram: 1 0 0 0 0 0 0 0 0 0

Total # of neighbors = 854461
Ave neighs/atom = 278.14486
Ave special neighs/atom = 2
Neighbor list builds = 10
Dangerous builds = 0

write_data      final.data nocoeff
System init for write_data ...
Generated 0 of 1 mixed pair_coeff terms from arithmetic mixing rule
WARNING: Bonds are defined but no bond style is set (src/force.cpp:198)
WARNING: Likewise 1-2 special neighbor interactions != 1.0 (src/force.cpp:200)
WARNING: Angles are defined but no angle style is set (src/force.cpp:203)
WARNING: Likewise 1-3 special neighbor interactions != 1.0 (src/force.cpp:205)
write_restart   restart.new
System init for write_restart ...
Generated 0 of 1 mixed pair_coeff terms from arithmetic mixing rule
WARNING: Bonds are defined but no bond style is set (src/force.cpp:198)
WARNING: Likewise 1-2 special neighbor interactions != 1.0 (src/force.cpp:200)
WARNING: Angles are defined but no angle style is set (src/force.cpp:203)
WARNING: Likewise 1-3 special neighbor interactions != 1.0 (src/force.cpp:205)

[MBX] Total MBX fix/pair time= 301.139144 seconds
[MBX] Timing Summary
[MBX] kernel                      tmin          tavg          tmax         count   %total
[MBX] -----------------------------------------------------------------------------------
[MBX] INIT                :       0.59387       0.59387       0.59387        11     0.20%
[MBX] UPDATE_XYZ          :      0.056885      0.056885      0.056885       101     0.02%
[MBX] ACCUMULATE_F        :       0.12721       0.12721       0.12721       505     0.04%
[MBX] E1B                 :       0.56156       0.56156       0.56156       101     0.19%
[MBX] E2B_LOCAL           :             0             0             0         0     0.00%
[MBX] E2B_GHOST           :        16.223        16.223        16.223       101     5.39%
[MBX] E3B_LOCAL           :             0             0             0         0     0.00%
[MBX] E3B_GHOST           :        125.83        125.83        125.83       101    41.78%
[MBX] E4B_LOCAL           :             0             0             0         0     0.00%
[MBX] E4B_GHOST           :       0.38697       0.38697       0.38697       101     0.13%
[MBX] DISP                :        15.423        15.423        15.423       101     5.12%
[MBX] DISP_PME            :         4.782         4.782         4.782       101     1.59%
[MBX] BUCK                :        13.287        13.287        13.287       202     4.41%
[MBX] ELE                 :        122.49        122.49        122.49       101    40.68%
[MBX] INIT_FULL           :             0             0             0         0     0.00%
[MBX] UPDATE_XYZ_FULL     :             0             0             0         0     0.00%
[MBX] ACCUMULATE_F_FULL   :             0             0             0         0     0.00%
[MBX] INIT_LOCAL          :       0.11809       0.11809       0.11809        11     0.04%
[MBX] UPDATE_XYZ_LOCAL    :       0.10344       0.10344       0.10344       101     0.03%
[MBX] ACCUMULATE_F_LOCAL  :      0.066282      0.066282      0.066282       404     0.02%


[MBX] Electrostatics Summary
[MBX] kernel                      tmin          tavg          tmax         count   %total
[MBX] -----------------------------------------------------------------------------------
[MBX] ELE_PERMDIP_REAL    :         10.54         10.54         10.54       101     3.50%
[MBX] ELE_PERMDIP_PME     :        3.2902        3.2902        3.2902       101     1.09%
[MBX] ELE_DIPFIELD_REAL   :         41.03         41.03         41.03      1212    13.62%
[MBX] ELE_DIPFIELD_PME    :        40.784        40.784        40.784      1212    13.54%
[MBX] ELE_GRAD_REAL       :        10.657        10.657        10.657       101     3.54%
[MBX] ELE_GRAD_PME        :        10.875        10.875        10.875       101     3.61%
[MBX] ELE_GRAD_FIN        :       0.18512       0.18512       0.18512       101     0.06%
[MBX] ELE_PME_SETUP       :    0.00017243    0.00017243    0.00017243      1414     0.00%
[MBX] ELE_PME_C           :         6.445         6.445         6.445       202     2.14%
[MBX] ELE_PME_D           :        44.414        44.414        44.414      1313    14.75%
[MBX] ELE_PME_E           :        3.9303        3.9303        3.9303       101     1.31%
[MBX] DISP_PME_SETUP      :       0.23272       0.23272       0.23272       101     0.08%
[MBX] DISP_PME_E          :        4.3565        4.3565        4.3565       101     1.45%
[MBX] ELE_COMM_REVFOR     :      0.052712      0.052712      0.052712      1313     0.02%
[MBX] ELE_COMM_REVSET     :    0.00081131    0.00081131    0.00081131        11     0.00%
[MBX] ELE_COMM_REV        :    0.00067847    0.00067847    0.00067847      1302     0.00%
[MBX] ELE_COMM_FORSET     :      0.003567      0.003567      0.003567        11     0.00%
[MBX] ELE_COMM_FOR        :      0.037177      0.037177      0.037177      1302     0.01%
Total wall time: 0:05:01
