LAMMPS (4 Jul 2026)
  using 1 OpenMP thread(s) per MPI task
variable        T   equal  125
variable        dt  equal  0.2
variable        P   equal  20.0
variable        nsteps  equal 100
variable        thermo_freq equal 1
variable        dump_freq equal 1

processors      * * * map xyz

units           real
atom_style      full
boundary        p p p
read_data       initial.data
Reading data file ...
  orthogonal box = (-12.019398 -12.019398 -12.019398) to (12.019398 12.019398 12.019398)
  1 by 1 by 1 MPI processor grid
  reading atoms ...
  1280 atoms
  reading velocities ...
  1280 velocities
  scanning bonds ...
  4 = max bonds/atom
  scanning angles ...
  6 = max angles/atom
  orthogonal box = (-12.019398 -12.019398 -12.019398) to (12.019398 12.019398 12.019398)
  1 by 1 by 1 MPI processor grid
  reading bonds ...
  1024 bonds
  reading angles ...
  1536 angles
Finding 1-2 1-3 1-4 neighbors ...
  special bond factors lj:    0        0        0       
  special bond factors coul:  0        0        0       
     4 = max # of 1-2 neighbors
     3 = max # of 1-3 neighbors
     3 = max # of 1-4 neighbors
     4 = max # of special neighbors
  special bonds CPU = 0.000 seconds
  read_data CPU = 0.014 seconds
#read_restart    restart.old

pair_style      mbx 9.0

bond_style      none
angle_style     none
dihedral_style  none
improper_style  none

pair_coeff      * * 1 ch4 1 2 2 2 2 json mbx.json

neighbor        2.0 bin
neigh_modify    every 1 delay 1 check no

timestep        ${dt}
timestep        0.2

compute         mbx all pair mbx
variable        e1bpip    equal c_mbx[1]
variable        e2bpip    equal c_mbx[2]
variable        e3bpip    equal c_mbx[3]
variable        e4bpip    equal c_mbx[4]
variable        edisp     equal c_mbx[5]
variable        ebuck     equal c_mbx[6]
variable        eperm     equal c_mbx[7]
variable        eind      equal c_mbx[8]
variable        eele      equal c_mbx[9]
variable        etot      equal c_mbx[10]

#fix             1 all npt temp ${T} ${T} $(1000.0*dt) iso ${P} ${P} $(4000.0*dt)
#fix             1 all nvt temp ${T} ${T} $(1000.0*dt)
fix             1 all nve

velocity        all create ${T} 428459 rot yes dist gaussian
velocity        all create 125 428459 rot yes dist gaussian
velocity        all zero linear
velocity        all zero angular

thermo_style    custom step time temp etotal ke pe enthalpy density lx ly lz vol pxx pyy pzz press
thermo          ${thermo_freq}
thermo          1
thermo_modify   flush yes

fix             thermo_print all print ${thermo_freq} "$(step) $(0.001*time) $(temp) $(etotal) $(ke) $(pe) $(enthalpy) $(density) $(lx) $(ly) $(lz) $(vol) $(pxx) $(pyy) $(pzz) $(press)" file thermo.out screen no title "# step time temp etotal ke pe enthalpy density lx ly lz vol pxx pyy pzz press"
fix             thermo_print all print 1 "$(step) $(0.001*time) $(temp) $(etotal) $(ke) $(pe) $(enthalpy) $(density) $(lx) $(ly) $(lz) $(vol) $(pxx) $(pyy) $(pzz) $(press)" file thermo.out screen no title "# step time temp etotal ke pe enthalpy density lx ly lz vol pxx pyy pzz press"
fix             verbose_mbx_thermo_print all print ${thermo_freq} "$(step) $(0.001*time) $(temp) $(etotal) $(ke) $(pe) $(enthalpy) $(density) $(lx) $(ly) $(lz) $(vol) $(pxx) $(pyy) $(pzz) $(press) $(v_e1bpip) $(v_e2bpip) $(v_e3bpip) $(v_e4bpip) $(v_edisp) $(v_ebuck) $(v_eperm) $(v_eind) $(v_eele) $(v_etot)" file mbx_thermo.out screen no title "# step time temp etotal ke pe enthalpy density lx ly lz vol pxx pyy pzz press e1bpip e2bpip e3bpip e4bpip edisp ebuck eperm eind eele etot"
fix             verbose_mbx_thermo_print all print 1 "$(step) $(0.001*time) $(temp) $(etotal) $(ke) $(pe) $(enthalpy) $(density) $(lx) $(ly) $(lz) $(vol) $(pxx) $(pyy) $(pzz) $(press) $(v_e1bpip) $(v_e2bpip) $(v_e3bpip) $(v_e4bpip) $(v_edisp) $(v_ebuck) $(v_eperm) $(v_eind) $(v_eele) $(v_etot)" file mbx_thermo.out screen no title "# step time temp etotal ke pe enthalpy density lx ly lz vol pxx pyy pzz press e1bpip e2bpip e3bpip e4bpip edisp ebuck eperm eind eele etot"

dump            1 all custom ${dump_freq} dump.lammpstrj id mol type q x y z
dump            1 all custom 1 dump.lammpstrj id mol type q x y z
dump_modify     1 append no sort id format line "%d %d %d %8.4f %15.8f %15.8f %15.8f"

restart         10 restart.1 restart.2

run             ${nsteps}  upto
run             100  upto

CITE-CITE-CITE-CITE-CITE-CITE-CITE-CITE-CITE-CITE-CITE-CITE-CITE

Your simulation uses code contributions which should be cited:

- pair mbx command:

@article{10.1063/5.0156036,
 author = {Riera, Marc and Knight, Christopher and Bull-Vulpe, Ethan F. and Zhu, Xuanyu and Agnew, Henry and Smith, Daniel G. A. and Simmonett, Andrew C. and Paesani, Francesco},
 title = "{MBX: A many-body energy and force calculator for data-driven many-body simulations}",
 journal = {The Journal of Chemical Physics},
 volume = {159},
 number = {5},
 pages = {054802},
 year = {2023},
 doi = {10.1063/5.0156036},
 version = {1.4.0}
}

CITE-CITE-CITE-CITE-CITE-CITE-CITE-CITE-CITE-CITE-CITE-CITE-CITE

Generated 0 of 1 mixed pair_coeff terms from geometric mixing rule
WARNING: Bonds are defined but no bond style is set (src/force.cpp:198)
WARNING: Likewise 1-2 special neighbor interactions != 1.0 (src/force.cpp:200)
WARNING: Angles are defined but no angle style is set (src/force.cpp:203)
WARNING: Likewise 1-3 special neighbor interactions != 1.0 (src/force.cpp:205)
Neighbor list info ...
  update: every = 1 steps, delay = 1 steps, check = no
  max neighbors/atom: 2000, page size: 100000
  master list distance cutoff = 11
  ghost atom cutoff = 11
  binsize = 5.5, bins = 5 5 5
  1 neighbor lists, perpetual/occasional/extra = 1 0 0
  (1) pair mbx, perpetual
      attributes: half, newton on
      pair build: half/bin/newton
      stencil: half/bin/3d
      bin: standard
Per MPI rank memory allocation (min/avg/max) = 11.47 | 11.47 | 11.47 Mbytes
   Step          Time           Temp          TotEng         KinEng         PotEng        Enthalpy       Density           Lx             Ly             Lz           Volume          Pxx            Pyy            Pzz           Press     
         0   0              125            124.33099      476.55701     -352.22602      455.96278      0.49059107     24.038796      24.038796      24.038796      13891.148      141.06512      1933.8308      2836.0301      1636.9753    
         1   0.2            125.02335      124.3295       476.64603     -352.31653      455.0111       0.49059107     24.038796      24.038796      24.038796      13891.148      239.32066      1877.769       2779.7655      1632.2851    
         2   0.4            124.39292      124.33528      474.24255     -349.90727      456.87608      0.49059107     24.038796      24.038796      24.038796      13891.148      368.0591       1839.254       2717.074       1641.4623    
         3   0.6            123.13287      124.34796      469.43866     -345.09071      461.46395      0.49059107     24.038796      24.038796      24.038796      13891.148      525.58688      1818.6659      2647.8853      1664.046     
         4   0.8            121.29622      124.36684      462.43649     -338.06965      468.53669      0.49059107     24.038796      24.038796      24.038796      13891.148      709.24035      1815.5705      2571.7834      1698.8647    
         5   1              118.96189      124.3909       453.53699     -329.14608      477.72537      0.49059107     24.038796      24.038796      24.038796      13891.148      915.4625       1828.7663      2488.0784      1744.1024    
         6   1.2            116.2305       124.41887      443.12366     -318.70479      488.55081      0.49059107     24.038796      24.038796      24.038796      13891.148      1139.922       1856.3731      2395.9052      1797.4001    
         7   1.4            113.21896      124.44928      431.64232     -307.19304      500.45017      0.49059107     24.038796      24.038796      24.038796      13891.148      1377.6679      1895.9546      2294.3376      1855.9867    
         8   1.6            110.05448      124.48059      419.57786     -295.09727      512.80806      0.49059107     24.038796      24.038796      24.038796      13891.148      1623.3138      1944.6666      2182.5161      1916.8322    
         9   1.8            106.86798      124.51122      407.42949     -282.91827      524.99056      0.49059107     24.038796      24.038796      24.038796      13891.148      1871.2425      1999.4259      2059.7775      1976.8153    
        10   2              103.78762      124.53968      395.68574     -271.14606      536.37991      0.49059107     24.038796      24.038796      24.038796      13891.148      2115.8189      2057.085       1925.7783      2032.8941    
        11   2.2            100.9324       124.56458      384.80032     -260.23574      546.40821      0.49059107     24.038796      24.038796      24.038796      13891.148      2351.6045      2114.606       1780.6058      2082.2721    
        12   2.4            98.406456      124.58477      375.17029     -250.58553      554.58842      0.49059107     24.038796      24.038796      24.038796      13891.148      2573.5614      2169.2249      1624.8665      2122.551     
        13   2.6            96.294155      124.59931      367.11723     -242.51793      560.54051      0.49059107     24.038796      24.038796      24.038796      13891.148      2777.2357      2218.5941      1459.7485      2151.8594    
        14   2.8            94.656201      124.60758      360.87261     -236.26502      564.01191      0.49059107     24.038796      24.038796      24.038796      13891.148      2958.9139      2260.8967      1287.051       2168.9538    
        15   3              93.527044      124.60929      356.56774     -231.95845      564.89076      0.49059107     24.038796      24.038796      24.038796      13891.148      3115.7436      2294.9279      1109.179       2173.2835    
        16   3.2            92.913615      124.60447      354.22907     -229.6246       563.21154      0.49059107     24.038796      24.038796      24.038796      13891.148      3245.8142      2320.1379      929.10326      2165.0185    
        17   3.4            92.795519      124.59352      353.77884     -229.18532      559.15279      0.49059107     24.038796      24.038796      24.038796      13891.148      3348.1932      2336.6361      750.28498      2145.0381    
        18   3.6            93.126658      124.57713      355.04129     -230.46416      553.02685      0.49059107     24.038796      24.038796      24.038796      13891.148      3422.9163      2345.156       576.56946      2114.8806    
        19   3.8            93.838232      124.55632      357.75414     -233.19782      545.26236      0.49059107     24.038796      24.038796      24.038796      13891.148      3470.9317      2346.9854      412.05335      2076.6568    
        20   4              94.842966      124.53234      361.58464     -237.0523       536.38037      0.49059107     24.038796      24.038796      24.038796      13891.148      3494.0026      2343.8635      260.93157      2032.9326    
        21   4.2            96.040348      124.50661      366.1496      -241.64299      526.96536      0.49059107     24.038796      24.038796      24.038796      13891.148      3494.5714      2337.8547      127.33161      1986.5859    
        22   4.4            97.322593      124.48066      371.03811     -246.55744      517.63273      0.49059107     24.038796      24.038796      24.038796      13891.148      3475.5964      2331.2022      15.142466      1940.647     
        23   4.6            98.580997      124.45602      375.83572     -251.37971      508.99418      0.49059107     24.038796      24.038796      24.038796      13891.148      3440.3666      2326.1705     -72.153845      1898.1277    
        24   4.8            99.712329      124.43412      380.14887     -255.71475      501.62326      0.49059107     24.038796      24.038796      24.038796      13891.148      3392.309       2324.8854     -131.63833      1861.852     
        25   5              100.62489      124.41627      383.62796     -259.21169      496.02275      0.49059107     24.038796      24.038796      24.038796      13891.148      3334.7973      2329.1812     -161.09243      1834.2954    
        26   5.2            101.24389      124.40351      385.98788     -261.58436      492.59566      0.49059107     24.038796      24.038796      24.038796      13891.148      3270.9734      2340.4617     -159.10983      1817.4417    
        27   5.4            101.51589      124.39663      387.02486     -262.62824      491.62154      0.49059107     24.038796      24.038796      24.038796      13891.148      3203.5914      2359.586      -125.17537      1812.6674    
        28   5.6            101.41198      124.39604      386.62872     -262.23268      493.23952      0.49059107     24.038796      24.038796      24.038796      13891.148      3134.8927      2386.7855     -59.707639      1820.6568    
        29   5.8            100.92961      124.40183      384.78969     -260.38786      497.4391       0.49059107     24.038796      24.038796      24.038796      13891.148      3066.5179      2421.6176      35.938185      1841.3579    
        30   6              100.09286      124.4137       381.59963     -257.18593      504.05925      0.49059107     24.038796      24.038796      24.038796      13891.148      2999.4615      2462.9619      159.50799      1873.9771    
        31   6.2            98.951277      124.43103      377.2474      -252.81637      512.79616      0.49059107     24.038796      24.038796      24.038796      13891.148      2934.0703      2509.0575      307.9265       1917.0181    
        32   6.4            97.577144      124.45284      372.00857     -247.55574      523.21915      0.49059107     24.038796      24.038796      24.038796      13891.148      2870.0855      2557.582       477.41136      1968.3596    
        33   6.6            96.061463      124.47789      366.23011     -241.75222      534.79401      0.49059107     24.038796      24.038796      24.038796      13891.148      2806.7259      2605.7675      663.61919      2025.3708    
        34   6.8            94.508779      124.50475      360.31057     -235.80582      546.91231      0.49059107     24.038796      24.038796      24.038796      13891.148      2742.8067      2650.5443      861.81617      2085.0557    
        35   7              93.031137      124.53183      354.67712     -230.1453       558.92519      0.49059107     24.038796      24.038796      24.038796      13891.148      2676.8851      2688.7078      1067.0644      2144.2191    
        36   7.2            91.741501      124.55751      349.76044     -225.20293      570.17944      0.49059107     24.038796      24.038796      24.038796      13891.148      2607.4253      2717.094       1274.4147      2199.6447    
        37   7.4            90.747011      124.58024      345.96899     -221.38875      580.05382      0.49059107     24.038796      24.038796      24.038796      13891.148      2532.9701      2732.7567      1479.0941      2248.2736    
        38   7.6            90.142463      124.59859      343.66418     -219.06559      587.99347      0.49059107     24.038796      24.038796      24.038796      13891.148      2452.3091      2733.1343      1676.679       2287.3741    
        39   7.8            90.004418      124.6114       343.13789     -218.52649      593.5405       0.49059107     24.038796      24.038796      24.038796      13891.148      2364.6332      2716.1974      1863.2447      2314.6918    
        40   8              90.386289      124.61777      344.59375     -219.97598      596.35892      0.49059107     24.038796      24.038796      24.038796      13891.148      2269.6639      2680.5703      2035.4828      2328.5724    
        41   8.2            91.314722      124.61722      348.13336     -223.51614      596.25262      0.49059107     24.038796      24.038796      24.038796      13891.148      2167.7492      2625.6191      2190.7829      2328.0504    
        42   8.4            92.787506      124.60964      353.74829     -229.13865      593.17547      0.49059107     24.038796      24.038796      24.038796      13891.148      2059.9191      2551.5026      2327.2742      2312.8986    
        43   8.6            94.773133      124.59533      361.3184      -236.72307      587.23314      0.49059107     24.038796      24.038796      24.038796      13891.148      1947.8971      2459.1848      2443.8296      2283.6372    
        44   8.8            97.212052      124.57498      370.61668     -246.0417       578.67647      0.49059107     24.038796      24.038796      24.038796      13891.148      1834.0647      2350.4059      2540.0318      2241.5008    
        45   9              100.01954      124.54963      381.32011     -256.77047      567.88717      0.49059107     24.038796      24.038796      24.038796      13891.148      1721.3814      2227.6153      2616.1093      2188.3687    
        46   9.2            103.09003      124.52061      393.0262      -268.50559      555.35646      0.49059107     24.038796      24.038796      24.038796      13891.148      1613.2631      2093.8678      2672.8455      2126.6588    
        47   9.4            106.30259      124.48944      405.27396     -280.78452      541.65804      0.49059107     24.038796      24.038796      24.038796      13891.148      1513.4287      1952.6886      2711.4694      2059.1955    
        48   9.6            109.52734      124.45777      417.56817     -293.1104       527.41664      0.49059107     24.038796      24.038796      24.038796      13891.148      1425.7189      1807.9135      2733.5314      1989.0546    
        49   9.8            112.63227      124.42728      429.40559     -304.97831      513.27429      0.49059107     24.038796      24.038796      24.038796      13891.148      1353.9025      1663.5129      2740.7746      1919.3967    
        50   10             115.49024      124.39956      440.30147     -315.90191      499.85569      0.49059107     24.038796      24.038796      24.038796      13891.148      1301.4788      1523.4082      2735.0061      1853.2977    
        51   10.2           117.98561      124.37604      449.81495     -325.43891      487.73506      0.49059107     24.038796      24.038796      24.038796      13891.148      1271.4874      1391.2924      2717.9747      1793.5848    
        52   10.4           120.02023      124.35792      457.57186     -333.21394      477.40569      0.49059107     24.038796      24.038796      24.038796      13891.148      1266.3349      1270.4641      2691.2627      1742.6872    
        53   10.6           121.51843      124.34608      463.28369     -338.93761      469.25436      0.49059107     24.038796      24.038796      24.038796      13891.148      1287.6497      1163.6839      2656.1955      1702.5097    
        54   10.8           122.43071      124.34105      466.76169     -342.42065      463.54181      0.49059107     24.038796      24.038796      24.038796      13891.148      1336.1696      1073.0635      2613.777       1674.3367    
        55   11             122.73595      124.34299      467.92541     -343.58243      460.39029      0.49059107     24.038796      24.038796      24.038796      13891.148      1411.6701      999.99012      2564.6523      1658.7708    
        56   11.2           122.44213      124.35167      466.80525     -342.45358      459.77896      0.49059107     24.038796      24.038796      24.038796      13891.148      1512.9362      945.0926       2509.1024      1655.7104    
        57   11.4           121.5854       124.36652      463.53901     -339.17249      461.54716      0.49059107     24.038796      24.038796      24.038796      13891.148      1637.7806      908.24664      2447.0682      1664.3651    
        58   11.6           120.22769      124.38664      458.3628      -333.97616      465.4055       0.49059107     24.038796      24.038796      24.038796      13891.148      1783.1076      888.62043      2378.2051      1683.311     
        59   11.8           118.45299      124.41088      451.59683     -327.18594      470.95407      0.49059107     24.038796      24.038796      24.038796      13891.148      1945.0206      884.75556      2301.9632      1710.5798    
        60   12             116.36255      124.4379       443.62711     -319.18921      477.70658      0.49059107     24.038796      24.038796      24.038796      13891.148      2118.9674      894.67782      2217.6879      1743.7777    
        61   12.2           114.06928      124.46624      434.88412     -310.41788      485.11921      0.49059107     24.038796      24.038796      24.038796      13891.148      2299.9175      916.03139      2124.7334      1780.2274    
        62   12.4           111.69166      124.49442      425.81955     -301.32513      492.62225      0.49059107     24.038796      24.038796      24.038796      13891.148      2482.5624      946.22848      2022.5821      1817.1243    
        63   12.6           109.34752      124.52098      416.8826      -292.36162      499.65303      0.49059107     24.038796      24.038796      24.038796      13891.148      2661.5272      982.60524      1910.9614      1851.698     
        64   12.8           107.14795      124.5446       408.49685     -283.95225      505.68804      0.49059107     24.038796      24.038796      24.038796      13891.148      2831.5856      1022.5764      1789.9507      1881.3709    
        65   13             105.19177      124.56412      401.03899     -276.47488      510.27269      0.49059107     24.038796      24.038796      24.038796      13891.148      2987.8659      1063.7789      1660.0702      1903.905     
        66   13.2           103.56061      124.57861      394.82028     -270.24168      513.0469       0.49059107     24.038796      24.038796      24.038796      13891.148      3126.0395      1104.1958      1522.3468      1917.5273    
        67   13.4           102.31507      124.58741      390.07169     -265.48428      513.7653       0.49059107     24.038796      24.038796      24.038796      13891.148      3242.4834      1142.2557      1378.3509      1921.03      
        68   13.6           101.49187      124.59016      386.93331     -262.34315      512.31095      0.49059107     24.038796      24.038796      24.038796      13891.148      3334.4091      1176.9         1230.2035      1913.8375    
        69   13.8           101.10244      124.58682      385.44861     -260.86178      508.70193      0.49059107     24.038796      24.038796      24.038796      13891.148      3399.9528      1207.6167      1080.5489      1896.0395    
        70   14             101.13263      124.57766      385.5637      -260.98603      503.09058      0.49059107     24.038796      24.038796      24.038796      13891.148      3438.2221      1234.4395      932.49732      1868.3863    
        71   14.2           101.54395      124.56328      387.13183     -262.56856      495.7553       0.49059107     24.038796      24.038796      24.038796      13891.148      3449.2977      1257.9141      789.53674      1832.2495    
        72   14.4           102.27601      124.54453      389.92281     -265.37828      487.08561      0.49059107     24.038796      24.038796      24.038796      13891.148      3434.1888      1279.035       655.41844      1789.5474    
        73   14.6           103.25024      124.52255      393.63698     -269.11444      477.561        0.49059107     24.038796      24.038796      24.038796      13891.148      3394.7444      1299.1579      534.02148      1742.6413    
        74   14.8           104.37446      124.49862      397.92306     -273.42444      467.7248       0.49059107     24.038796      24.038796      24.038796      13891.148      3333.5247      1319.8939      429.20142      1694.2067    
        75   15             105.54845      124.47416      402.39884     -277.92468      458.15441      0.49059107     24.038796      24.038796      24.038796      13891.148      3253.64        1342.9902      344.63013      1647.0868    
        76   15.2           106.66976      124.45062      406.67377     -282.22315      449.42936      0.49059107     24.038796      24.038796      24.038796      13891.148      3158.5669      1370.2042      283.63416      1604.1351    
        77   15.4           107.63978      124.42939      410.37193     -285.94255      442.09885      0.49059107     24.038796      24.038796      24.038796      13891.148      3051.9501      1403.177       249.03958      1568.0556    
        78   15.6           108.3696       124.41173      413.15433     -288.7426       436.65048      0.49059107     24.038796      24.038796      24.038796      13891.148      2937.4045      1443.3118      243.03028      1541.2489    
        79   15.8           108.78529      124.39873      414.73912     -290.34039      433.48193      0.49059107     24.038796      24.038796      24.038796      13891.148      2818.3269      1491.6635      267.02778      1525.6727    
        80   16             108.83238      124.39119      414.91865     -290.52746      432.87738      0.49059107     24.038796      24.038796      24.038796      13891.148      2697.7301      1548.8474      321.60002      1522.7258    
        81   16.2           108.47925      124.38961      413.57238     -289.18277      434.98953      0.49059107     24.038796      24.038796      24.038796      13891.148      2578.1075      1614.9689      406.40181      1533.1594    
        82   16.4           107.71926      124.39417      410.67493     -286.28076      439.82868      0.49059107     24.038796      24.038796      24.038796      13891.148      2461.3354      1689.5823      520.15305      1557.0236    
        83   16.6           106.57141      124.40469      406.29881     -281.89412      447.25982      0.49059107     24.038796      24.038796      24.038796      13891.148      2348.6187      1771.6816      660.65764      1593.6527    
        84   16.8           105.07967      124.42066      400.61161     -276.19095      457.00767      0.49059107     24.038796      24.038796      24.038796      13891.148      2240.4838      1859.7249      824.86255      1641.6904    
        85   17             103.31076      124.44125      393.86774     -269.42649      468.66982      0.49059107     24.038796      24.038796      24.038796      13891.148      2136.8154      1951.6924      1008.9559      1699.1546    
        86   17.2           101.35072      124.46535      386.39516     -261.92982      481.73707      0.49059107     24.038796      24.038796      24.038796      13891.148      2036.9367      2045.1744      1208.5005      1763.5372    
        87   17.4           99.300221      124.49162      378.57773     -254.08611      495.62002      0.49059107     24.038796      24.038796      24.038796      13891.148      1939.7257      2137.4843      1418.5963      1831.9354    
        88   17.6           97.269057      124.51861      370.834       -246.3154       509.68028      0.49059107     24.038796      24.038796      24.038796      13891.148      1843.7597      2225.791       1634.0654      1901.2054    
        89   17.8           95.369976      124.54477      363.59384     -239.04908      523.26461      0.49059107     24.038796      24.038796      24.038796      13891.148      1747.4802      2307.2621      1849.6484      1968.1302    
        90   18             93.712276      124.56858      357.27393     -232.70535      535.73997      0.49059107     24.038796      24.038796      24.038796      13891.148      1649.3633      2379.2101      2060.2043      2029.5926    
        91   18.2           92.3955        124.58867      352.25378     -227.66512      546.52723      0.49059107     24.038796      24.038796      24.038796      13891.148      1548.0889      2439.2327      2260.9005      2082.7407    
        92   18.4           91.503625      124.60382      348.85355     -224.24973      555.13193      0.49059107     24.038796      24.038796      24.038796      13891.148      1442.6951      2485.3406      2447.3835      2125.1398    
        93   18.6           91.100095      124.61313      347.31511     -222.70198      561.16998      0.49059107     24.038796      24.038796      24.038796      13891.148      1332.7087      2516.0653      2615.9211      2154.8984    
        94   18.8           91.223997      124.61601      347.78748     -223.17147      564.38719      0.49059107     24.038796      24.038796      24.038796      13891.148      1218.243       2530.5424      2763.5087      2170.7647    
        95   19             91.887628      124.61224      350.31754     -225.7053       564.67148      0.49059107     24.038796      24.038796      24.038796      13891.148      1100.0576      2528.5663      2887.9357      2172.1865    
        96   19.2           93.075593      124.602        354.84661     -230.2446       562.05695      0.49059107     24.038796      24.038796      24.038796      13891.148      979.57473      2510.6116      2987.8081      2159.3315    
        97   19.4           94.745493      124.58582      361.21303     -236.62721      556.71999      0.49059107     24.038796      24.038796      24.038796      13891.148      858.85101      2477.8206      3062.5308      2133.0675    
        98   19.6           96.830155      124.56457      369.16071     -244.59614      548.96764      0.49059107     24.038796      24.038796      24.038796      13891.148      740.50641      2431.9585      3112.2524      2094.9058    
        99   19.8           99.241267      124.53942      378.35297     -253.81355      539.21875      0.49059107     24.038796      24.038796      24.038796      13891.148      627.61357      2375.334       3137.7771      2046.9082    
       100   20             101.87419      124.51173      388.39086     -263.87914      527.9793       0.49059107     24.038796      24.038796      24.038796      13891.148      523.55401      2310.6912      3140.4516      1991.5656    
Loop time of 167.756 on 1 procs for 100 steps with 1280 atoms

Performance: 0.010 ns/day, 2329.950 hours/ns, 0.596 timesteps/s, 763.011 atom-step/s
99.6% CPU use with 1 MPI tasks x 1 OpenMP threads

MPI task timing breakdown:
Section |  min time  |  avg time  |  max time  |%varavg| %total
---------------------------------------------------------------
Pair    | 165.93     | 165.93     | 165.93     |   0.0 | 98.91
Bond    | 2.6355e-05 | 2.6355e-05 | 2.6355e-05 |   0.0 |  0.00
Neigh   | 0.71391    | 0.71391    | 0.71391    |   0.0 |  0.43
Comm    | 0.013658   | 0.013658   | 0.013658   |   0.0 |  0.01
Output  | 0.1484     | 0.1484     | 0.1484     |   0.0 |  0.09
Modify  | 0.94961    | 0.94961    | 0.94961    |   0.0 |  0.57
Other   |            | 0.001995   |            |       |  0.00

Nlocal:           1280 ave        1280 max        1280 min
Histogram: 1 0 0 0 0 0 0 0 0 0
Nghost:           7706 ave        7706 max        7706 min
Histogram: 1 0 0 0 0 0 0 0 0 0
Neighs:         325364 ave      325364 max      325364 min
Histogram: 1 0 0 0 0 0 0 0 0 0

Total # of neighbors = 325364
Ave neighs/atom = 254.19063
Ave special neighs/atom = 4
Neighbor list builds = 100
Dangerous builds not checked

write_data      final.data nocoeff
System init for write_data ...
Generated 0 of 1 mixed pair_coeff terms from geometric mixing rule
WARNING: Bonds are defined but no bond style is set (src/force.cpp:198)
WARNING: Likewise 1-2 special neighbor interactions != 1.0 (src/force.cpp:200)
WARNING: Angles are defined but no angle style is set (src/force.cpp:203)
WARNING: Likewise 1-3 special neighbor interactions != 1.0 (src/force.cpp:205)
write_restart   restart.new
System init for write_restart ...
Generated 0 of 1 mixed pair_coeff terms from geometric mixing rule
WARNING: Bonds are defined but no bond style is set (src/force.cpp:198)
WARNING: Likewise 1-2 special neighbor interactions != 1.0 (src/force.cpp:200)
WARNING: Angles are defined but no angle style is set (src/force.cpp:203)
WARNING: Likewise 1-3 special neighbor interactions != 1.0 (src/force.cpp:205)
Total wall time: 0:02:49
