LAMMPS (10 Sep 2025 - Development - c68a6d42d5)
  using 1 OpenMP thread(s) per MPI task
variable        T   equal  125
variable        dt  equal  0.2
variable        P   equal  20.0
variable        nsteps  equal 100
variable        thermo_freq equal 1
variable        dump_freq equal 1

processors      * * * map xyz

units           real
atom_style      full
boundary        p p p
read_data       initial.data
Reading data file ...
  orthogonal box = (-12.019398 -12.019398 -12.019398) to (12.019398 12.019398 12.019398)
  1 by 1 by 1 MPI processor grid
  reading atoms ...
  1280 atoms
  reading velocities ...
  1280 velocities
  scanning bonds ...
  4 = max bonds/atom
  scanning angles ...
  6 = max angles/atom
  orthogonal box = (-12.019398 -12.019398 -12.019398) to (12.019398 12.019398 12.019398)
  1 by 1 by 1 MPI processor grid
  reading bonds ...
  1024 bonds
  reading angles ...
  1536 angles
Finding 1-2 1-3 1-4 neighbors ...
  special bond factors lj:    0        0        0       
  special bond factors coul:  0        0        0       
     4 = max # of 1-2 neighbors
     3 = max # of 1-3 neighbors
     3 = max # of 1-4 neighbors
     4 = max # of special neighbors
  special bonds CPU = 0.000 seconds
  read_data CPU = 0.017 seconds
#read_restart    restart.old

pair_style      mbx 9.0
pair_modify     mix arithmetic

bond_style      none
angle_style     none
dihedral_style  none
improper_style  none

pair_coeff      * * 1 ch4 1 2 2 2 2 json mbx.json

neighbor        2.0 bin
neigh_modify    every 1 delay 1 check no

timestep        ${dt}
timestep        0.2

compute         mbx all pair mbx
variable        e1bpip    equal c_mbx[1]
variable        e2bpip    equal c_mbx[2]
variable        e3bpip    equal c_mbx[3]
variable        e4bpip    equal c_mbx[4]
variable        edisp     equal c_mbx[5]
variable        ebuck     equal c_mbx[6]
variable        eperm     equal c_mbx[7]
variable        eind      equal c_mbx[8]
variable        eele      equal c_mbx[9]
variable        etot      equal c_mbx[10]

#fix             1 all npt temp ${T} ${T} $(1000.0*dt) iso ${P} ${P} $(4000.0*dt)
#fix             1 all nvt temp ${T} ${T} $(1000.0*dt)
fix             1 all nve

velocity        all create ${T} 428459 rot yes dist gaussian
velocity        all create 125 428459 rot yes dist gaussian
velocity        all zero linear
velocity        all zero angular

thermo_style    custom step time temp cella cellb cellc evdwl ecoul epair ebond eangle edihed eimp emol elong etail v_e1bpip v_e2bpip v_e3bpip v_e4bpip v_edisp v_ebuck v_eele v_etot pe enthalpy etotal
thermo          ${thermo_freq}
thermo          1
thermo_modify   flush yes

fix             thermo_print all print ${thermo_freq} "$(step) $(0.001*time) $(temp) $(etotal) $(ke) $(pe) $(enthalpy) $(density) $(lx) $(ly) $(lz) $(vol) $(pxx) $(pyy) $(pzz) $(press)" file thermo.out screen no title "# step time temp etotal ke pe enthalpy density lx ly lz vol pxx pyy pzz press"
fix             thermo_print all print 1 "$(step) $(0.001*time) $(temp) $(etotal) $(ke) $(pe) $(enthalpy) $(density) $(lx) $(ly) $(lz) $(vol) $(pxx) $(pyy) $(pzz) $(press)" file thermo.out screen no title "# step time temp etotal ke pe enthalpy density lx ly lz vol pxx pyy pzz press"
fix             verbose_mbx_thermo_print all print ${thermo_freq} "$(step) $(0.001*time) $(temp) $(etotal) $(ke) $(pe) $(enthalpy) $(density) $(lx) $(ly) $(lz) $(vol) $(pxx) $(pyy) $(pzz) $(press) $(v_e1bpip) $(v_e2bpip) $(v_e3bpip) $(v_e4bpip) $(v_edisp) $(v_ebuck) $(v_eperm) $(v_eind) $(v_eele) $(v_etot)" file mbx_thermo.out screen no title "# step time temp etotal ke pe enthalpy density lx ly lz vol pxx pyy pzz press e1bpip e2bpip e3bpip e4bpip edisp ebuck eperm eind eele etot"
fix             verbose_mbx_thermo_print all print 1 "$(step) $(0.001*time) $(temp) $(etotal) $(ke) $(pe) $(enthalpy) $(density) $(lx) $(ly) $(lz) $(vol) $(pxx) $(pyy) $(pzz) $(press) $(v_e1bpip) $(v_e2bpip) $(v_e3bpip) $(v_e4bpip) $(v_edisp) $(v_ebuck) $(v_eperm) $(v_eind) $(v_eele) $(v_etot)" file mbx_thermo.out screen no title "# step time temp etotal ke pe enthalpy density lx ly lz vol pxx pyy pzz press e1bpip e2bpip e3bpip e4bpip edisp ebuck eperm eind eele etot"

dump            1 all custom ${dump_freq} dump.lammpstrj id mol type q x y z
dump            1 all custom 1 dump.lammpstrj id mol type q x y z
dump_modify     1 append no sort id format line "%d %d %d %8.4f %15.8f %15.8f %15.8f"

restart         10 restart.1 restart.2

run             ${nsteps}  upto
run             100  upto

CITE-CITE-CITE-CITE-CITE-CITE-CITE-CITE-CITE-CITE-CITE-CITE-CITE

Your simulation uses code contributions which should be cited:

- pair mbx command:

@article{10.1063/5.0156036,
 author = {Riera, Marc and Knight, Christopher and Bull-Vulpe, Ethan F. and Zhu, Xuanyu and Agnew, Henry and Smith, Daniel G. A. and Simmonett, Andrew C. and Paesani, Francesco},
 title = "{MBX: A many-body energy and force calculator for data-driven many-body simulations}",
 journal = {The Journal of Chemical Physics},
 volume = {159},
 number = {5},
 pages = {054802},
 year = {2023},
 doi = {10.1063/5.0156036},
}

CITE-CITE-CITE-CITE-CITE-CITE-CITE-CITE-CITE-CITE-CITE-CITE-CITE

Generated 0 of 1 mixed pair_coeff terms from arithmetic mixing rule
WARNING: Bonds are defined but no bond style is set (src/force.cpp:198)
WARNING: Likewise 1-2 special neighbor interactions != 1.0 (src/force.cpp:200)
WARNING: Angles are defined but no angle style is set (src/force.cpp:203)
WARNING: Likewise 1-3 special neighbor interactions != 1.0 (src/force.cpp:205)
Neighbor list info ...
  update: every = 1 steps, delay = 1 steps, check = no
  max neighbors/atom: 2000, page size: 100000
  master list distance cutoff = 11
  ghost atom cutoff = 11
  binsize = 5.5, bins = 5 5 5
  1 neighbor lists, perpetual/occasional/extra = 1 0 0
  (1) pair mbx, perpetual
      attributes: half, newton on
      pair build: half/bin/newton
      stencil: half/bin/3d
      bin: standard
Per MPI rank memory allocation (min/avg/max) = 10.16 | 10.16 | 10.16 Mbytes
   Step          Time           Temp          Cella          Cellb          Cellc          E_vdwl         E_coul         E_pair         E_bond        E_angle        E_dihed        E_impro         E_mol          E_long         E_tail        v_e1bpip       v_e2bpip       v_e3bpip       v_e4bpip       v_edisp        v_ebuck         v_eele         v_etot         PotEng        Enthalpy        TotEng    
         0   0              125            24.038796      24.038796      24.038796     -352.22602      0             -352.22602      0              0              0              0              0              0              0              132.63636      431.27915      0              0             -910.44321      0             -5.6983275     -352.22602     -352.22602      455.96278      124.33099    
         1   0.2            125.02335      24.038796      24.038796      24.038796     -352.31653      0             -352.31653      0              0              0              0              0              0              0              132.49499      431.32988      0              0             -910.47348      0             -5.6679091     -352.31653     -352.31653      455.0111       124.3295     
         2   0.4            124.39292      24.038796      24.038796      24.038796     -349.90727      0             -349.90727      0              0              0              0              0              0              0              134.84345      431.38917      0              0             -910.50049      0             -5.639396      -349.90727     -349.90727      456.87608      124.33528    
         3   0.6            123.13287      24.038796      24.038796      24.038796     -345.09071      0             -345.09071      0              0              0              0              0              0              0              139.58957      431.45693      0              0             -910.52414      0             -5.613075      -345.09071     -345.09071      461.46395      124.34796    
         4   0.8            121.29622      24.038796      24.038796      24.038796     -338.06965      0             -338.06965      0              0              0              0              0              0              0              146.53177      431.53215      0              0             -910.54438      0             -5.5891944     -338.06965     -338.06965      468.53669      124.36684    
         5   1              118.96189      24.038796      24.038796      24.038796     -329.14608      0             -329.14608      0              0              0              0              0              0              0              155.37015      431.61296      0              0             -910.56123      0             -5.5679613     -329.14608     -329.14608      477.72537      124.3909     
         6   1.2            116.2305       24.038796      24.038796      24.038796     -318.70479      0             -318.70479      0              0              0              0              0              0              0              165.72279      431.69669      0              0             -910.57474      0             -5.5495403     -318.70479     -318.70479      488.55081      124.41887    
         7   1.4            113.21896      24.038796      24.038796      24.038796     -307.19304      0             -307.19304      0              0              0              0              0              0              0              177.14593      431.7801       0              0             -910.58501      0             -5.534053      -307.19304     -307.19304      500.45017      124.44928    
         8   1.6            110.05448      24.038796      24.038796      24.038796     -295.09727      0             -295.09727      0              0              0              0              0              0              0              189.15705      431.85943      0              0             -910.59217      0             -5.5215801     -295.09727     -295.09727      512.80806      124.48059    
         9   1.8            106.86798      24.038796      24.038796      24.038796     -282.91827      0             -282.91827      0              0              0              0              0              0              0              201.25958      431.9307       0              0             -910.59639      0             -5.512163      -282.91827     -282.91827      524.99056      124.51122    
        10   2              103.78762      24.038796      24.038796      24.038796     -271.14606      0             -271.14606      0              0              0              0              0              0              0              212.96777      431.9898       0              0             -910.59782      0             -5.5058079     -271.14606     -271.14606      536.37991      124.53968    
        11   2.2            100.9324       24.038796      24.038796      24.038796     -260.23574      0             -260.23574      0              0              0              0              0              0              0              223.83066      432.03275      0              0             -910.59666      0             -5.5024894     -260.23574     -260.23574      546.40821      124.56458    
        12   2.4            98.406456      24.038796      24.038796      24.038796     -250.58553      0             -250.58553      0              0              0              0              0              0              0              233.4538       432.05591      0              0             -910.59308      0             -5.5021547     -250.58553     -250.58553      554.58842      124.58477    
        13   2.6            96.294155      24.038796      24.038796      24.038796     -242.51793      0             -242.51793      0              0              0              0              0              0              0              241.51788      432.05618      0              0             -910.58726      0             -5.5047274     -242.51793     -242.51793      560.54051      124.59931    
        14   2.8            94.656201      24.038796      24.038796      24.038796     -236.26502      0             -236.26502      0              0              0              0              0              0              0              247.79317      432.03125      0              0             -910.57934      0             -5.5101118     -236.26502     -236.26502      564.01191      124.60758    
        15   3              93.527044      24.038796      24.038796      24.038796     -231.95845      0             -231.95845      0              0              0              0              0              0              0              252.14937      431.97983      0              0             -910.56945      0             -5.5181953     -231.95845     -231.95845      564.89076      124.60929    
        16   3.2            92.913615      24.038796      24.038796      24.038796     -229.6246       0             -229.6246       0              0              0              0              0              0              0              254.56014      431.90182      0              0             -910.55771      0             -5.5288516     -229.6246      -229.6246       563.21154      124.60447    
        17   3.4            92.795519      24.038796      24.038796      24.038796     -229.18532      0             -229.18532      0              0              0              0              0              0              0              255.10227      431.79852      0              0             -910.54417      0             -5.5419416     -229.18532     -229.18532      559.15279      124.59352    
        18   3.6            93.126658      24.038796      24.038796      24.038796     -230.46416      0             -230.46416      0              0              0              0              0              0              0              253.94937      431.67268      0              0             -910.5289       0             -5.5573149     -230.46416     -230.46416      553.02685      124.57713    
        19   3.8            93.838232      24.038796      24.038796      24.038796     -233.19782      0             -233.19782      0              0              0              0              0              0              0              251.36046      431.52842      0              0             -910.51189      0             -5.574809      -233.19782     -233.19782      545.26236      124.55632    
        20   4              94.842966      24.038796      24.038796      24.038796     -237.0523       0             -237.0523       0              0              0              0              0              0              0              247.66394      431.37116      0              0             -910.49315      0             -5.5942495     -237.0523      -237.0523       536.38037      124.53234    
        21   4.2            96.040348      24.038796      24.038796      24.038796     -241.64299      0             -241.64299      0              0              0              0              0              0              0              243.2378       431.20729      0              0             -910.47263      0             -5.6154486     -241.64299     -241.64299      526.96536      124.50661    
        22   4.4            97.322593      24.038796      24.038796      24.038796     -246.55744      0             -246.55744      0              0              0              0              0              0              0              238.48724      431.04381      0              0             -910.4503       0             -5.6382039     -246.55744     -246.55744      517.63273      124.48066    
        23   4.6            98.580997      24.038796      24.038796      24.038796     -251.37971      0             -251.37971      0              0              0              0              0              0              0              233.82072      430.88794      0              0             -910.42607      0             -5.6622972     -251.37971     -251.37971      508.99418      124.45602    
        24   4.8            99.712329      24.038796      24.038796      24.038796     -255.71475      0             -255.71475      0              0              0              0              0              0              0              229.62605      430.74659      0              0             -910.3999       0             -5.6874938     -255.71475     -255.71475      501.62326      124.43412    
        25   5              100.62489      24.038796      24.038796      24.038796     -259.21169      0             -259.21169      0              0              0              0              0              0              0              226.24762      430.62593      0              0             -910.3717       0             -5.7135417     -259.21169     -259.21169      496.02275      124.41627    
        26   5.2            101.24389      24.038796      24.038796      24.038796     -261.58436      0             -261.58436      0              0              0              0              0              0              0              223.96627      430.53097      0              0             -910.34144      0             -5.740172      -261.58436     -261.58436      492.59566      124.40351    
        27   5.4            101.51589      24.038796      24.038796      24.038796     -262.62824      0             -262.62824      0              0              0              0              0              0              0              222.98267      430.46524      0              0             -910.30905      0             -5.7671002     -262.62824     -262.62824      491.62154      124.39663    
        28   5.6            101.41198      24.038796      24.038796      24.038796     -262.23268      0             -262.23268      0              0              0              0              0              0              0              223.40539      430.43048      0              0             -910.27452      0             -5.794028      -262.23268     -262.23268      493.23952      124.39604    
        29   5.8            100.92961      24.038796      24.038796      24.038796     -260.38786      0             -260.38786      0              0              0              0              0              0              0              225.24408      430.42655      0              0             -910.23784      0             -5.8206468     -260.38786     -260.38786      497.4391       124.40183    
        30   6              100.09286      24.038796      24.038796      24.038796     -257.18593      0             -257.18593      0              0              0              0              0              0              0              228.40836      430.45139      0              0             -910.19903      0             -5.846641      -257.18593     -257.18593      504.05925      124.4137     
        31   6.2            98.951277      24.038796      24.038796      24.038796     -252.81637      0             -252.81637      0              0              0              0              0              0              0              232.71233      430.50111      0              0             -910.15812      0             -5.8716939     -252.81637     -252.81637      512.79616      124.43103    
        32   6.4            97.577144      24.038796      24.038796      24.038796     -247.55574      0             -247.55574      0              0              0              0              0              0              0              237.88466      430.57025      0              0             -910.11516      0             -5.8954923     -247.55574     -247.55574      523.21915      124.45284    
        33   6.6            96.061463      24.038796      24.038796      24.038796     -241.75222      0             -241.75222      0              0              0              0              0              0              0              243.58372      430.65204      0              0             -910.07024      0             -5.9177336     -241.75222     -241.75222      534.79401      124.47789    
        34   6.8            94.508779      24.038796      24.038796      24.038796     -235.80582      0             -235.80582      0              0              0              0              0              0              0              249.41691      430.73884      0              0             -910.02344      0             -5.9381317     -235.80582     -235.80582      546.91231      124.50475    
        35   7              93.031137      24.038796      24.038796      24.038796     -230.1453       0             -230.1453       0              0              0              0              0              0              0              254.9634       430.82257      0              0             -909.97484      0             -5.9564236     -230.1453      -230.1453       558.92519      124.53183    
        36   7.2            91.741501      24.038796      24.038796      24.038796     -225.20293      0             -225.20293      0              0              0              0              0              0              0              259.79877      430.89521      0              0             -909.92453      0             -5.9723762     -225.20293     -225.20293      570.17944      124.55751    
        37   7.4            90.747011      24.038796      24.038796      24.038796     -221.38875      0             -221.38875      0              0              0              0              0              0              0              263.52041      430.94924      0              0             -909.87261      0             -5.9857917     -221.38875     -221.38875      580.05382      124.58024    
        38   7.6            90.142463      24.038796      24.038796      24.038796     -219.06559      0             -219.06559      0              0              0              0              0              0              0              265.77203      430.97804      0              0             -909.81915      0             -5.9965131     -219.06559     -219.06559      587.99347      124.59859    
        39   7.8            90.004418      24.038796      24.038796      24.038796     -218.52649      0             -218.52649      0              0              0              0              0              0              0              266.2659       430.97622      0              0             -909.76419      0             -6.0044283     -218.52649     -218.52649      593.5405       124.6114     
        40   8              90.386289      24.038796      24.038796      24.038796     -219.97598      0             -219.97598      0              0              0              0              0              0              0              264.80142      430.93985      0              0             -909.70779      0             -6.0094732     -219.97598     -219.97598      596.35892      124.61777    
        41   8.2            91.314722      24.038796      24.038796      24.038796     -223.51614      0             -223.51614      0              0              0              0              0              0              0              261.27883      430.8666       0              0             -909.64994      0             -6.0116333     -223.51614     -223.51614      596.25262      124.61722    
        42   8.4            92.787506      24.038796      24.038796      24.038796     -229.13865      0             -229.13865      0              0              0              0              0              0              0              255.7072       430.75574      0              0             -909.59065      0             -6.0109443     -229.13865     -229.13865      593.17547      124.60964    
        43   8.6            94.773133      24.038796      24.038796      24.038796     -236.72307      0             -236.72307      0              0              0              0              0              0              0              248.2062       430.6081       0              0             -909.52988      0             -6.007491      -236.72307     -236.72307      587.23314      124.59533    
        44   8.8            97.212052      24.038796      24.038796      24.038796     -246.0417       0             -246.0417       0              0              0              0              0              0              0              239.00139      430.4259       0              0             -909.46758      0             -6.0014048     -246.0417      -246.0417       578.67647      124.57498    
        45   9              100.01954      24.038796      24.038796      24.038796     -256.77047      0             -256.77047      0              0              0              0              0              0              0              228.41348      430.21258      0              0             -909.40367      0             -5.9928598     -256.77047     -256.77047      567.88717      124.54963    
        46   9.2            103.09003      24.038796      24.038796      24.038796     -268.50559      0             -268.50559      0              0              0              0              0              0              0              216.84205      429.97252      0              0             -909.33809      0             -5.9820683     -268.50559     -268.50559      555.35646      124.52061    
        47   9.4            106.30259      24.038796      24.038796      24.038796     -280.78452      0             -280.78452      0              0              0              0              0              0              0              204.74471      429.71079      0              0             -909.27075      0             -5.9692746     -280.78452     -280.78452      541.65804      124.48944    
        48   9.6            109.52734      24.038796      24.038796      24.038796     -293.1104       0             -293.1104       0              0              0              0              0              0              0              192.61306      429.43285      0              0             -909.20156      0             -5.9547484     -293.1104      -293.1104       527.41664      124.45777    
        49   9.8            112.63227      24.038796      24.038796      24.038796     -304.97831      0             -304.97831      0              0              0              0              0              0              0              180.94669      429.14423      0              0             -909.13045      0             -5.938778      -304.97831     -304.97831      513.27429      124.42728    
        50   10             115.49024      24.038796      24.038796      24.038796     -315.90191      0             -315.90191      0              0              0              0              0              0              0              170.22685      428.85026      0              0             -909.05736      0             -5.921663      -315.90191     -315.90191      499.85569      124.39956    
        51   10.2           117.98561      24.038796      24.038796      24.038796     -325.43891      0             -325.43891      0              0              0              0              0              0              0              160.89127      428.55578      0              0             -908.98225      0             -5.9037069     -325.43891     -325.43891      487.73506      124.37604    
        52   10.4           120.02023      24.038796      24.038796      24.038796     -333.21394      0             -333.21394      0              0              0              0              0              0              0              153.31148      428.2649       0              0             -908.90512      0             -5.8852109     -333.21394     -333.21394      477.40569      124.35792    
        53   10.6           121.51843      24.038796      24.038796      24.038796     -338.93761      0             -338.93761      0              0              0              0              0              0              0              147.77398      427.98085      0              0             -908.82598      0             -5.8664671     -338.93761     -338.93761      469.25436      124.34608    
        54   10.8           122.43071      24.038796      24.038796      24.038796     -342.42065      0             -342.42065      0              0              0              0              0              0              0              144.46623      427.70576      0              0             -908.74489      0             -5.8477542     -342.42065     -342.42065      463.54181      124.34105    
        55   11             122.73595      24.038796      24.038796      24.038796     -343.58243      0             -343.58243      0              0              0              0              0              0              0              143.46814      427.4407       0              0             -908.66193      0             -5.8293322     -343.58243     -343.58243      460.39029      124.34299    
        56   11.2           122.44213      24.038796      24.038796      24.038796     -342.45358      0             -342.45358      0              0              0              0              0              0              0              144.74951      427.18558      0              0             -908.57724      0             -5.8114401     -342.45358     -342.45358      459.77896      124.35167    
        57   11.4           121.5854       24.038796      24.038796      24.038796     -339.17249      0             -339.17249      0              0              0              0              0              0              0              148.17348      426.93928      0              0             -908.49096      0             -5.7942935     -339.17249     -339.17249      461.54716      124.36652    
        58   11.6           120.22769      24.038796      24.038796      24.038796     -333.97616      0             -333.97616      0              0              0              0              0              0              0              153.50548      426.69972      0              0             -908.40327      0             -5.7780839     -333.97616     -333.97616      465.4055       124.38664    
        59   11.8           118.45299      24.038796      24.038796      24.038796     -327.18594      0             -327.18594      0              0              0              0              0              0              0              160.42737      426.46406      0              0             -908.31439      0             -5.7629787     -327.18594     -327.18594      470.95407      124.41088    
        60   12             116.36255      24.038796      24.038796      24.038796     -319.18921      0             -319.18921      0              0              0              0              0              0              0              168.5556       426.22883      0              0             -908.22452      0             -5.7491224     -319.18921     -319.18921      477.70658      124.4379     
        61   12.2           114.06928      24.038796      24.038796      24.038796     -310.41788      0             -310.41788      0              0              0              0              0              0              0              177.46242      425.99024      0              0             -908.13391      0             -5.7366382     -310.41788     -310.41788      485.11921      124.46624    
        62   12.4           111.69166      24.038796      24.038796      24.038796     -301.32513      0             -301.32513      0              0              0              0              0              0              0              186.69894      425.74432      0              0             -908.04276      0             -5.7256303     -301.32513     -301.32513      492.62225      124.49442    
        63   12.6           109.34752      24.038796      24.038796      24.038796     -292.36162      0             -292.36162      0              0              0              0              0              0              0              195.81873      425.48716      0              0             -907.95132      0             -5.7161866     -292.36162     -292.36162      499.65303      124.52098    
        64   12.8           107.14795      24.038796      24.038796      24.038796     -283.95225      0             -283.95225      0              0              0              0              0              0              0              204.40077      425.21516      0              0             -907.8598       0             -5.7083805     -283.95225     -283.95225      505.68804      124.5446     
        65   13             105.19177      24.038796      24.038796      24.038796     -276.47488      0             -276.47488      0              0              0              0              0              0              0              212.07061      424.92516      0              0             -907.76837      0             -5.7022739     -276.47488     -276.47488      510.27269      124.56412    
        66   13.2           103.56061      24.038796      24.038796      24.038796     -270.24168      0             -270.24168      0              0              0              0              0              0              0              218.51879      424.61468      0              0             -907.67722      0             -5.697918      -270.24168     -270.24168      513.0469       124.57861    
        67   13.4           102.31507      24.038796      24.038796      24.038796     -265.48428      0             -265.48428      0              0              0              0              0              0              0              223.51548      424.28207      0              0             -907.58647      0             -5.6953552     -265.48428     -265.48428      513.7653       124.58741    
        68   13.6           101.49187      24.038796      24.038796      24.038796     -262.34315      0             -262.34315      0              0              0              0              0              0              0              226.92104      423.92666      0              0             -907.49624      0             -5.6946187     -262.34315     -262.34315      512.31095      124.59016    
        69   13.8           101.10244      24.038796      24.038796      24.038796     -260.86178      0             -260.86178      0              0              0              0              0              0              0              228.69159      423.54894      0              0             -907.40658      0             -5.6957323     -260.86178     -260.86178      508.70193      124.58682    
        70   14             101.13263      24.038796      24.038796      24.038796     -260.98603      0             -260.98603      0              0              0              0              0              0              0              228.87966      423.15056      0              0             -907.31754      0             -5.6987095     -260.98603     -260.98603      503.09058      124.57766    
        71   14.2           101.54395      24.038796      24.038796      24.038796     -262.56856      0             -262.56856      0              0              0              0              0              0              0              227.62967      422.73446      0              0             -907.22913      0             -5.7035506     -262.56856     -262.56856      495.7553       124.56328    
        72   14.4           102.27601      24.038796      24.038796      24.038796     -265.37828      0             -265.37828      0              0              0              0              0              0              0              225.16853      422.30475      0              0             -907.14131      0             -5.7102413     -265.37828     -265.37828      487.08561      124.54453    
        73   14.6           103.25024      24.038796      24.038796      24.038796     -269.11444      0             -269.11444      0              0              0              0              0              0              0              221.79175      421.86661      0              0             -907.05406      0             -5.718749      -269.11444     -269.11444      477.561        124.52255    
        74   14.8           104.37446      24.038796      24.038796      24.038796     -273.42444      0             -273.42444      0              0              0              0              0              0              0              217.84581      421.42605      0              0             -906.96728      0             -5.7290202     -273.42444     -273.42444      467.7248       124.49862    
        75   15             105.54845      24.038796      24.038796      24.038796     -277.92468      0             -277.92468      0              0              0              0              0              0              0              213.70762      420.9896       0              0             -906.88093      0             -5.7409778     -277.92468     -277.92468      458.15441      124.47416    
        76   15.2           106.66976      24.038796      24.038796      24.038796     -282.22315      0             -282.22315      0              0              0              0              0              0              0              209.76236      420.5639       0              0             -906.7949       0             -5.7545185     -282.22315     -282.22315      449.42936      124.45062    
        77   15.4           107.63978      24.038796      24.038796      24.038796     -285.94255      0             -285.94255      0              0              0              0              0              0              0              206.3807       420.15539      0              0             -906.70912      0             -5.7695107     -285.94255     -285.94255      442.09885      124.42939    
        78   15.6           108.3696       24.038796      24.038796      24.038796     -288.7426       0             -288.7426       0              0              0              0              0              0              0              203.89691      419.76982      0              0             -906.62353      0             -5.7857939     -288.7426      -288.7426       436.65048      124.41173    
        79   15.8           108.78529      24.038796      24.038796      24.038796     -290.34039      0             -290.34039      0              0              0              0              0              0              0              202.58891      419.41194      0              0             -906.53807      0             -5.8031781     -290.34039     -290.34039      433.48193      124.39873    
        80   16             108.83238      24.038796      24.038796      24.038796     -290.52746      0             -290.52746      0              0              0              0              0              0              0              202.66147      419.08521      0              0             -906.4527       0             -5.821445      -290.52746     -290.52746      432.87738      124.39119    
        81   16.2           108.47925      24.038796      24.038796      24.038796     -289.18277      0             -289.18277      0              0              0              0              0              0              0              204.23346      418.79154      0              0             -906.36742      0             -5.8403494     -289.18277     -289.18277      434.98953      124.38961    
        82   16.4           107.71926      24.038796      24.038796      24.038796     -286.28076      0             -286.28076      0              0              0              0              0              0              0              207.32989      418.53122      0              0             -906.28225      0             -5.8596223     -286.28076     -286.28076      439.82868      124.39417    
        83   16.6           106.57141      24.038796      24.038796      24.038796     -281.89412      0             -281.89412      0              0              0              0              0              0              0              211.87925      418.30283      0              0             -906.19723      0             -5.8789746     -281.89412     -281.89412      447.25982      124.40469    
        84   16.8           105.07967      24.038796      24.038796      24.038796     -276.19095      0             -276.19095      0              0              0              0              0              0              0              217.71624      418.10335      0              0             -906.11244      0             -5.8981014     -276.19095     -276.19095      457.00767      124.42066    
        85   17             103.31076      24.038796      24.038796      24.038796     -269.42649      0             -269.42649      0              0              0              0              0              0              0              224.58988      417.92829      0              0             -906.02797      0             -5.9166876     -269.42649     -269.42649      468.66982      124.44125    
        86   17.2           101.35072      24.038796      24.038796      24.038796     -261.92982      0             -261.92982      0              0              0              0              0              0              0              232.17655      417.77197      0              0             -905.94393      0             -5.9344132     -261.92982     -261.92982      481.73707      124.46535    
        87   17.4           99.300221      24.038796      24.038796      24.038796     -254.08611      0             -254.08611      0              0              0              0              0              0              0              240.09747      417.62783      0              0             -905.86044      0             -5.95096       -254.08611     -254.08611      495.62002      124.49162    
        88   17.6           97.269057      24.038796      24.038796      24.038796     -246.3154       0             -246.3154       0              0              0              0              0              0              0              247.93947      417.48879      0              0             -905.77764      0             -5.9660177     -246.3154      -246.3154       509.68028      124.51861    
        89   17.8           95.369976      24.038796      24.038796      24.038796     -239.04908      0             -239.04908      0              0              0              0              0              0              0              255.27818      417.34768      0              0             -905.69565      0             -5.9792902     -239.04908     -239.04908      523.26461      124.54477    
        90   18             93.712276      24.038796      24.038796      24.038796     -232.70535      0             -232.70535      0              0              0              0              0              0              0              261.70209      417.19765      0              0             -905.61458      0             -5.9905026     -232.70535     -232.70535      535.73997      124.56858    
        91   18.2           92.3955        24.038796      24.038796      24.038796     -227.66512      0             -227.66512      0              0              0              0              0              0              0              266.8363       417.03252      0              0             -905.53453      0             -5.9994067     -227.66512     -227.66512      546.52723      124.58867    
        92   18.4           91.503625      24.038796      24.038796      24.038796     -224.24973      0             -224.24973      0              0              0              0              0              0              0              270.36445      416.84716      0              0             -905.45555      0             -6.0057872     -224.24973     -224.24973      555.13193      124.60382    
        93   18.6           91.100095      24.038796      24.038796      24.038796     -222.70198      0             -222.70198      0              0              0              0              0              0              0              272.0474       416.63777      0              0             -905.37768      0             -6.0094667     -222.70198     -222.70198      561.16998      124.61313    
        94   18.8           91.223997      24.038796      24.038796      24.038796     -223.17147      0             -223.17147      0              0              0              0              0              0              0              271.73775      416.402        0              0             -905.30091      0             -6.0103105     -223.17147     -223.17147      564.38719      124.61601    
        95   19             91.887628      24.038796      24.038796      24.038796     -225.7053       0             -225.7053       0              0              0              0              0              0              0              269.38902      416.1391       0              0             -905.22518      0             -6.0082298     -225.7053      -225.7053       564.67148      124.61224    
        96   19.2           93.075593      24.038796      24.038796      24.038796     -230.2446       0             -230.2446       0              0              0              0              0              0              0              265.05914      415.84984      0              0             -905.1504       0             -6.0031851     -230.2446      -230.2446       562.05695      124.602      
        97   19.4           94.745493      24.038796      24.038796      24.038796     -236.62721      0             -236.62721      0              0              0              0              0              0              0              258.90797      415.53644      0              0             -905.07643      0             -5.9951872     -236.62721     -236.62721      556.71999      124.58582    
        98   19.6           96.830155      24.038796      24.038796      24.038796     -244.59614      0             -244.59614      0              0              0              0              0              0              0              251.18892      415.20231      0              0             -905.00308      0             -5.9842982     -244.59614     -244.59614      548.96764      124.56457    
        99   19.8           99.241267      24.038796      24.038796      24.038796     -253.81355      0             -253.81355      0              0              0              0              0              0              0              242.23539      414.85184      0              0             -904.93015      0             -5.9706305     -253.81355     -253.81355      539.21875      124.53942    
       100   20             101.87419      24.038796      24.038796      24.038796     -263.87914      0             -263.87914      0              0              0              0              0              0              0              232.4426       414.49         0              0             -904.85739      0             -5.9543448     -263.87914     -263.87914      527.9793       124.51173    
Loop time of 265.132 on 1 procs for 100 steps with 1280 atoms

Performance: 0.007 ns/day, 3682.394 hours/ns, 0.377 timesteps/s, 482.778 atom-step/s
99.4% CPU use with 1 MPI tasks x 1 OpenMP threads

MPI task timing breakdown:
Section |  min time  |  avg time  |  max time  |%varavg| %total
---------------------------------------------------------------
Pair    | 262.36     | 262.36     | 262.36     |   0.0 | 98.95
Bond    | 2.6227e-05 | 2.6227e-05 | 2.6227e-05 |   0.0 |  0.00
Neigh   | 0.86612    | 0.86612    | 0.86612    |   0.0 |  0.33
Comm    | 0.023296   | 0.023296   | 0.023296   |   0.0 |  0.01
Output  | 0.27467    | 0.27467    | 0.27467    |   0.0 |  0.10
Modify  | 1.6068     | 1.6068     | 1.6068     |   0.0 |  0.61
Other   |            | 0.004219   |            |       |  0.00

Nlocal:           1280 ave        1280 max        1280 min
Histogram: 1 0 0 0 0 0 0 0 0 0
Nghost:           7706 ave        7706 max        7706 min
Histogram: 1 0 0 0 0 0 0 0 0 0
Neighs:         325364 ave      325364 max      325364 min
Histogram: 1 0 0 0 0 0 0 0 0 0

Total # of neighbors = 325364
Ave neighs/atom = 254.19063
Ave special neighs/atom = 4
Neighbor list builds = 100
Dangerous builds not checked

write_data      final.data nocoeff
System init for write_data ...
Generated 0 of 1 mixed pair_coeff terms from arithmetic mixing rule
WARNING: Bonds are defined but no bond style is set (src/force.cpp:198)
WARNING: Likewise 1-2 special neighbor interactions != 1.0 (src/force.cpp:200)
WARNING: Angles are defined but no angle style is set (src/force.cpp:203)
WARNING: Likewise 1-3 special neighbor interactions != 1.0 (src/force.cpp:205)
write_restart   restart.new
System init for write_restart ...
Generated 0 of 1 mixed pair_coeff terms from arithmetic mixing rule
WARNING: Bonds are defined but no bond style is set (src/force.cpp:198)
WARNING: Likewise 1-2 special neighbor interactions != 1.0 (src/force.cpp:200)
WARNING: Angles are defined but no angle style is set (src/force.cpp:203)
WARNING: Likewise 1-3 special neighbor interactions != 1.0 (src/force.cpp:205)

[MBX] Total MBX fix/pair time= 267.927241 seconds
[MBX] Timing Summary
[MBX] kernel                      tmin          tavg          tmax         count   %total
[MBX] -----------------------------------------------------------------------------------
[MBX] INIT                :       0.79103       0.79103       0.79103       101     0.30%
[MBX] UPDATE_XYZ          :        0.0367        0.0367        0.0367       101     0.01%
[MBX] ACCUMULATE_F        :      0.074184      0.074184      0.074184       505     0.03%
[MBX] E1B                 :      0.097751      0.097751      0.097751       101     0.04%
[MBX] E2B_LOCAL           :             0             0             0         0     0.00%
[MBX] E2B_GHOST           :        222.06        222.06        222.06       101    82.88%
[MBX] E3B_LOCAL           :             0             0             0         0     0.00%
[MBX] E3B_GHOST           :       0.24781       0.24781       0.24781       101     0.09%
[MBX] E4B_LOCAL           :             0             0             0         0     0.00%
[MBX] E4B_GHOST           :     0.0047321     0.0047321     0.0047321       101     0.00%
[MBX] DISP                :        5.7927        5.7927        5.7927       101     2.16%
[MBX] DISP_PME            :        2.3825        2.3825        2.3825       101     0.89%
[MBX] BUCK                :        4.7926        4.7926        4.7926       202     1.79%
[MBX] ELE                 :        29.527        29.527        29.527       101    11.02%
[MBX] INIT_FULL           :             0             0             0         0     0.00%
[MBX] UPDATE_XYZ_FULL     :             0             0             0         0     0.00%
[MBX] ACCUMULATE_F_FULL   :             0             0             0         0     0.00%
[MBX] INIT_LOCAL          :        0.6503        0.6503        0.6503       101     0.24%
[MBX] UPDATE_XYZ_LOCAL    :     0.0063321     0.0063321     0.0063321       101     0.00%
[MBX] ACCUMULATE_F_LOCAL  :      0.031975      0.031975      0.031975       404     0.01%


[MBX] Electrostatics Summary
[MBX] kernel                      tmin          tavg          tmax         count   %total
[MBX] -----------------------------------------------------------------------------------
[MBX] ELE_PERMDIP_REAL    :        2.3658        2.3658        2.3658       101     0.88%
[MBX] ELE_PERMDIP_PME     :        1.3387        1.3387        1.3387       101     0.50%
[MBX] ELE_DIPFIELD_REAL   :        8.0895        8.0895        8.0895       707     3.02%
[MBX] ELE_DIPFIELD_PME    :        9.5191        9.5191        9.5191       707     3.55%
[MBX] ELE_GRAD_REAL       :        2.4539        2.4539        2.4539       101     0.92%
[MBX] ELE_GRAD_PME        :        4.4659        4.4659        4.4659       101     1.67%
[MBX] ELE_GRAD_FIN        :     0.0096756     0.0096756     0.0096756       101     0.00%
[MBX] ELE_PME_SETUP       :    6.9907e-05    6.9907e-05    6.9907e-05       909     0.00%
[MBX] ELE_PME_C           :        2.6727        2.6727        2.6727       202     1.00%
[MBX] ELE_PME_D           :        11.023        11.023        11.023       808     4.11%
[MBX] ELE_PME_E           :        1.5966        1.5966        1.5966       101     0.60%
[MBX] DISP_PME_SETUP      :         0.295         0.295         0.295       101     0.11%
[MBX] DISP_PME_E          :        2.0382        2.0382        2.0382       101     0.76%
[MBX] ELE_COMM_REVFOR     :      0.023414      0.023414      0.023414       808     0.01%
[MBX] ELE_COMM_REVSET     :     0.0025325     0.0025325     0.0025325       101     0.00%
[MBX] ELE_COMM_REV        :    0.00037951    0.00037951    0.00037951       707     0.00%
[MBX] ELE_COMM_FORSET     :      0.010407      0.010407      0.010407       101     0.00%
[MBX] ELE_COMM_FOR        :     0.0062521     0.0062521     0.0062521       707     0.00%
Total wall time: 0:04:27
