832
Lattice="20.388850 0 0 0 20.388850 0 0 0 20.388850" Properties=species:S:1:pos:R:3 pbc="T T T"
O 2.668298 5.985156 3.370741
H 3.252886 5.422285 3.835188
H 3.055981 6.877132 3.389782
O 10.140671 4.532197 3.654538
H 10.612563 3.697430 3.483827
H 9.530656 4.435541 4.442399
O 8.823463 0.000916 1.774141
H 8.869971 19.476196 1.615044
H 9.325064 0.429700 1.021552
O 3.753044 3.952462 4.590713
H 3.742935 4.169065 5.498924
H 4.639042 3.987065 4.183785
O 6.487896 5.679182 6.680223
H 6.129368 6.608524 6.611617
H 7.390696 5.771264 7.119352
O 1.827844 2.689187 3.391752
H 2.544883 3.343016 3.439419
H 1.813702 2.498979 2.388412
O 2.282321 2.016323 6.448913
H 1.436200 1.869488 6.777436
H 2.152338 2.129739 5.523115
O 7.221806 1.493702 3.401578
H 7.788247 0.916755 2.855493
H 7.767694 2.029920 4.017759
O 4.380513 0.654100 3.302857
H 5.206049 1.139981 3.398654
H 3.590494 1.209533 3.546324
O 5.201459 1.541201 6.720855
H 4.561165 0.960887 6.296928
H 6.009478 0.927371 6.775806
O 4.194969 4.197656 7.690453
H 5.001254 4.676998 7.357599
H 4.429411 3.258535 7.440333
O 5.915444 3.983678 2.914796
H 5.391220 3.688924 2.182196
H 6.450244 3.189064 3.121246
O 1.774279 3.622699 9.858910
H 2.484793 3.627273 9.244060
H 1.435987 2.694206 9.682986
O 1.258124 5.740681 7.268138
H 0.957746 5.958326 6.321851
H 2.075688 5.089880 7.227131
O 4.419198 3.582289 0.831709
H 4.891225 2.849995 0.489188
H 3.418901 3.472267 0.643471
O 1.772607 2.691599 0.710049
H 2.051570 2.044457 0.049884
H 1.029955 3.172051 0.306163
O 3.527454 0.560982 8.909402
H 3.903564 1.045153 9.633386
H 3.929893 0.879645 8.099941
O 7.195182 6.488005 1.909186
H 7.465598 6.363483 0.999525
H 6.908048 5.596627 2.125744
O 10.137793 7.978596 0.835663
H 9.859101 7.846874 1.748731
H 9.983961 8.921359 0.636100
O 8.526249 5.916743 8.447127
H 8.579941 5.250186 9.116362
H 8.463311 6.798356 8.893909
O 2.269884 9.554984 1.993373
H 3.010887 9.099412 1.661340
H 2.256246 9.343353 2.961615
O 0.327013 5.915276 4.666790
H 1.092050 5.930237 4.040729
H 20.334445 4.991925 4.488903
O 8.023399 3.536014 5.191183
H 8.501673 3.334599 5.974817
H 7.317527 4.153581 5.378537
O 2.852843 8.906298 4.484468
H 2.801798 8.507206 5.361101
H 3.710744 9.382702 4.428546
O 2.892180 8.071883 7.478990
H 3.177149 8.282418 8.288556
H 2.326080 7.259502 7.639571
O 0.352043 6.914510 0.648871
H 0.707394 7.428940 20.299556
H 1.048343 7.125866 1.312130
O 5.698882 8.292209 6.656457
H 4.770762 8.144214 6.898556
H 5.793630 8.992773 5.957969
O 9.492313 7.318160 3.553459
H 10.054481 6.577280 3.627949
H 8.646515 6.899353 3.267471
O 5.162916 8.411198 2.583072
H 5.083552 8.728871 1.710739
H 5.696380 7.620265 2.516291
O 7.058753 8.591645 9.150152
H 7.533943 9.386812 9.239855
H 6.646975 8.541036 8.257404
O 9.379693 2.155672 7.271357
H 8.622949 1.784813 7.717350
H 9.759848 2.642406 8.026732
O 4.391051 8.077626 10.004146
H 5.290383 8.348467 9.976946
H 4.352372 7.097738 9.870812
O 9.524333 10.084121 4.344611
H 9.629587 10.644181 5.115978
H 9.480978 9.099163 4.569622
O 6.361760 1.607993 0.096051
H 6.419717 0.923672 0.744678
H 7.230307 2.084521 0.036201
O 7.607339 0.050748 7.099520
H 7.951422 20.233083 6.201689
H 8.070606 19.809339 7.722589
O 5.030806 9.795097 -0.012199
H 4.916213 10.627395 19.937209
H 5.898582 9.532330 19.990485
O 13.348474 1.949379 6.124015
H 12.724294 1.293760 5.807251
H 12.738408 2.712865 6.179873
O 14.014569 4.700902 2.491954
H 13.812723 4.604509 1.558744
H 14.249966 3.768972 2.804651
O 17.529415 2.646437 3.167534
H 17.440576 3.483859 2.748857
H 18.243229 2.754463 3.785179
O 16.836697 3.415828 7.432765
H 16.176217 4.139063 7.338169
H 17.693571 3.793566 7.107907
O 17.749694 0.854340 6.327221
H 17.467136 1.719301 6.622819
H 18.701435 0.765794 6.469129
O 13.240182 4.184938 9.194320
H 13.069959 4.949764 9.712946
H 13.889700 3.662827 9.678491
O 13.468832 8.877350 9.794078
H 13.644921 8.856006 8.833096
H 13.571291 7.902073 10.061028
O 13.217549 0.271897 2.861515
H 13.961343 0.852838 2.955222
H 13.245077 20.177171 2.024401
O 10.679954 3.037027 9.502628
H 10.173202 3.624878 10.088027
H 11.614879 3.322624 9.371675
O 14.054697 6.221720 4.768041
H 14.207282 5.621984 4.005962
H 13.617104 6.945770 4.252616
O 19.539519 3.424535 7.293399
H 19.868969 4.325000 7.395926
H 19.840855 2.973642 8.122515
O 17.433384 6.586939 5.200794
H 17.089048 7.459463 5.258986
H 18.381466 6.776737 5.049792
O 16.887007 5.675251 2.554463
H 17.061714 5.839318 3.422962
H 15.992269 5.296691 2.500214
O 14.802187 10.017036 5.024755
H 14.534636 10.889160 5.311229
H 15.768211 9.958218 5.157281
O 17.708748 9.789857 1.753366
H 17.015758 10.416935 1.541377
H 17.471151 8.950085 1.277687
O 10.260986 4.988640 1.083533
H 9.909776 4.908737 1.965941
H 10.130153 5.930036 0.871765
O 14.771720 2.399862 3.866636
H 14.450940 2.205739 4.725007
H 15.691697 2.582930 3.931263
O 17.152901 0.016307 3.696783
H 17.480889 0.249834 4.578745
H 16.950948 0.979605 3.421800
O 10.844619 2.179907 2.669262
H 10.264024 1.387892 2.681581
H 11.726447 1.777497 2.871983
O 11.408737 6.271530 8.306454
H 11.323415 7.218493 8.097157
H 10.478527 5.969766 8.340221
O 12.891541 7.696144 0.234870
H 11.981700 7.828502 0.463477
H 13.077343 7.150760 19.816757
O 19.838110 3.222404 4.560932
H 20.033569 3.187906 5.503427
H 0.249240 2.929013 4.086949
O 10.833941 8.593255 6.731322
H 11.741497 8.619472 6.917224
H 10.677659 7.763870 6.254833
O 13.720633 8.413781 6.873974
H 14.223839 8.917387 6.250149
H 13.772863 7.519263 6.525851
O 15.018577 5.304365 7.413426
H 14.693202 5.554851 6.578245
H 14.288752 4.909663 7.921506
O 13.357310 1.176322 9.087115
H 14.195066 1.091683 9.541975
H 13.618666 1.504335 8.226753
O 17.027948 7.731243 8.011820
H 16.465306 7.003316 7.719291
H 17.845338 7.728467 7.448274
O 12.781591 8.441623 3.417781
H 12.924059 8.371905 2.479884
H 11.875351 8.786241 3.512615
O 20.246456 1.477895 9.447423
H 0.402162 0.720430 9.257008
H 19.432981 1.028780 9.743594
O 17.806597 9.493474 4.830020
H 18.082917 9.562485 3.921142
H 18.678831 9.436743 5.362330
O 19.740516 8.544355 7.134369
H 0.193311 8.105017 7.087224
H 19.908910 9.468785 7.399287
O 11.354938 0.048969 6.382520
H 10.927003 19.811439 5.786671
H 10.698698 0.708364 6.700654
O 17.838022 7.328682 0.655289
H 17.420623 6.623881 1.154235
H 18.816187 7.250272 0.717352
O 11.960632 4.282237 6.176458
H 12.567965 4.843678 5.743685
H 11.565255 4.861282 6.806077
O 16.589665 2.835917 10.107509
H 16.727818 3.507889 10.772049
H 16.637551 3.196273 9.180516
O 12.293587 3.422885 0.118350
H 11.828839 4.160797 0.522117
H 11.619622 2.717768 0.205405
O 0.196902 13.590007 5.328686
H 19.675929 13.376086 5.172532
H 0.563321 13.559635 4.427553
O 1.524660 17.209323 1.575428
H 1.152296 16.334944 1.504053
H 1.012448 17.695743 0.917291
O 5.157208 12.065874 9.272271
H 4.684279 11.416556 8.801147
H 4.743388 12.107043 10.165535
O 6.412234 13.255692 2.365301
H 6.863531 13.141941 1.520330
H 6.586533 12.341027 2.690537
O 0.233572 19.016562 -0.012300
H 19.792375 19.241254 0.498956
H 0.616863 19.943930 20.168586
O 1.113232 13.099792 7.735418
H 1.020762 13.770034 8.424436
H 0.632274 13.417209 6.950684
O 0.447118 16.344212 5.874887
H 0.492678 15.395519 5.706002
H 19.996677 16.526087 5.342717
O 4.943571 10.902746 5.288564
H 4.435937 11.300694 4.583064
H 4.282073 11.088070 6.014440
O 7.334833 10.806925 2.897413
H 6.605999 10.164962 2.993999
H 8.054343 10.473213 3.511261
O 9.347933 18.857826 4.277422
H 9.166132 19.302439 3.428305
H 9.990813 18.105732 4.148720
O 3.284202 11.229683 7.363863
H 2.716122 11.941635 7.580876
H 2.660883 10.523933 7.146111
O 7.551134 12.234543 6.136098
H 6.775874 11.964152 5.645287
H 7.861109 13.020660 5.568502
O 8.167005 13.241924 9.290464
H 7.366440 12.893131 8.894239
H 8.735767 13.575213 8.576865
O 3.724608 12.489135 3.369215
H 2.873803 12.751684 3.061427
H 4.297256 13.232735 3.086881
O 4.650260 19.003440 5.260186
H 4.418230 19.662703 4.597638
H 4.026868 18.236329 5.229947
O 8.732004 17.769987 1.730591
H 9.328703 17.021382 1.581148
H 7.825819 17.429967 1.467790
O 3.778295 14.234607 5.701171
H 3.710850 13.713305 4.909060
H 3.509745 15.076409 5.270981
O 5.097612 19.536036 1.119029
H 4.755901 19.978347 1.861794
H 5.247894 18.631217 1.474665
O 9.707424 14.510818 7.549470
H 10.230996 14.916802 8.235981
H 8.860341 14.964259 7.281486
O 2.733584 16.713695 4.651508
H 1.824111 16.667312 4.981637
H 2.600544 17.088065 3.725810
O 3.910594 16.487643 9.051471
H 4.565135 17.212349 8.959943
H 4.328450 15.769067 8.466050
O 5.883906 16.678022 1.859534
H 5.349565 15.892328 1.695345
H 6.413967 16.368151 2.614544
O 3.395501 15.052590 1.939763
H 3.219805 14.324007 1.324038
H 3.069188 15.788216 1.389514
O 7.418539 15.941422 7.263551
H 7.511187 16.462733 6.432964
H 6.550526 15.382947 7.198743
O 8.287876 14.275652 3.993583
H 7.820334 15.079560 4.255439
H 7.802648 13.815634 3.295160
O 1.282796 16.646987 8.605248
H 2.191617 16.484147 8.529007
H 1.028294 16.842125 7.669195
O 7.057917 17.258769 4.823220
H 7.718194 17.701843 4.263223
H 6.480504 17.983397 5.169193
O 5.117725 14.457224 7.904933
H 5.260847 13.657223 8.478048
H 4.621771 14.066733 7.133938
O 1.186568 13.219029 2.740297
H 1.044667 13.877244 2.073959
H 0.777009 12.449119 2.337688
O 8.276340 18.001784 8.805081
H 8.187525 17.099515 8.504551
H 9.185591 17.991456 9.100088
O 3.061898 12.739562 0.193377
H 2.818673 12.024741 0.775443
H 3.932733 12.655934 20.136861
O 8.997645 10.830857 0.487927
H 8.297806 10.865975 1.129461
H 9.624746 11.544163 0.559063
O 1.187950 19.590161 8.601841
H 1.223302 18.690102 8.810940
H 2.111249 19.947776 8.552974
O -0.013560 15.129781 1.099359
H 20.012850 14.769801 0.308304
H 19.660468 15.179810 1.751004
O 10.228407 15.408355 1.872508
H 10.609000 15.590346 2.741908
H 11.006606 15.439392 1.276770
O 12.174841 13.454492 0.729675
H 11.806783 13.087046 20.328529
H 11.896888 12.875950 1.466012
O 14.304390 14.220382 9.577770
H 14.569796 14.716558 8.747036
H 13.801366 13.429595 9.206212
O 12.671091 18.093881 1.434792
H 11.907087 18.035012 2.011271
H 12.924218 17.181559 1.131246
O 19.669600 11.002296 8.206949
H 20.257272 11.751216 7.940194
H 18.712360 11.252270 7.964594
O 11.399294 15.301785 9.692962
H 11.191324 15.306324 10.580110
H 12.287565 15.023627 9.493144
O 13.464775 11.980572 8.635638
H 14.143474 11.415383 8.256865
H 12.548353 11.745631 8.419523
O 10.674792 12.773718 2.813714
H 10.139097 11.980630 2.762674
H 10.149011 13.457318 2.366088
O 16.473024 10.798037 8.386160
H 16.509705 11.218417 9.248846
H 16.500365 9.824875 8.524051
O 14.121027 13.184540 5.361127
H 14.212429 13.179448 4.392014
H 13.329149 13.671075 5.660392
O 15.438470 14.063622 2.453004
H 14.661132 14.563242 2.134417
H 15.806239 14.784809 3.004990
O 16.558388 12.429790 6.154759
H 16.273828 11.758395 6.745026
H 15.760061 12.919211 5.928418
O 11.130352 16.730710 4.323212
H 11.900202 17.158651 4.725742
H 11.012254 15.882037 4.809770
O 16.089012 11.843228 0.540293
H 15.841439 12.460696 1.282732
H 15.296429 11.223887 0.413693
O 11.432017 14.295067 5.459197
H 11.066377 14.327967 6.316519
H 11.013822 13.507391 5.067056
O 18.371296 12.815150 4.395483
H 18.672678 11.994153 4.000860
H 17.594473 12.462557 4.879929
O 13.529092 15.900922 -0.011190
H 13.178537 15.038330 0.175916
H 14.323104 15.742446 19.880309
O 20.159910 11.122238 1.740247
H 19.271553 10.723060 1.737846
H 0.472306 10.424670 1.680318
O 10.623061 11.915579 6.984347
H 10.168915 11.093110 7.067456
H 9.827607 12.547265 7.000511
O 17.275838 17.612849 6.134978
H 17.595308 16.790512 6.566255
H 17.062155 18.263459 6.872271
O 11.025318 18.644759 9.683245
H 11.611621 18.578058 8.936101
H 10.753852 19.613116 9.832803
O 13.697696 18.937948 7.800772
H 13.499538 19.794203 8.077201
H 13.537262 18.801540 6.856111
O 13.677425 18.379154 4.701332
H 13.586223 19.098551 4.139542
H 14.262218 17.687590 4.352127
O 16.850289 17.151743 0.947615
H 17.090621 16.355253 0.528283
H 15.878410 17.240802 0.724700
O 16.410574 19.448788 8.266861
H 16.185910 19.980464 7.527961
H 15.671366 18.941748 8.596333
O 18.419317 15.130600 2.807493
H 18.327358 14.317760 3.345691
H 18.430740 15.845818 3.517163
O 17.900290 14.675925 7.235596
H 18.350157 14.810728 8.094316
H 17.480363 13.742073 7.183232
O 15.071994 15.978256 7.577698
H 14.719008 16.885545 7.561613
H 15.855214 15.945305 6.990408
O 20.250788 20.231389 6.162315
H -0.033471 19.632268 5.427595
H 0.313782 19.834268 6.916921
O 15.879590 16.723764 3.953747
H 16.314603 17.037871 3.169871
H 16.499481 16.986111 4.664199
O 18.375543 19.527889 1.044067
H 18.208763 19.872559 1.902706
H 17.812456 18.697449 0.897377
O 19.595259 15.426617 9.897950
H -0.001851 15.932636 9.633608
H 19.740690 14.599882 10.408172
O 19.211685 17.583682 3.927280
H 19.293338 17.721495 3.001210
H 18.465768 18.130933 4.220306
O 14.641740 17.914967 10.153671
H 14.700489 17.735020 11.105496
H 13.848157 17.567291 9.705709
O 5.051534 3.250552 17.003702
H 4.474048 2.486288 16.977965
H 5.831808 2.994123 16.497042
O 4.811586 2.231509 10.617132
H 5.562928 1.938622 11.037562
H 4.905516 3.187437 10.495717
O 2.744640 4.578017 12.265478
H 2.178820 4.125247 11.630547
H 2.276539 5.394158 12.524153
O 6.730782 2.518736 14.561557
H 7.640688 2.555634 14.268325
H 6.578397 1.559707 14.622140
O 2.097879 0.858342 19.141135
H 2.807869 0.219546 19.084252
H 1.999049 0.851498 18.151346
O 7.122375 0.203239 17.854362
H 6.511961 0.342843 18.570747
H 6.517874 20.271108 17.178647
O 9.104876 3.872896 14.090417
H 10.031715 3.724178 14.258277
H 9.129640 4.063780 13.143912
O 0.128493 4.415684 19.883916
H 0.080071 5.263500 20.303499
H 19.807552 4.445312 19.189285
O 8.737771 3.089342 17.514653
H 8.496821 2.222698 17.146859
H 9.663888 3.247591 17.242873
O 3.320885 1.048216 16.574472
H 3.714510 0.173161 16.550080
H 2.774811 1.252765 15.807786
O 2.016646 2.438211 14.412900
H 2.330032 3.212131 13.914538
H 1.602581 1.698231 13.834397
O 5.421775 4.485522 13.202729
H 5.764329 3.861576 13.876477
H 4.646063 4.038509 12.800730
O 5.362666 5.118864 19.233721
H 5.204794 4.323628 18.744790
H 5.104146 4.766318 20.163811
O 7.295385 5.926374 11.980148
H 6.513192 5.436165 12.307911
H 6.962624 6.301284 11.073028
O 4.139710 5.694557 15.883525
H 4.343827 5.050431 16.563433
H 4.459365 5.228113 15.101032
O 0.233624 4.313362 15.343838
H 0.775700 3.539667 15.179298
H 0.740833 5.035423 15.750084
O 1.059927 0.300507 12.603331
H 1.993898 0.168184 12.701763
H 1.051154 0.702711 11.735474
O 8.011442 5.651323 16.011430
H 7.152350 5.617068 16.438840
H 8.140604 4.886956 15.431223
O 7.769275 6.251001 19.734767
H 6.954856 5.975411 19.253985
H 8.465964 6.468629 19.053955
O 7.468076 1.403462 11.408802
H 8.161349 0.841037 11.029897
H 7.372077 1.113355 12.351357
O 7.380313 9.290377 19.345215
H 7.768662 8.431983 19.474837
H 7.974282 9.969665 19.703784
O 1.572702 6.756325 15.981210
H 1.307099 7.124680 16.857496
H 2.490751 6.349859 16.037778
O 1.323083 6.857208 13.321452
H 1.783687 7.595206 13.012814
H 1.280897 6.784778 14.286296
O 1.239797 7.885521 18.687650
H 1.023478 8.797534 18.669446
H 2.203559 7.956460 18.729725
O 2.220447 9.442339 11.742518
H 1.391834 9.563186 11.303624
H 2.753926 8.837995 11.222563
O 4.273996 9.189524 16.050674
H 4.649839 8.465667 15.590954
H 4.227728 8.850699 16.946823
O 6.260276 8.235954 14.655894
H 6.057207 8.856298 13.957399
H 6.496589 7.409615 14.233793
O 4.742844 5.254422 10.208589
H 4.202168 4.933639 10.888909
H 4.431668 4.822779 9.336508
O 7.581239 9.679253 16.671464
H 7.383406 8.876598 16.131312
H 7.405908 9.392248 17.604364
O 10.053883 0.633132 10.531256
H 10.475537 0.637640 11.391788
H 10.275918 1.502579 10.114245
O 4.074735 7.664203 18.683824
H 4.413327 8.279977 19.370445
H 4.666859 6.873310 18.756976
O 8.843840 3.910875 11.136906
H 8.231991 4.635351 11.332967
H 8.357505 3.035510 11.138294
O 9.619965 6.499449 18.015563
H 9.119936 6.233101 17.216212
H 10.269632 7.198221 17.747716
O 9.522497 0.109745 16.502837
H 8.639106 0.095767 16.857200
H 9.676336 19.516320 16.464747
O 8.954108 2.852266 20.184507
H 9.209455 3.590655 0.321274
H 8.771187 3.204419 19.273322
O 0.299419 6.143781 10.523636
H 0.569632 5.492019 9.942504
H 19.834737 6.459902 10.202719
O 14.699106 1.305316 17.310948
H 14.953664 1.966105 16.622628
H 13.725591 1.333016 17.483130
O 13.605346 4.480388 15.604973
H 13.398732 4.370574 16.542965
H 14.521713 4.131564 15.548970
O 10.279879 0.634676 19.386010
H 9.853351 0.254472 18.629260
H 9.729776 1.401939 19.682719
O 15.811975 2.617017 14.813986
H 16.596149 3.157305 15.030883
H 15.673253 2.726492 13.835166
O 10.886472 6.034159 11.643202
H 11.185167 5.293985 12.202277
H 10.651962 6.789990 12.216830
O 14.486299 3.126784 12.247404
H 15.019736 3.912552 12.018051
H 14.610586 2.422331 11.565355
O 19.367478 5.028731 12.884824
H 19.818357 4.919663 13.689616
H 19.917224 5.380169 12.183965
O 16.235672 4.110334 18.859624
H 16.097088 4.425343 17.962309
H 15.583659 4.644730 19.353859
O 11.325439 4.180376 17.964511
H 10.714689 4.937259 17.906060
H 11.360403 3.859189 18.884992
O 16.733599 4.912324 16.025150
H 17.564040 4.680653 16.474181
H 16.902037 5.848672 15.719141
O 17.530231 1.014127 19.454464
H 18.143653 0.727933 20.164237
H 17.766831 1.922911 19.127117
O 17.921828 7.188056 10.572019
H 17.986926 7.913700 11.110562
H 17.425651 7.408247 9.817472
O 13.658753 5.764038 18.829571
H 13.058144 5.082740 18.943674
H 13.154378 6.334011 18.171747
O 13.273669 6.326937 10.915904
H 13.629955 6.412300 11.809127
H 12.280837 6.255295 11.157698
O 11.887176 3.808557 13.502940
H 12.585192 3.429371 13.026989
H 12.282295 3.942214 14.382810
O 17.690948 0.815937 16.150437
H 17.095238 1.155621 15.467351
H 18.445063 0.523757 15.575853
O 13.326005 6.961739 14.816106
H 14.130271 7.462760 14.794016
H 13.587272 6.037365 14.979185
O 16.819389 5.053934 12.224140
H 16.912889 5.872157 11.726642
H 17.725464 4.906971 12.549888
O 19.552351 9.311321 15.286361
H 19.348809 10.215270 15.612820
H 0.137523 9.247172 15.430477
O 12.086026 7.880934 17.103343
H 12.464198 8.748431 17.358459
H 12.396346 7.588918 16.206468
O 16.630587 8.468835 18.667500
H 16.792002 8.031337 19.481005
H 17.200562 9.275828 18.752095
O 15.550362 8.964838 14.278562
H 16.273177 8.576273 14.821643
H 15.920657 9.032502 13.351134
O 15.862123 9.892183 11.544480
H 15.109653 9.726027 10.941387
H 16.316615 10.739350 11.227309
O 17.219576 7.614485 16.152717
H 17.090254 7.740185 17.107927
H 18.135125 7.902288 15.983833
O 19.237786 8.453890 12.596990
H 19.023789 8.933465 13.349153
H 19.667890 7.655956 12.954095
O 11.160157 8.230454 13.555738
H 11.890888 7.756024 13.911671
H 10.977466 8.839699 14.256450
O 12.683702 0.323792 13.989617
H 13.211315 0.539070 13.268110
H 12.554068 1.096449 14.634612
O 17.753923 0.465497 10.177341
H 17.172250 1.242774 10.134711
H 17.347600 20.263311 9.519714
O 18.981712 3.200525 17.200708
H 18.864455 2.358231 16.717369
H 19.580366 3.676030 16.550784
O 11.765094 1.509150 16.583108
H 11.777047 2.314057 17.104983
H 10.963744 0.951808 16.863155
O 11.621004 9.930629 11.403613
H 11.584429 9.333054 12.129212
H 12.013176 9.553998 10.629401
O 14.454052 9.862937 20.155646
H 13.826571 9.278493 0.191672
H 14.913009 9.199739 19.625803
O 14.629094 -0.039223 12.046245
H 15.462581 19.915898 12.265392
H 14.111959 19.693630 11.529278
O 1.755006 14.336450 18.800398
H 2.016724 13.870146 19.586589
H 1.248051 15.089034 19.182470
O 0.254714 17.623471 15.839607
H 20.059392 17.640486 16.580169
H 20.128896 18.154058 15.162262
O 4.604873 18.813773 10.790760
H 4.710698 19.494004 10.073194
H 5.523749 18.591175 11.115278
O 8.810671 10.639382 10.421560
H 9.594222 10.638507 10.966007
H 8.618945 11.584291 10.263796
O 7.827154 16.520037 15.686743
H 7.996608 15.740926 15.161125
H 7.324311 16.249336 16.503441
O 8.740406 13.080415 17.625675
H 8.354118 12.935329 16.806074
H 8.908371 14.095752 17.710362
O 1.901643 10.203781 14.525694
H 2.028326 9.806565 13.661937
H 2.739304 9.951073 14.969562
O 4.044703 11.768045 11.743391
H 3.782465 12.436790 12.342330
H 3.319935 11.142131 11.528926
O 7.124144 11.906869 15.264306
H 6.744568 11.413742 14.535826
H 7.202106 11.186279 15.955964
O 4.452969 11.701418 17.161337
H 3.519957 11.754275 17.005678
H 4.801115 10.902562 16.715741
O 5.245563 14.292891 14.436510
H 4.362105 14.158954 14.085224
H 5.534260 13.463568 14.825217
O 1.625363 12.304496 17.192988
H 1.327746 12.144194 16.267616
H 1.395966 13.259083 17.385588
O 5.381793 12.402498 19.381226
H 5.920336 13.145657 19.683404
H 5.191462 12.434893 18.431008
O 2.968086 13.801121 13.132535
H 2.036267 13.804958 13.121482
H 3.337093 14.318626 12.398402
O 2.883878 18.174733 16.003206
H 3.246397 17.489342 15.473670
H 1.884338 18.133763 15.978343
O 4.847195 15.468283 11.694297
H 4.732014 15.837926 10.805644
H 5.766494 15.131759 11.621705
O 0.577067 15.982432 13.438320
H 1.245804 16.368294 12.871137
H 0.754493 16.362765 14.312306
O 8.359352 14.348535 14.001573
H 7.781734 13.608887 13.945370
H 9.283808 14.008514 14.262677
O 5.090401 17.405658 13.928445
H 5.893434 17.174643 14.486696
H 5.044528 16.585314 13.339292
O 8.057481 19.925135 13.330356
H 7.685683 19.143017 12.885764
H 9.008962 19.744214 13.449837
O 0.183127 10.849804 19.354021
H 0.547295 11.322350 20.048071
H 0.697526 11.145841 18.580877
O 0.333870 12.319785 14.166369
H 19.925312 12.703134 13.856188
H 0.284524 11.349726 14.069220
O 2.598348 16.936273 18.374349
H 2.891028 16.048027 18.361774
H 2.976615 17.452814 17.617465
O 2.167485 17.491014 11.470695
H 1.837375 18.291820 11.716157
H 2.904349 17.672277 10.912636
O 6.226963 10.410213 12.844579
H 5.516838 10.891879 12.358372
H 6.946015 10.350077 12.142437
O 9.510224 15.526291 19.176504
H 8.707349 15.938754 18.872321
H 10.236257 16.011842 18.749019
O 4.331385 15.034383 17.057317
H 4.628157 14.895020 16.169094
H 3.858580 14.280442 17.422461
O 7.304549 17.808319 11.424946
H 7.192488 16.824055 11.408178
H 7.479062 18.063262 10.478532
O 3.408332 19.509050 13.061182
H 3.955082 19.247863 12.329623
H 3.275562 18.815140 13.728261
O 7.682973 13.482897 20.229117
H 8.346468 14.165600 20.128302
H 7.786122 12.816192 19.502695
O 7.566406 15.153880 11.415528
H 7.917538 14.749885 12.193575
H 7.967301 14.645104 10.654998
O 6.422886 16.539258 17.926547
H 5.611443 16.097430 17.699067
H 6.183642 17.453384 18.216276
O 4.440773 19.637760 18.838807
H 3.950607 18.785302 18.778643
H 4.711514 19.547955 19.805615
O 5.872505 20.224469 14.981832
H 5.136749 20.119393 14.435029
H 6.582746 19.614590 14.790548
O 0.023872 16.993161 18.618366
H 0.980623 17.038006 18.435947
H 20.308884 17.748461 19.227625
O 10.645629 13.078564 14.961985
H 10.230557 12.316578 15.376908
H 11.286964 13.283859 15.684533
O 14.813547 17.287104 12.998528
H 15.641176 17.447344 13.404720
H 14.632966 16.330423 12.995271
O 14.452708 18.889529 16.797518
H 14.257547 19.551860 16.142799
H 13.851809 19.019623 17.563248
O 16.491883 12.530512 10.292627
H 15.910407 13.147197 9.817863
H 17.450155 12.858678 10.388820
O 17.258404 19.216800 12.221568
H 17.496452 19.843520 11.509738
H 17.468352 18.304924 11.881466
O 10.624039 18.890412 13.847595
H 11.327730 19.495092 13.995493
H 10.832021 18.261834 13.048549
O 15.460346 19.525520 19.865377
H 15.704987 0.021520 20.143228
H 14.516241 19.669967 19.665291
O 19.429135 19.629790 14.348053
H 20.192983 19.723210 13.743911
H 18.719800 19.448579 13.654572
O 13.966288 11.311800 14.760354
H 13.203865 11.441901 14.176465
H 14.520879 10.587715 14.412183
O 14.816421 12.690995 18.391070
H 14.966114 12.983699 19.260719
H 14.152622 13.284123 18.097537
O 18.462894 11.685235 16.342540
H 18.159653 11.487061 17.226576
H 19.025174 12.476189 16.323597
O 12.296577 12.368263 12.663804
H 12.226225 11.612139 12.079409
H 11.520646 12.474496 13.271277
O 15.670420 16.421056 16.400660
H 14.863120 16.934072 16.127157
H 15.683694 15.519390 15.970314
O 17.938549 11.055123 19.103361
H 17.272948 11.261311 19.758902
H 18.846613 11.028022 19.492305
O 12.530529 13.657580 16.597875
H 13.136721 13.724555 15.846552
H 12.414661 14.649014 16.878617
O 18.228818 13.453863 13.570626
H 17.401121 13.105070 13.955420
H 18.153750 14.420704 13.436627
O 13.654783 14.766685 12.287899
H 13.107800 13.990186 12.397476
H 14.036774 14.650254 11.408633
O 10.893901 12.082743 19.168303
H 11.545087 11.539730 18.737697
H 10.314074 12.478683 18.511498
O 15.855395 15.348760 19.014564
H 15.894093 15.802509 18.145161
H 16.555942 14.620397 18.941838
O 18.953987 12.858731 11.054147
H 19.244102 11.963707 10.922004
H 18.688766 13.000369 11.997439
O 17.382980 16.680034 10.780120
H 18.117130 16.250462 10.351947
H 16.745885 16.707225 10.022555
O 12.784440 19.583573 19.362948
H 12.505933 19.097786 20.152011
H 11.951247 20.070625 19.195461
O 18.601460 14.177637 19.276748
H 18.665248 14.357298 18.312659
H 18.597844 13.196790 19.207929
O 11.785068 16.416609 17.944813
H 12.360742 16.749993 18.608759
H 11.473711 17.199667 17.488897
O 14.805138 14.050572 14.820973
H 15.057354 13.138452 14.786447
H 14.519220 14.301234 13.933932
O 18.036754 16.263332 13.585311
H 17.468001 16.388692 12.808039
H 18.954238 16.220264 13.135558
O 18.830919 15.050363 16.819687
H 18.573541 15.505883 16.056171
H 19.596212 15.521882 17.251201
O 17.993938 18.179793 17.236109
H 18.145549 17.824748 18.142183
H 17.358830 17.529284 16.833503
O 10.240965 10.452791 15.717370
H 9.344371 10.362679 15.973324
H 10.748148 10.293548 16.554912
O 10.308022 16.926033 11.613309
H 9.382740 16.964811 11.846869
H 10.487570 17.442364 10.805494
O 13.212420 10.483571 17.393167
H 13.409351 10.706633 16.487812
H 13.924472 11.058321 17.868408
O 10.187518 17.933711 16.471643
H 9.354613 17.487185 16.253267
H 10.629287 17.984384 15.595348
O 20.155946 10.327392 10.686755
H 19.665591 9.585905 10.962632
H 20.011860 10.373679 9.739401
Na 16.572604 19.795340 17.816905
