LAMMPS (11 Feb 2026 - Development - patch_11Feb2026-156-g48a5c9ef8e)
  using 1 OpenMP thread(s) per MPI task
# Depositing TIP3P water into MOF with QeQ charges obtained with Ongari scheme
# Variable defiition
variable        mu index -5.0  #chemical potential of reservoir for gcmc (in kcal/mol for real units)
variable        disp index 0.1  # max MC translation distance for random molecular move
variable        temp index 1000.0  # simulation temperature
variable        dt  equal  0.2
variable        tfac equal 5.0/3.0
variable        pressure equal 1.0

processors * * * map xyz

units        real
atom_style    full
boundary        p p p

box tilt large

The 'box' command has been removed and will be ignored

read_data    initial.data
Reading data file ...
  triclinic box = (0 0 0) to (8.9138002 19.386999 17.062815) with tilt (0 -8.2834166 0)
  1 by 1 by 1 MPI processor grid
  reading atoms ...
  224 atoms
  scanning bonds ...
  5 = max bonds/atom
  scanning angles ...
  10 = max angles/atom
  scanning dihedrals ...
  32 = max dihedrals/atom
  scanning impropers ...
  1 = max impropers/atom
  triclinic box = (0 0 0) to (8.9138002 19.386999 17.062815) with tilt (0 -8.2834166 0)
  1 by 1 by 1 MPI processor grid
  reading bonds ...
  264 bonds
  reading angles ...
  496 angles
  reading dihedrals ...
  912 dihedrals
  reading impropers ...
  48 impropers
Finding 1-2 1-3 1-4 neighbors ...
  special bond factors lj:    0        0        0       
  special bond factors coul:  0        0        0       
     5 = max # of 1-2 neighbors
     8 = max # of 1-3 neighbors
    24 = max # of 1-4 neighbors
    26 = max # of special neighbors
  special bonds CPU = 0.000 seconds
  read_data CPU = 0.058 seconds

group mof type 1 2 3 4 5 6
176 atoms in group mof
group co2 type 7 8
48 atoms in group co2
#molecule h2o H2Otip4p.txt
## Bonded styles ##
bond_style      harmonic
angle_style     harmonic
dihedral_style  harmonic
improper_style  cvff

## MOF ##
bond_coeff      1     32.28973605      2.15620001 # Zn  o
bond_coeff      2      36.9295234      2.05480166 # Zn  nc
bond_coeff      3           510.5      1.36500000 # nc  nc
bond_coeff      4           441.1      1.36900000 # cc  nc
bond_coeff      5           349.1      1.08400000 # cc  ha
bond_coeff      6           637.5      1.21800000 # c  o
bond_coeff      7           291.7      1.54800000 # c  c
angle_coeff    1    30.87978925     131.460673 # Zn-nc-cc
angle_coeff    2      57.496879     120.196951 # Zn-nc-nc
angle_coeff    3     48.4760699     109.336204 # Zn-o-c
angle_coeff    4      11.987154     92.5855661 # nc-Zn-nc
angle_coeff    5      18.429192     74.0971127 # o-Zn-o
angle_coeff    6     20.2159165      86.183884 # o-Zn-nc
angle_coeff    7     23.9870345     116.167131 # o-Zn-nc
angle_coeff    8     74.3545905     169.105528 # o-Zn-nc
angle_coeff    9           72.9     120.000000 # cc-nc-nc
angle_coeff   10           69.9     129.000000 # nc-cc-nc
angle_coeff   11           50.9     116.500000 # ha-cc-nc
angle_coeff   12           71.0     117.200000 # cc-nc-cc
angle_coeff   13           77.9     130.200000 # o-c-o
angle_coeff   14           67.2     120.800000 # c-c-o
dihedral_coeff    1       17.03190        -1         2 # Zn-nc-nc-cc
dihedral_coeff    2       8.367632        -1         2 # Zn-nc-cc-nc
dihedral_coeff    3       3.138488         1         2 # Zn-nc-cc-ha
dihedral_coeff    4       0.864613        -1         2 # Zn-o-c-o
dihedral_coeff    5       0.409487         1         2 # Zn-o-c-c
dihedral_coeff    6       5.537521         1         2 # o-Zn-o-c
dihedral_coeff    7            0.0         1         2 # nc-Zn-nc-cc
dihedral_coeff    8            0.0         1         2 # nc-Zn-nc-nc
dihedral_coeff    9            0.0         1         2 # nc-Zn-o-c
dihedral_coeff   10            0.0         1         2 # o-Zn-nc-cc
dihedral_coeff   11            0.0         1         2 # o-Zn-nc-nc
dihedral_coeff   12         4.7500        -1         2 # nc-cc-nc-nc
dihedral_coeff   13         4.7500        -1         2 # ha-cc-nc-nc
dihedral_coeff   14         4.0000        -1         2 # cc-nc-nc-cc
dihedral_coeff   15         4.7500        -1         2 # nc-cc-nc-cc
dihedral_coeff   16         4.7500        -1         2 # ha-cc-nc-cc
dihedral_coeff   17         0.3000        -1         2 # o-c-c-o
improper_coeff    1    1.1000        -1         2 # ha-cc-nc-nc
improper_coeff    2    1.1000        -1         2 # c-c-o-o


## H2O ##
#set             type 3 charge -1.1128
#set             type 4 charge  0.5564
#bond_coeff       14 0.0 0.0
#angle_coeff      24 0.0 0.0

## CO2 ##
bond_coeff  8  0.0  0.0
angle_coeff  15 0.0  0.0

## LJ ##
#pair_style      lj/cut/coul/long 20.0
pair_style      hybrid/overlay mbx 9.0 lj/cut 9.0 coul/exclude 9.0 #
pair_modify     tail yes


## MOF pair coefficients ##
pair_coeff      2      2         lj/cut      0.170000      3.249999
pair_coeff      2      3         lj/cut      0.120913      3.324834
pair_coeff      2      4         lj/cut      0.050498      2.924820
pair_coeff      2      5         lj/cut      0.188944      3.104782
pair_coeff      2      6         lj/cut      0.120913      3.324834
pair_coeff      3      3         lj/cut      0.086000      3.399670
pair_coeff      3      4         lj/cut      0.035917      2.999656
pair_coeff      3      5         lj/cut      0.134387      3.179618
pair_coeff      3      6         lj/cut      0.086000      3.399670
pair_coeff      4      4         lj/cut      0.015000      2.599642
pair_coeff      4      5         lj/cut      0.056125      2.779604
pair_coeff      4      6         lj/cut      0.035917      2.999656
pair_coeff      5      5         lj/cut      0.210000      2.959566
pair_coeff      5      6         lj/cut      0.134387      3.179618
pair_coeff      6      6         lj/cut      0.086000      3.399670
pair_coeff      1      2         lj/cut      0.145190      2.855776
pair_coeff      1      3         lj/cut      0.103267      2.930611
pair_coeff      1      4         lj/cut      0.043128      2.530598
pair_coeff      1      5         lj/cut      0.161369      2.710559
pair_coeff      1      6         lj/cut      0.103267      2.930611
pair_coeff      1      1         lj/cut      0.124000      2.461553
# CO2 MOF Mixed
pair_coeff      2      7         lj/cut      0.095485      3.024999
pair_coeff      2      8         lj/cut      0.163330      3.149999
pair_coeff      3      7         lj/cut      0.067914      3.099835
pair_coeff      3      8         lj/cut      0.116169      3.224835
pair_coeff      4      7         lj/cut      0.028363      2.699821
pair_coeff      4      8         lj/cut      0.048516      2.824821
pair_coeff      5      7         lj/cut      0.106125      2.879783
pair_coeff      5      8         lj/cut      0.181531      3.004783
pair_coeff      6      7         lj/cut      0.067914      3.099835
pair_coeff      6      8         lj/cut      0.116169      3.224835
pair_coeff      1      7         lj/cut      0.081549      2.630777
pair_coeff      1      8         lj/cut      0.139493      2.755777

## TIP4P H2O ##
#pair_coeff      12 12 lj/cut/tip4p/long 0.1852 3.1589
#pair_coeff      12 13 lj/cut/tip4p/long 0.0 0.0
#pair_coeff      13 13 lj/cut/tip4p/long 0.0 0.0

## Mixed ##

#MBX-water
pair_coeff      * * mbx 2 dp1 1*6 co2 7 8 8 json mbx.json

#coul exclude
pair_coeff      1*6 1*6 coul/exclude

## Non-bonded k-space ##
#kspace_style    ewald 0.000001
#kspace_style    pppm/tip4p 1.0e-5
special_bonds   amber
Finding 1-2 1-3 1-4 neighbors ...
  special bond factors lj:    0        0        0.5     
  special bond factors coul:  0        0        0.8333333333333334
     5 = max # of 1-2 neighbors
     8 = max # of 1-3 neighbors
    24 = max # of 1-4 neighbors
    26 = max # of special neighbors
  special bonds CPU = 0.000 seconds


neighbor        2.0 bin
neigh_modify    every 1 delay 1 check yes

timestep        ${dt}
timestep        0.2

compute         mbx all pair mbx
variable        e1bpip    equal c_mbx[1]
variable        e2bpip    equal c_mbx[2]
variable        e3bpip    equal c_mbx[3]
variable        e4bpip    equal c_mbx[4]
variable        edisp     equal c_mbx[5]
variable        ebuck     equal c_mbx[6]
variable        eperm     equal c_mbx[7]
variable        eind      equal c_mbx[8]
variable        eele      equal c_mbx[9]
variable        etot      equal c_mbx[10]

#thermo_style    custom step time temp cella cellb cellc vol pe ke etotal
thermo_style    custom step time temp cella cellb cellc evdwl ecoul epair ebond eangle edihed eimp emol elong etail v_e1bpip v_e2bpip v_e3bpip v_e4bpip v_edisp v_ebuck v_eele v_etot pe etotal
thermo          1
thermo_modify   flush yes

#fix             wshake water shake 1e-5 50 0 b 14 a 24 mol h2o
#fix        mynvt all nvt temp ${temp} ${temp} 100.0
fix             mynpt all npt temp ${temp} ${temp} $(100.0*dt) iso ${pressure} ${pressure} $(1000.0*dt) tchain 4
fix             mynpt all npt temp 1000.0 ${temp} $(100.0*dt) iso ${pressure} ${pressure} $(1000.0*dt) tchain 4
fix             mynpt all npt temp 1000.0 1000.0 $(100.0*dt) iso ${pressure} ${pressure} $(1000.0*dt) tchain 4
fix             mynpt all npt temp 1000.0 1000.0 20 iso ${pressure} ${pressure} $(1000.0*dt) tchain 4
fix             mynpt all npt temp 1000.0 1000.0 20 iso 1 ${pressure} $(1000.0*dt) tchain 4
fix             mynpt all npt temp 1000.0 1000.0 20 iso 1 1 $(1000.0*dt) tchain 4
fix             mynpt all npt temp 1000.0 1000.0 20 iso 1 1 200 tchain 4
#fix             3 all npt temp 298.15 298.15 $(250.0*dt) iso 1.0 1.0 $(1000.0*dt)
#fix            4 mof npt temp 298.15 298.15 $(250.0*dt) iso 1.0 1.0 $(1000.0*dt)
#fix             5 water gcmc 100 100 0 0 54341 ${temp} ${mu} ${disp} mol h2o tfac_insert ${tfac} group water shake wshake

#fix             nve all nve
#fix             nvt all nvt temp 300.0 300.0 1.0
#fix             3 all npt temp 298.15 298.15 $(10.0*dt) iso 1.0 1.0 $(100.0*dt)

velocity        all create ${temp} 428879 rot yes dist gaussian
velocity        all create 1000.0 428879 rot yes dist gaussian
#velocity        all zero linear
#velocity        all zero angular

dump            1 all custom 1 dump.lammpstrj id type x y z
dump_modify     1 sort id

restart         5 restart.inter.1 restart.inter.2

run             100

CITE-CITE-CITE-CITE-CITE-CITE-CITE-CITE-CITE-CITE-CITE-CITE-CITE

Your simulation uses code contributions which should be cited:

- pair mbx command:

@article{10.1063/5.0156036,
 author = {Riera, Marc and Knight, Christopher and Bull-Vulpe, Ethan F. and Zhu, Xuanyu and Agnew, Henry and Smith, Daniel G. A. and Simmonett, Andrew C. and Paesani, Francesco},
 title = "{MBX: A many-body energy and force calculator for data-driven many-body simulations}",
 journal = {The Journal of Chemical Physics},
 volume = {159},
 number = {5},
 pages = {054802},
 year = {2023},
 doi = {10.1063/5.0156036},
 version = {1.3.7}
}

CITE-CITE-CITE-CITE-CITE-CITE-CITE-CITE-CITE-CITE-CITE-CITE-CITE

Generated 0 of 28 mixed pair_coeff terms from geometric mixing rule
Neighbor list info ...
  update: every = 1 steps, delay = 1 steps, check = yes
  max neighbors/atom: 2000, page size: 100000
  master list distance cutoff = 11
  ghost atom cutoff = 11
  binsize = 5.5, bins = 4 4 4
  3 neighbor lists, perpetual/occasional/extra = 3 0 0
  (1) pair mbx, perpetual
      attributes: half, newton on
      pair build: half/bin/newton/tri
      stencil: half/bin/3d/tri
      bin: standard
  (2) pair lj/cut, perpetual, skip from (1)
      attributes: half, newton on
      pair build: skip
      stencil: none
      bin: none
  (3) pair coul/exclude, perpetual, skip from (1)
      attributes: half, newton on
      pair build: skip
      stencil: none
      bin: none
WARNING: Inconsistent image flags
For more information see https://docs.lammps.org/err0027 (src/domain.cpp:1052)
WARNING: Bond/angle/dihedral extent > half of periodic box length (src/domain.cpp:1174)
Per MPI rank memory allocation (min/avg/max) = 23.02 | 23.02 | 23.02 Mbytes
   Step          Time           Temp          Cella          Cellb          Cellc          E_vdwl         E_coul         E_pair         E_bond        E_angle        E_dihed        E_impro         E_mol          E_long         E_tail        v_e1bpip       v_e2bpip       v_e3bpip       v_e4bpip       v_edisp        v_ebuck         v_eele         v_etot         PotEng         TotEng    
         0   0              1000           8.9138002      19.386999      18.967199     -1335.4657      1842.9585      507.49287      86.202045      609.13315      808.83684      0.002529123    1504.1746      0             -18.392836      5.2035737      200.07896      1.9606685      0             -70.878456      0             -2394.7037     -2258.339       2011.6674      2676.3881    
         1   0.2            1007.4728      8.9138605      19.38713       18.967328     -1341.4806      1843.2294      501.74882      86.387527      609.38913      809.01303      0.008085598    1504.7978      0             -18.392462      5.8259052      199.91524      2.2090984      0             -70.834765      0             -2394.8404     -2257.7249      2006.5466      2676.2346    
         2   0.4            1022.8561      8.9140416      19.387524      18.967713     -1354.755       1843.5385      488.78358      87.831562      610.00818      809.2474       0.023626125    1507.1108      0             -18.391342      6.9149893      199.80017      2.467416       0             -70.800353      0             -2394.9996     -2256.6173      1995.8943      2675.8079    
         3   0.6            1044.8266      8.9143427      19.388179      18.968354     -1374.3285      1843.8852      469.5567       90.466488      610.98659      809.54405      0.05016654     1511.0473      0             -18.389478      8.4572278      199.7326       2.734551       0             -70.774987      0             -2395.1866     -2255.0372      1980.604       2675.1218    
         4   0.8            1071.6532      8.914763       19.389093      18.969248     -1398.9193      1844.2684      445.34915      94.185835      612.31548      809.90775      0.088842969    1516.4979      0             -18.386877      10.428934      199.71153      3.0091091      0             -70.759277      0             -2395.3973     -2253.007       1961.8471      2674.1971    
         5   1              1101.4816      8.9153007      19.390263      17.07733      -1427.3412      1844.6859      417.34464      98.84974       613.9808       810.34349      0.14080842     1523.3148      0             -18.38355       12.79665       199.73612      3.2894632      0             -70.747208      0             -2395.8498     -2250.7748      1940.6595      2672.837     
         6   1.2            1132.58        8.9159542      19.391684      17.078582     -1457.8268      1845.1375      387.31067      104.29171      615.96348      810.85618      0.20712494     1531.3185      0             -18.379509      15.517763      199.80564      3.5738503      0             -70.746827      0             -2396.111      -2247.9606      1918.6292      2671.4785    
         7   1.4            1163.5102      8.9167211      19.393352      17.080051     -1489.4051      1845.6227      356.21758      110.32637      618.23964      811.45028      0.28866623     1540.305       0             -18.374767      18.541438      199.91946      3.8604593      0             -70.753927      0             -2396.3953     -2244.8279      1896.5225      2669.9318    
         8   1.6            1193.2137      8.9175991      19.395262      17.081733     -1521.1481      1846.14        324.99191      116.75781      620.78098      812.12957      0.38604171     1550.0544      0             -18.36934       21.809874      200.07705      4.1475076      0             -70.76804       0             -2396.7018     -2241.4354      1875.0463      2668.2001    
         9   1.8            1221.0156      8.918586       19.397408      17.083623     -1552.3746      1846.6878      294.31318      123.38797      623.55531      812.89703      0.49954904     1560.3399      0             -18.363242      25.259878      200.27796      4.4332984      0             -70.788707      0             -2397.0288     -2237.8464      1854.653       2666.2873    
        10   2              1246.5828      8.9196792      19.399786      17.085717     -1582.6263      1847.2466      264.62028      130.02494      626.52711      813.75474      0.62915678     1570.936       0             -18.356491      28.824711      200.52176      4.71626        0             -70.815447      0             -2397.3746     -2234.1273      1835.5562      2664.1856    
        11   2.2            1269.8473      8.9208763      19.402389      17.08801      -1611.6322      1847.8437      236.2115       136.49061      629.65826      814.70387      0.77451533     1581.6273      0             -18.349103      32.436162      200.80807      4.9949686      0             -70.847822      0             -2397.7367     -2230.3454      1817.8388      2661.9324    
        12   2.4            1290.9275      8.9221748      19.405213      17.090497     -1639.2746      1848.464       209.18935      142.62739      632.90882      815.74469      0.93499057     1592.2159      0             -18.341093      36.026778      201.13652      5.268159       0             -70.8854        0             -2398.1122     -2226.5662      1801.4052      2659.5114    
        13   2.6            1310.0638      8.9235723      19.408253      17.093174     -1665.5375      1849.104       183.56647      148.30376      636.23785      816.87666      1.1097146      1602.528       0             -18.332477      39.532165      201.50671      5.5347253      0             -70.927773      0             -2398.4977     -2222.8519      1786.0945      2656.9209    
        14   2.8            1327.5546      8.9250664      19.411502      17.096036     -1690.4568      1849.7602      159.30337      153.41842      639.60417      818.09849      1.2976455      1612.4187      0             -18.323271      42.893245      201.91824      5.7937151      0             -70.974552      0             -2398.8893     -2219.2586      1771.7221      2654.1751    
        15   3              1343.7091      8.9266549      19.414957      17.099079     -1714.1208      1850.4284      136.30758      157.90281      642.96719      819.40824      1.497631       1621.7759      0             -18.313491      46.058391      202.3707       6.0443197      0             -71.02537       0             -2399.2826     -2215.8345      1758.0835      2651.2746    
        16   3.2            1358.813       8.9283354      19.418612      17.102298     -1736.6327      1851.1044      114.47163      161.72199      646.28765      820.8034       1.7084677      1630.5215      0             -18.303152      48.985292      202.86364      6.2858622      0             -71.079881      0             -2399.673      -2212.618       1744.9931      2648.2242    
        17   3.4            1373.1061      8.9301057      19.422463      17.105689     -1758.1011      1851.7833      93.682255      164.87394      649.52827      822.28094      1.9289552      1638.6121      0             -18.292269      51.642472      203.39656      6.5177843      0             -71.137758      0             -2400.0555     -2209.6364      1732.2944      2645.0263    
        18   3.6            1386.7695      8.9319636      19.426503      17.109248     -1778.6178      1852.4605      73.842695      167.38715      652.65441      823.83747      2.1579392      1646.037       0             -18.280857      54.010368      203.96896      6.7396325      0             -71.198693      0             -2400.4247     -2206.9044      1719.8797      2641.694     
        19   3.8            1399.9207      8.933907       19.43073       17.112971     -1798.2823      1853.1307      54.848459      169.31691      655.63454      825.46924      2.3943439      1652.815       0             -18.26893       56.081883      204.58029      6.9510456      0             -71.262397      0             -2400.7752     -2204.4244      1707.6635      2638.2197    
        20   4              1412.615       8.9359336      19.435138      17.116853     -1817.1582      1853.7892      36.630925      170.74028      658.44069      827.17221      2.6371938      1658.9904      0             -18.256503      57.862393      205.22995      7.1517417      0             -71.328596      0             -2401.1019     -2202.1864      1695.6213      2634.6156    
        21   4.2            1424.8521      8.9380414      19.439722      17.12089      -1835.3002      1854.4308      19.130601      171.75021      661.04878      828.94211      2.885625       1664.6267      0             -18.24359       59.369184      205.91732      7.341505       0             -71.397024      0             -2401.3994     -2200.1684      1683.7573      2630.8859    
        22   4.4            1436.5856      8.9402283      19.444479      17.125079     -1852.742       1855.0509      2.3089256      172.44906      663.43885      830.77452      3.1388879      1669.8013      0             -18.230205      60.630354      206.64172      7.520183       0             -71.467455      0             -2401.6626     -2198.3377      1672.1102      2627.0384    
        23   4.6            1447.7354      8.9424922      19.449402      17.129416     -1869.5127      1855.6449     -13.867788      172.94178      665.59523      832.66482      3.3963444      1674.5982      0             -18.216363      61.683214      207.40242      7.6876749      0             -71.53965       0             -2401.8867     -2196.653       1660.7304      2623.07      
        24   4.8            1458.2004      8.9448309      19.454489      17.133895     -1885.6095      1856.2086     -29.400899      173.32932      667.50662      834.60831      3.6574585      1679.1017      0             -18.202078      62.572302      208.19864      7.8439229      0             -71.613393      0             -2402.0675     -2195.0661      1649.7008      2618.9967    
        25   5              1467.873       8.9472425      19.459734      17.138515     -1901.0445      1856.7366     -44.30791       173.70239      669.16612      836.60018      3.9217855      1683.3905      0             -18.187364      63.347084      209.02955      7.9889059      0             -71.688477      0             -2402.2013     -2193.5242      1639.0826      2614.808     
        26   5.2            1476.6506      8.9497249      19.465133      17.14327      -1915.7955      1857.2284     -58.567042      174.13601      670.5712       838.63559      4.1889584      1687.5318      0             -18.172234      64.059486      209.89426      8.1226346      0             -71.764709      0             -2402.2847     -2191.973       1628.9647      2610.5249    
        27   5.4            1484.4473      8.9522759      19.470681      17.148156     -1929.8679      1857.6801     -72.187785      174.68519      671.7236       840.7096       4.4586751      1691.5771      0             -18.156704      64.76137       210.7918       8.2451466      0             -71.841904      0             -2402.3151     -2190.3587      1619.3893      2606.132     
        28   5.6            1491.2035      8.9548935      19.476375      17.15317      -1943.2328      1858.0896     -85.143161      175.38177      672.62923      842.81731      4.7306845      1695.559       0             -18.140786      65.502091      211.72118      8.3565029      0             -71.919885      0             -2402.2906     -2188.6308      1610.4158      2601.6496    
        29   5.8            1496.8933      8.9575757      19.482208      17.158308     -1955.8755      1858.4552     -97.420253      176.23279      673.29797      844.95377      5.0047749      1699.4893      0             -18.124495      66.326249      212.68136      8.4567853      0             -71.998487      0             -2402.2102     -2186.7443      1602.0691      2597.0849    
        30   6              1501.5278      8.9603203      19.488178      17.163565     -1967.7869      1858.776      -109.01089      177.22029      673.74352      847.11407      5.2807625      1703.3586      0             -18.107845      67.271737      213.67126      8.546094       0             -72.077549      0             -2402.0732     -2184.6616      1594.3478      2592.4443    
        31   6.2            1505.1567      8.9631253      19.494278      17.168938     -1978.9801      1859.0515     -119.92864      178.30264      673.98309      849.29335      5.5584823      1707.1376      0             -18.09085       68.368177      214.68979      8.6245455      0             -72.15692       0             -2401.8798     -2182.3542      1587.2089      2587.7177    
        32   6.4            1507.867       8.9659886      19.500506      17.174423     -1989.4473      1859.2818     -130.16548      179.41736      674.03717      851.48679      5.8377794      1710.7791      0             -18.073524      69.635793      215.73582      8.6922716      0             -72.236454      0             -2401.6306     -2179.8032      1580.6136      2582.9239    
        33   6.6            1509.7782      8.9689081      19.506855      17.180015     -1999.1915      1859.4675     -139.72399      180.48509      673.92917      853.68964      6.118503       1714.2224      0             -18.05588       71.084768      216.80826      8.7494179      0             -72.316011      0             -2401.3277     -2177.0012      1574.4984      2578.0791    
        34   6.8            1511.0362      8.9718817      19.513323      17.185711     -2008.2587      1859.6096     -148.64913      181.41468      673.68513      855.89727      6.4005005      1717.3976      0             -18.037933      72.715078      217.906        8.7961429      0             -72.395457      0             -2400.9725     -2173.9508      1568.7485      2573.1654    
        35   7              1511.8051      8.9749074      19.519904      17.191507     -2016.6706      1859.7095     -156.96108      182.10905      673.33326      858.10514      6.6836135      1720.2311      0             -18.019696      74.51681       219.02798      8.8326035      0             -72.474663      0             -2400.5677     -2170.665       1563.27        2568.198     
        36   7.2            1512.2569      8.9779831      19.526593      17.197399     -2024.4563      1859.7689     -164.68747      182.47146      672.90353      860.30882      6.9676748      1722.6515      0             -18.001182      76.470902      220.17313      8.8589731      0             -72.553504      0             -2400.1157     -2167.1662      1557.964       2563.1924    
        37   7.4            1512.5618      8.9811068      19.533387      17.203382     -2031.6647      1859.7894     -171.87529      182.41191      672.42721      862.50405      7.2525064      1724.5957      0             -17.982406      78.550261      221.34043      8.8754438      0             -72.631867      0             -2399.6193     -2163.485       1552.7204      2558.1514    
        38   7.6            1512.8775      8.9842764      19.540281      17.209454     -2038.3588      1859.7729     -178.58593      181.85326      671.93636      864.6867       7.5379179      1726.0142      0             -17.96338       80.721188      222.52886      8.8822185      0             -72.709624      0             -2399.0817     -2159.6591      1547.4283      2553.0692    
        39   7.8            1513.3396      8.9874899      19.54727       17.215609     -2044.5885      1859.7211     -184.86737      180.73675      671.46332      866.85279      7.8237065      1726.8766      0             -17.944119      82.945021      223.73744      8.8795091      0             -72.78667       0             -2398.5056     -2155.7303      1542.0092      2547.9573    
        40   8              1514.0532      8.9907452      19.55435       17.221845     -2050.4096      1859.6327     -190.77693      179.02669      671.04015      868.99853      8.109657       1727.175       0             -17.924634      85.17991       224.9652       8.8675369      0             -72.862896      0             -2397.8936     -2151.7439      1536.3981      2542.8205    
        41   8.2            1515.0854      8.9940405      19.561517      17.228157     -2055.8793      1859.5139     -196.36539      176.71383      670.69811      871.12029      8.3955426      1726.9278      0             -17.90494       87.38263       226.21117      8.846531       0             -72.938201      0             -2397.2481     -2147.746       1530.5624      2537.6709    
        42   8.4            1516.4601      8.9973735      19.568766      17.234541     -2061.0445      1859.3638     -201.68073      173.81753      670.46714      873.21463      8.6811263      1726.1804      0             -17.885049      89.510365      227.47436      8.8167276      0             -73.012485      0             -2396.571      -2143.782       1524.4997      2532.522     
        43   8.6            1518.1565      9.0007425      19.576094      17.240995     -2065.8279      1859.1828     -206.64503      170.38629      670.37535      875.27829      8.9661625      1725.0061      0             -17.864973      91.522356      228.7538       8.7783693      0             -73.085645      0             -2395.8639     -2139.895       1518.3611      2527.511     
        44   8.8            1520.1094      9.0041453      19.583495      17.247513     -2070.5868      1858.9714     -211.61547      166.49677      670.44851      877.30818      9.2503989      1723.5039      0             -17.844726      93.381376      230.04849      8.731704       0             -73.157605      0             -2395.1279     -2136.1239      1511.8884      2522.3365    
        45   9              1522.2118      9.0075801      19.590965      17.254092     -2075.2036      1858.7289     -216.47469      162.25127      670.70967      879.30143      9.5335786      1721.7959      0             -17.82432       95.054971      231.3574       8.6769841      0             -73.228302      0             -2394.3635     -2132.5025      1505.3213      2517.1668    
        46   9.2            1524.3194      9.0110448      19.5985        17.260729     -2079.7085      1858.4552     -221.25333      157.77376      671.17874      881.25531      9.815442       1720.0232      0             -17.803768      96.516436      232.67948      8.6144654      0             -73.297593      0             -2393.5712     -2129.0584      1498.7699      2512.0165    
        47   9.4            1526.2581      9.0145374      19.606097      17.267419     -2084.1314      1858.1498     -225.98167      153.20474      671.87218      883.16731      10.095729      1718.34        0             -17.783083      97.74551       234.01362      8.5444059      0             -73.365458      0             -2392.7504     -2125.8124      1492.3583      2506.8935    
        48   9.6            1527.8337      9.018056       19.613749      17.274159     -2088.5002      1857.8117     -230.68851      148.6951       672.80279      885.03507      10.374182      1716.9071      0             -17.762275      98.728786      235.35869      8.4670649      0             -73.43177       0             -2391.9012     -2122.7784      1486.2186      2501.8013    
        49   9.8            1528.8423      9.0215985      19.621454      17.280944     -2092.8291      1857.4399     -235.38916      144.39924      673.97948      886.85641      10.650546      1715.8857      0             -17.741359      99.459858      236.71348      8.3827069      0             -73.496488      0             -2391.0226     -2119.963       1480.4965      2496.7495    
        50   10             1529.0808      9.025163       19.629207      17.287772     -2097.132       1857.0323     -240.09969      140.46794      675.40719      888.62932      10.92457       1715.429       0             -17.720347      99.939222      238.07674      8.291598       0             -73.559546      0             -2390.1137     -2117.3657      1475.3293      2491.7409    
        51   10.2           1528.3588      9.0287474      19.637003      17.294638     -2101.3889      1856.5899     -244.79902      137.04128      677.08686      890.35195      11.196008      1715.6761      0             -17.699251      100.17397      239.44712      8.1939963      0             -73.620883      0             -2389.1739     -2114.9797      1470.8771      2486.8087    
        52   10.4           1526.5083      9.0323497      19.644837      17.301538     -2105.613       1856.1109     -249.50208      134.24192      679.01545      892.0226       11.464623      1716.7446      0             -17.678082      100.17727      240.82323      8.0901558      0             -73.680442      0             -2388.2022     -2112.792       1467.2425      2481.9441    
        53   10.6           1523.3943      9.0359678      19.652707      17.308469     -2109.7765      1855.5948     -254.18164      132.1691       681.18608      893.63973      11.730182      1718.7251      0             -17.656855      99.967794      242.20354      7.9803247      0             -73.738167      0             -2387.198      -2110.7845      1464.5435      2477.1751    
        54   10.8           1518.9224      9.0395998      19.660606      17.315426     -2113.8737      1855.0413     -258.83234      130.89384      683.58811      895.20193      11.99246       1721.6763      0             -17.635581      99.568908      243.58646      7.8647437      0             -73.794008      0             -2386.1609     -2108.9348      1462.844       2472.5031    
        55   11             1513.045       9.0432435      19.668531      17.322406     -2117.8969      1854.4504     -263.44643      130.45529      686.20743      896.70795      12.251237      1725.6219      0             -17.614272      99.007902      244.9703       7.7436442      0             -73.847914      0             -2385.0906     -2107.2167      1462.1755      2467.9277    
        56   11.2           1505.7647      9.0468969      19.676477      17.329404     -2121.801       1853.8225     -267.97844      130.8587       689.0267       898.15667      12.506302      1730.5484      0             -17.592941      98.315109      246.35327      7.6172469      0             -73.899837      0             -2383.9874     -2105.6017      1462.5699      2463.4828    
        57   11.4           1497.1359      9.050558       19.684439      17.336417     -2125.5649      1853.1584     -272.40649      132.07494      692.02561      899.5471       12.757447      1736.4051      0             -17.5716        97.523016      247.73347      7.4857596      0             -73.949738      0             -2382.8514     -2104.0589      1463.9986      2459.1757    
        58   11.6           1487.263       9.0542247      19.692414      17.34344      -2129.1835      1852.4591     -276.72438      134.0417       695.18126      900.87839      13.00447       1743.1058      0             -17.550261      96.665365      249.10894      7.3493758      0             -73.997553      0             -2381.6838     -2102.5576      1466.3814      2454.9959    
        59   11.8           1476.2972      9.057895       19.700397      17.350471     -2132.6229      1851.7262     -280.89666      136.66625      698.46854      902.14981      13.247175      1750.5318      0             -17.528935      95.77626       250.47764      7.2082733      0             -74.043241      0             -2380.4853     -2101.0664      1469.6351      2450.9604    
        60   12             1464.4299      9.0615669      19.708383      17.357504     -2135.8509      1850.9614     -284.88946      139.82968      701.86048      903.36079      13.485369      1758.5363      0             -17.507635      94.889292      251.83748      7.0626126      0             -74.086752      0             -2379.2573     -2099.5547      1473.6469      2447.0837    
        61   12.2           1451.8852      9.0652385      19.716369      17.364537     -2138.8605      1850.1667     -288.69377      143.39234      705.32873      904.51086      13.718864      1766.9508      0             -17.486371      94.036699      253.1863       6.9125359      0             -74.128034      0             -2378.0012     -2097.9937      1478.257       2443.3551    
        62   12.4           1438.9103      9.0689078      19.724349      17.371566     -2141.6109      1849.3442     -292.26674      147.20027      708.84394      905.59969      13.947476      1775.5914      0             -17.465154      93.248559      254.52195      6.7581661      0             -74.167031      0             -2376.7188     -2096.3571      1483.3246      2439.798     
        63   12.6           1425.7653      9.0725731      19.732321      17.378587     -2144.1012      1848.4963     -295.60488      151.09228      712.37624      906.62706      14.171022      1784.2666      0             -17.443995      92.55203       255.84224      6.599606       0             -74.203682      0             -2375.4117     -2094.6215      1488.6617      2436.3974    
        64   12.8           1412.7121      9.0762325      19.74028       17.385596     -2146.3185      1847.6253     -298.69323      154.90732      715.89569      907.59288      14.389327      1792.7852      0             -17.422904      91.970655      257.14501      6.4369382      0             -74.237925      0             -2374.0817     -2092.767       1494.092       2433.1509    
        65   13             1400.0038      9.0798844      19.748223      17.392591     -2148.2402      1846.7335     -301.50667      158.4918       719.37272      908.49718      14.602217      1800.9639      0             -17.40189       91.523725      258.42809      6.2702247      0             -74.269665      0             -2372.7306     -2090.7782      1499.4573      2430.0687    
        66   13.2           1387.8748      9.0835271      19.756145      17.399569     -2149.8803      1845.8233     -304.057        161.70641      722.77858      909.34008      14.809523      1808.6346      0             -17.380963      91.225727      259.68933      6.0995074      0             -74.298844      0             -2371.3602     -2088.6445      1504.5776      2427.1266    
        67   13.4           1376.5314      9.0871593      19.764045      17.406527     -2151.2324      1844.8967     -306.33568      164.43222      726.08579      910.12178      15.011081      1815.6509      0             -17.36013       91.085877      260.92661      5.9248084      0             -74.325413      0             -2369.972      -2086.3601      1509.3152      2424.324     
        68   13.6           1366.1448      9.0907793      19.771918      17.413461     -2152.309       1843.9559     -308.35305      166.57575      729.26852      910.8426       15.206732      1821.8936      0             -17.339399      91.10776       262.13783      5.7461309      0             -74.349256      0             -2368.5676     -2083.9251      1513.5406      2421.6452    
        69   13.8           1356.8455      9.0943861      19.779763      17.42037      -2153.1101      1843.0027     -310.10739      168.07266      732.30299      911.50289      15.396325      1827.2749      0             -17.318777      91.289087      263.32091      5.56346        0             -74.370277      0             -2367.1481     -2081.345       1517.1675      2419.0906    
        70   14             1348.7199      9.0979784      19.787576      17.427251     -2153.652       1842.0388     -311.61317      168.88998      735.16778      912.10308      15.579712      1831.7405      0             -17.29827       91.621587      264.47379      5.3767638      0             -74.38837       0             -2365.7149     -2078.6311      1520.1274      2416.6494    
        71   14.2           1341.8098      9.1015552      19.795355      17.434102     -2153.9539      1841.0656     -312.88823      169.02682      737.84414      912.64364      15.756756      1835.2714      0             -17.277884      92.091048      265.59444      5.185995       0             -74.403431      0             -2364.2688     -2075.8008      1522.3831      2414.3118    
        72   14.4           1336.1128      9.1051154      19.803099      17.440922     -2154.039       1840.0846     -313.95436      168.51346      740.31625      913.12508      15.927327      1837.8821      0             -17.257624      92.67752       266.68085      4.991092       0             -74.415341      0             -2362.8109     -2072.8768      1523.9278      2412.0695    
        73   14.6           1331.5864      9.1086585      19.810805      17.447708     -2153.939       1839.0969     -314.84208      167.40886      742.57134      913.54793      16.091305      1839.6194      0             -17.237494      93.355689      267.73106      4.7919801      0             -74.423977      0             -2361.3419     -2069.8872      1524.7774      2409.9103    
        74   14.8           1328.1532      9.1121835      19.818471      17.454461     -2153.7037      1838.1037     -315.59995      165.79694      744.59987      913.91272      16.24858       1840.5581      0             -17.217497      94.095448      268.7431       4.5885735      0             -74.429212      0             -2359.8626     -2066.8647      1524.9582      2407.809     
        75   15             1325.7074      9.1156901      19.826098      17.461178     -2153.3612      1837.1061     -316.25518      163.78154      746.39554      914.22004      16.399054      1840.7962      0             -17.197635      94.862629      269.71506      4.3807761      0             -74.43091       0             -2358.3739     -2063.8463      1524.541       2405.7661    
        76   15.2           1324.1236      9.1191776      19.833683      17.467858     -2152.9548      1836.1051     -316.84971      161.48064      747.9553       914.47044      16.542639      1840.449       0             -17.177911      95.619931      270.64508      4.1684828      0             -74.428935      0             -2356.8766     -2060.872       1523.5993      2403.7716    
        77   15.4           1323.2648      9.1226458      19.841226      17.474501     -2152.5307      1835.1019     -317.42884      159.0199       749.27926      914.66451      16.679261      1839.6429      0             -17.158327      96.327992      271.53128      3.951581       0             -74.423145      0             -2355.3717     -2057.9839      1522.2141      2401.8155    
        78   15.6           1322.9917      9.1260945      19.848727      17.481107     -2152.1447      1834.0977     -318.04699      156.52606      750.37059      914.80285      16.808857      1838.5084      0             -17.138882      96.946603      272.37186      3.7299516      0             -74.413395      0             -2353.8603     -2055.2253      1520.4614      2399.8813    
        79   15.8           1323.1714      9.1295234      19.856185      17.487675     -2151.8258      1833.0941     -318.73179      154.12039      751.23531      914.88608      16.931377      1837.1732      0             -17.119578      97.436008      273.16497      3.5034699      0             -74.399539      0             -2352.344      -2052.6391      1518.4414      2397.9807    
        80   16             1323.685       9.1329325      19.863599      17.494206     -2151.647       1832.0914     -319.55563      151.91271      751.88205      914.91483      17.046782      1835.7564      0             -17.100414      97.758246      273.90879      3.2720064      0             -74.381432      0             -2350.8245     -2050.2669      1516.2007      2396.0815    
        81   16.2           1324.4337      9.1363219      19.870971      17.500698     -2151.6446      1831.0935     -320.55115      149.99612      752.32183      914.88976      17.155046      1834.3628      0             -17.08139       97.87849       274.60144      3.0354281      0             -74.358926      0             -2349.3037     -2048.1473      1513.8116      2394.19      
        82   16.4           1325.3437      9.1396916      19.8783        17.507153     -2151.862       1830.1016     -321.76038      148.44279      752.56764      914.81157      17.256151      1833.0782      0             -17.062504      97.766302      275.24102      2.7935991      0             -74.331879      0             -2347.7843     -2046.3152      1511.3178      2392.3011    
        83   16.6           1326.3695      9.1430418      19.885586      17.51357      -2152.3396      1829.1181     -323.22152      147.30104      752.63421      914.681        17.350091      1831.9663      0             -17.043754      97.396763      275.82554      2.5463813      0             -74.300149      0             -2346.2687     -2044.8002      1508.7448      2390.41      
        84   16.8           1327.494       9.1463728      19.892831      17.51995      -2153.1174      1828.1455     -324.97194      146.59379      752.53757      914.49883      17.436866      1831.0671      0             -17.02514       96.75141       276.35296      2.2936353      0             -74.263598      0             -2344.7604     -2043.6259      1506.0951      2388.5078    
        85   17             1328.7275      9.1496847      19.900034      17.526295     -2154.2233      1827.1867     -327.03663      146.31847      752.2947       914.26589      17.516487      1830.3955      0             -17.006658      95.818931      276.82117      2.0352214      0             -74.222094      0             -2343.2626     -2042.8093      1503.3589      2386.5915    
        86   17.2           1330.1042      9.1529781      19.907197      17.532603     -2155.6964      1826.2447     -329.45166      146.44832      751.92314      913.98306      17.588967      1829.9435      0             -16.988307      94.595595      277.228        1.7710003      0             -74.175509      0             -2341.7791     -2042.36        1500.4918      2384.6395    
        87   17.4           1331.6774      9.1562532      19.91432       17.538877     -2157.5244      1825.3227     -332.20167      146.93499      751.44062      913.65129      17.654327      1829.6812      0             -16.970084      93.085384      277.57127      1.5008345      0             -74.123724      0             -2340.3141     -2042.2803      1497.4795      2382.673     
        88   17.6           1333.5134      9.1595106      19.921405      17.545116     -2159.7233      1824.424      -335.29933      147.71225      750.86467      913.27157      17.712593      1829.5611      0             -16.951986      91.299826      277.84882      1.2245892      0             -74.066626      0             -2338.8717     -2042.5651      1494.2618      2380.6756    
        89   17.8           1335.6843      9.1627506      19.928452      17.551322     -2162.2849      1823.5519     -338.733        148.70054      750.2123       912.84498      17.763792      1829.5216      0             -16.934009      89.257555      278.05854      0.94213393     0             -74.004109      0             -2337.4562     -2043.2021      1490.7886      2378.6455    
        90   18             1338.2613      9.1659738      19.935462      17.557496     -2165.2011      1822.7098     -342.49133      149.81214      749.49968      912.37263      17.807958      1829.4924      0             -16.91615       86.98361       278.19845      0.65334394     0             -73.936077      0             -2336.0722     -2044.1728      1487.0011      2376.571     
        91   18.2           1341.3077      9.1691809      19.942437      17.56364      -2168.4455      1821.9006     -346.54482      150.95654      748.74186      911.85573      17.845128      1829.3993      0             -16.898407      84.50852       278.26669      0.35810201     0             -73.862444      0             -2334.7237     -2045.4529      1482.8544      2374.4493    
        92   18.4           1344.8731      9.1723723      19.949378      17.569753     -2171.9767      1821.1275     -350.8492       152.0459       747.95257      911.29552      17.875346      1829.1693      0             -16.880774      81.867234      278.26165      0.056300354    0             -73.783133      0             -2333.4151     -2047.013       1478.3201      2372.285     
        93   18.6           1348.9881      9.1755487      19.956287      17.575837     -2175.7647      1820.3929     -355.37188      153.0001       747.14402      910.69331      17.898659      1828.7361      0             -16.863249      79.097928      278.18192     -0.2521575      0             -73.698075      0             -2332.1501     -2048.8204      1473.3642      2370.0645    
        94   18.8           1353.6609      9.1787109      19.963164      17.581894     -2179.7612      1819.699      -360.06213      153.75125      746.32683      910.05047      17.915123      1828.0437      0             -16.845826      76.240764      278.02636     -0.56735458     0             -73.607212      0             -2330.932      -2050.8395      1467.9815      2367.7879    
        95   19             1358.8744      9.1818594      19.970012      17.587925     -2183.9198      1819.0477     -364.8721       154.24747      745.50995      909.36841      17.924801      1827.0506      0             -16.828502      73.336644      277.79412     -0.88935849     0             -73.510498      0             -2329.764      -2053.0331      1462.1785      2365.4504    
        96   19.2           1364.5852      9.184995       19.976832      17.593932     -2188.1897      1818.4402     -369.74948      154.45569      744.70066      908.64857      17.927769      1825.7327      0             -16.811273      70.425996      277.48459     -1.2182194      0             -73.407895      0             -2328.6483     -2055.3639      1455.9832      2363.0512    
        97   19.4           1370.724       9.1881185      19.983626      17.599915     -2192.5178      1817.877      -374.64079      154.36342      743.90465      907.89246      17.924114      1824.0846      0             -16.794134      67.547646      277.09747     -1.553968       0             -73.299375      0             -2327.5868     -2057.7951      1449.4438      2360.5924    
        98   19.6           1377.1965      9.1912308      19.990394      17.605876     -2196.8637      1817.3584     -379.5053       153.97939      743.1261       907.10156      17.913935      1822.121       0             -16.77708       64.737804      276.6327      -1.8966139      0             -73.18492       0             -2326.5806     -2060.2916      1442.6157      2358.0666    
        99   19.8           1383.8866      9.1943325      19.997141      17.611818     -2201.1902      1816.8837     -384.30649      153.33313      742.36782      906.27742      17.89735       1819.8757      0             -16.760106      62.029174      276.09047     -2.2461443      0             -73.064523      0             -2325.6301     -2062.8211      1435.5692      2355.4672    
       100   20             1390.6596      9.1974245      20.003866      17.617741     -2205.4572      1816.4516     -389.00562      152.47341      741.63139      905.42157      17.874494      1817.4009      0             -16.743208      59.450232      275.47123     -2.6025221      0             -72.938182      0             -2324.7349     -2065.3542      1428.3952      2352.7954    
WARNING: Bond/angle/dihedral extent > half of periodic box length (src/domain.cpp:1174)
Loop time of 6.81158 on 1 procs for 100 steps with 224 atoms

Performance: 0.254 ns/day, 94.605 hours/ns, 14.681 timesteps/s, 3.289 katom-step/s
99.0% CPU use with 1 MPI tasks x 1 OpenMP threads

MPI task timing breakdown:
Section |  min time  |  avg time  |  max time  |%varavg| %total
---------------------------------------------------------------
Pair    | 6.41       | 6.41       | 6.41       |   0.0 | 94.10
Bond    | 0.010553   | 0.010553   | 0.010553   |   0.0 |  0.15
Neigh   | 0.087293   | 0.087293   | 0.087293   |   0.0 |  1.28
Comm    | 0.0034355  | 0.0034355  | 0.0034355  |   0.0 |  0.05
Output  | 0.078799   | 0.078799   | 0.078799   |   0.0 |  1.16
Modify  | 0.22051    | 0.22051    | 0.22051    |   0.0 |  3.24
Other   |            | 0.0009842  |            |       |  0.01

Nlocal:            224 ave         224 max         224 min
Histogram: 1 0 0 0 0 0 0 0 0 0
Nghost:           3439 ave        3439 max        3439 min
Histogram: 1 0 0 0 0 0 0 0 0 0
Neighs:          43391 ave       43391 max       43391 min
Histogram: 1 0 0 0 0 0 0 0 0 0

Total # of neighbors = 43391
Ave neighs/atom = 193.70982
Ave special neighs/atom = 13.428571
Neighbor list builds = 20
Dangerous builds = 0

write_data      final.data nocoeff
System init for write_data ...
Generated 0 of 28 mixed pair_coeff terms from geometric mixing rule
write_restart   restart.inter
System init for write_restart ...
Generated 0 of 28 mixed pair_coeff terms from geometric mixing rule
Total wall time: 0:00:07
