ITEM: TIMESTEP
0
ITEM: NUMBER OF ATOMS
224
ITEM: BOX BOUNDS xy xz yz pp pp pp
-8.2834166000000007e+00 8.9138002000000007e+00 0.0000000000000000e+00
0.0000000000000000e+00 1.9386999100000001e+01 -8.2834166000000007e+00
0.0000000000000000e+00 1.7062815100000002e+01 0.0000000000000000e+00
ITEM: ATOMS id type x y z
1 1 -0.260404 0.546303 3.74276
2 1 5.0325 9.1472 4.78864
3 1 7.10335 5.39305 0.522937
4 1 -2.33126 4.30045 8.00847
5 2 -1.23386 8.59059 3.1504
6 2 6.00595 1.10291 5.38101
7 2 8.07681 3.74384 1.11531
8 2 -3.30471 5.94965 7.4161
9 2 6.40669 8.23356 3.50437
10 2 -1.63459 1.45994 5.02704
11 2 0.43626 3.38681 0.761336
12 2 4.33583 6.30669 7.77007
13 2 7.0941 6.85486 1.9124
14 2 -2.322 2.83864 6.61901
15 2 -0.25115 2.00811 2.3533
16 2 5.02324 7.68539 6.1781
17 5 1.09935 0.742057 5.22719
18 5 3.67274 8.95144 3.30421
19 5 1.60189 5.58881 7.56992
20 5 3.17021 4.10469 0.96149
21 5 3.23852 0.315743 5.774
22 5 1.53357 9.37776 2.7574
23 5 -0.537285 5.16249 7.02311
24 5 5.30938 4.53101 1.5083
25 3 -0.848651 7.75052 2.19032
26 3 5.62074 1.94297 6.34108
27 3 7.6916 2.90378 2.07538
28 3 -2.91951 6.78972 6.45603
29 3 6.0844 7.18878 2.74868
30 3 -1.31231 2.50472 5.78272
31 3 0.758542 2.34203 1.51702
32 3 4.01355 7.35147 7.01439
33 6 2.26632 0.303975 4.97503
34 6 2.50578 9.38952 3.55638
35 6 0.434923 5.15072 7.82208
36 6 4.33717 4.54277 0.709327
37 4 0.121541 7.80365 1.71084
38 4 4.65055 1.88985 6.82057
39 4 6.72141 2.95689 2.55487
40 4 -1.94931 6.7366 5.97654
41 4 5.13202 6.67611 2.79427
42 4 -0.359926 3.01739 5.73713
43 4 1.71093 1.82936 1.47143
44 4 3.06116 7.86414 7.05998
45 1 -4.40211 0.546303 12.2742
46 1 0.890787 9.1472 13.32
47 1 2.96164 5.39305 9.05434
48 1 -6.47297 4.30045 16.5399
49 2 -5.37557 8.59059 11.6818
50 2 1.86424 1.10291 13.9124
51 2 3.9351 3.74384 9.64671
52 2 -7.44642 5.94965 15.9475
53 2 2.26498 8.23356 12.0358
54 2 -5.7763 1.45994 13.5584
55 2 -3.70545 3.38681 9.29274
56 2 0.194124 6.30669 16.3015
57 2 2.95239 6.85486 10.4438
58 2 -6.46371 2.83864 15.1504
59 2 -4.39286 2.00811 10.8847
60 2 0.881535 7.68539 14.7095
61 5 -3.04236 0.742057 13.7586
62 5 -0.468969 8.95144 11.8356
63 5 -2.53982 5.58881 16.1013
64 5 -0.971501 4.10469 9.4929
65 5 -0.903185 0.315743 14.3054
66 5 -2.60814 9.37776 11.2888
67 5 -4.67899 5.16249 15.5545
68 5 1.16767 4.53101 10.0397
69 3 -4.99036 7.75052 10.7217
70 3 1.47903 1.94297 14.8725
71 3 3.54989 2.90378 10.6068
72 3 -7.06121 6.78972 14.9874
73 3 1.9427 7.18878 11.2801
74 3 -5.45402 2.50472 14.3141
75 3 -3.38317 2.34203 10.0484
76 3 -0.128158 7.35147 15.5458
77 6 -1.87539 0.303975 13.5064
78 6 -1.63593 9.38952 12.0878
79 6 -3.70679 5.15072 16.3535
80 6 0.195461 4.54277 9.24073
81 4 -4.02017 7.80365 10.2422
82 4 0.508843 1.88985 15.352
83 4 2.5797 2.95689 11.0863
84 4 -6.09102 6.7366 14.5079
85 4 0.99031 6.67611 11.3257
86 4 -4.50163 3.01739 14.2685
87 4 -2.43078 1.82936 10.0028
88 4 -1.08054 7.86414 15.5914
89 1 -0.260404 10.2398 3.74276
90 1 5.0325 18.8407 4.78864
91 1 7.10335 15.0866 0.522937
92 1 -2.33126 13.9939 8.00847
93 2 -1.23386 18.2841 3.1504
94 2 6.00595 10.7964 5.38101
95 2 8.07681 13.4373 1.11531
96 2 -3.30471 15.6432 7.4161
97 2 6.40669 17.9271 3.50437
98 2 -1.63459 11.1534 5.02704
99 2 0.43626 13.0803 0.761336
100 2 4.33583 16.0002 7.77007
101 2 7.0941 16.5484 1.9124
102 2 -2.322 12.5321 6.61901
103 2 -0.25115 11.7016 2.3533
104 2 5.02324 17.3789 6.1781
105 5 1.09935 10.4356 5.22719
106 5 3.67274 18.6449 3.30421
107 5 1.60189 15.2823 7.56992
108 5 3.17021 13.7982 0.96149
109 5 3.23852 10.0092 5.774
110 5 1.53357 19.0713 2.7574
111 5 -0.537285 14.856 7.02311
112 5 5.30938 14.2245 1.5083
113 3 -0.848651 17.444 2.19032
114 3 5.62074 11.6365 6.34108
115 3 7.6916 12.5973 2.07538
116 3 -2.91951 16.4832 6.45603
117 3 6.0844 16.8823 2.74868
118 3 -1.31231 12.1982 5.78272
119 3 0.758542 12.0355 1.51702
120 3 4.01355 17.045 7.01439
121 6 2.26632 9.99747 4.97503
122 6 2.50578 19.083 3.55638
123 6 0.434923 14.8442 7.82208
124 6 4.33717 14.2363 0.709327
125 4 0.121541 17.4971 1.71084
126 4 4.65055 11.5834 6.82057
127 4 6.72141 12.6504 2.55487
128 4 -1.94931 16.4301 5.97654
129 4 5.13202 16.3696 2.79427
130 4 -0.359926 12.7109 5.73713
131 4 1.71093 11.5229 1.47143
132 4 3.06116 17.5576 7.05998
133 1 -4.40211 10.2398 12.2742
134 1 0.890787 18.8407 13.32
135 1 2.96164 15.0866 9.05434
136 1 -6.47297 13.9939 16.5399
137 2 -5.37557 18.2841 11.6818
138 2 1.86424 10.7964 13.9124
139 2 3.9351 13.4373 9.64671
140 2 -7.44642 15.6432 15.9475
141 2 2.26498 17.9271 12.0358
142 2 -5.7763 11.1534 13.5584
143 2 -3.70545 13.0803 9.29274
144 2 0.194124 16.0002 16.3015
145 2 2.95239 16.5484 10.4438
146 2 -6.46371 12.5321 15.1504
147 2 -4.39286 11.7016 10.8847
148 2 0.881535 17.3789 14.7095
149 5 -3.04236 10.4356 13.7586
150 5 -0.468969 18.6449 11.8356
151 5 -2.53982 15.2823 16.1013
152 5 -0.971501 13.7982 9.4929
153 5 -0.903185 10.0092 14.3054
154 5 -2.60814 19.0713 11.2888
155 5 -4.67899 14.856 15.5545
156 5 1.16767 14.2245 10.0397
157 3 -4.99036 17.444 10.7217
158 3 1.47903 11.6365 14.8725
159 3 3.54989 12.5973 10.6068
160 3 -7.06121 16.4832 14.9874
161 3 1.9427 16.8823 11.2801
162 3 -5.45402 12.1982 14.3141
163 3 -3.38317 12.0355 10.0484
164 3 -0.128158 17.045 15.5458
165 6 -1.87539 9.99747 13.5064
166 6 -1.63593 19.083 12.0878
167 6 -3.70679 14.8442 16.3535
168 6 0.195461 14.2363 9.24073
169 4 -4.02017 17.4971 10.2422
170 4 0.508843 11.5834 15.352
171 4 2.5797 12.6504 11.0863
172 4 -6.09102 16.4301 14.5079
173 4 0.99031 16.3696 11.3257
174 4 -4.50163 12.7109 14.2685
175 4 -2.43078 11.5229 10.0028
176 4 -1.08054 17.5576 15.5914
177 7 3.01435 9.56695 9.89188
178 8 3.33837 8.73106 9.17161
179 8 2.69032 10.4028 10.6121
180 7 0.108838 11.6551 10.6022
181 8 -0.581653 11.3361 11.4647
182 8 0.79933 11.9741 9.73964
183 7 -1.68302 6.75179 9.99367
184 8 -1.58338 6.25668 8.9605
185 8 -1.78266 7.24689 11.0268
186 7 1.81522 10.5473 7.93355
187 8 1.07634 9.81638 7.44134
188 8 2.5541 11.2783 8.42577
189 7 -2.60981 8.98842 7.21947
190 8 -1.9584 9.27791 6.31705
191 8 -3.26122 8.69894 8.12189
192 7 0.165108 7.74658 7.02495
193 8 0.951353 7.48538 6.22739
194 8 -0.621137 8.00778 7.8225
195 7 0.926869 8.29508 9.5064
196 8 1.12738 7.2381 9.10008
197 8 0.726361 9.35205 9.91272
198 7 -1.13914 10.332 8.51864
199 8 -0.800302 11.1107 7.74318
200 8 -1.47798 9.55333 9.2941
201 7 -2.79492 14.6199 12.4008
202 8 -2.90716 15.3016 13.3202
203 8 -2.68267 13.9382 11.4815
204 7 -1.88171 13.4592 14.6906
205 8 -1.1828 13.8887 13.8847
206 8 -2.58063 13.0298 15.4966
207 7 -2.74614 4.46722 13.153
208 8 -3.32322 4.83068 12.227
209 8 -2.16905 4.10375 14.0789
210 7 -0.020225 4.16697 12.7455
211 8 0.181895 4.85088 13.6477
212 8 -0.222345 3.48306 11.8433
213 7 3.72724 4.7419 5.42129
214 8 3.10037 3.90986 5.90838
215 8 4.35411 5.57393 4.93421
216 7 4.2411 2.35088 2.85519
217 8 4.24371 1.91011 1.79302
218 8 4.23849 2.79166 3.91736
219 7 2.31956 13.5953 4.65247
220 8 2.00895 13.6069 5.75967
221 8 2.63016 13.5838 3.54527
222 7 3.82168 15.6059 4.89992
223 8 4.84878 15.0948 4.97921
224 8 2.79457 16.1171 4.82063
ITEM: TIMESTEP
1
ITEM: NUMBER OF ATOMS
224
ITEM: BOX BOUNDS xy xz yz pp pp pp
-8.2835028243376030e+00 8.9138303635562082e+00 0.0000000000000000e+00
-6.5603987515316931e-05 1.9387064703987512e+01 -8.2834726607813955e+00
-5.7739142764745566e-05 1.7062872839142770e+01 0.0000000000000000e+00
ITEM: ATOMS id type x y z
1 1 -0.259537 0.545841 3.74219
2 1 5.03146 9.14812 4.78855
3 1 7.10237 5.39341 0.521689
4 1 -2.33088 4.30057 8.00909
5 2 -1.23385 8.59077 3.15019
6 2 6.00661 1.10433 5.38292
7 2 8.078 3.74215 1.11516
8 2 -3.30466 5.95076 7.41565
9 2 6.4096 8.23337 3.50614
10 2 -1.63065 1.46206 5.02378
11 2 0.435425 3.3877 0.76119
12 2 4.3376 6.30529 7.77348
13 2 7.09359 6.85604 1.91527
14 2 -2.32088 2.83692 6.61895
15 2 -0.248637 2.00772 2.35273
16 2 5.02095 7.68663 6.17679
17 5 1.09786 0.743406 5.22731
18 5 3.67509 8.95137 3.30414
19 5 1.60137 5.59079 7.56944
20 5 3.1684 4.10471 0.963879
21 5 3.23704 0.315879 5.77283
22 5 1.53378 9.37852 2.75748
23 5 -0.533275 5.16065 7.02648
24 5 5.3075 4.53182 1.50826
25 3 -0.84891 7.74977 2.19138
26 3 5.61926 1.94168 6.34238
27 3 7.69089 2.90373 2.07653
28 3 -2.9198 6.79128 6.4544
29 3 6.08643 7.18645 2.75091
30 3 -1.31527 2.50383 5.78312
31 3 0.75892 2.34293 1.51696
32 3 4.01195 7.35479 7.01374
33 6 2.26834 0.305582 4.97812
34 6 2.50522 9.38855 3.55628
35 6 0.432803 5.15223 7.82055
36 6 4.33744 4.54179 0.710575
37 4 0.129669 7.80189 1.71416
38 4 4.6468 1.88487 6.81936
39 4 6.72087 2.96208 2.54686
40 4 -1.94878 6.74164 5.98483
41 4 5.13231 6.67998 2.79469
42 4 -0.35883 3.00509 5.73566
43 4 1.70802 1.83166 1.47279
44 4 3.05533 7.87039 7.0636
45 1 -4.40133 0.546243 12.2744
46 1 0.891045 9.14744 13.3193
47 1 2.96208 5.39148 9.05349
48 1 -6.47265 4.30034 16.5399
49 2 -5.37652 8.59058 11.6835
50 2 1.86119 1.10288 13.9092
51 2 3.93508 3.74529 9.64916
52 2 -7.44527 5.95146 15.9475
53 2 2.263 8.23297 12.0324
54 2 -5.77605 1.45628 13.5598
55 2 -3.70252 3.38587 9.29261
56 2 0.194676 6.30823 16.3037
57 2 2.95026 6.85552 10.4425
58 2 -6.46342 2.8405 15.1526
59 2 -4.39392 2.00473 10.884
60 2 0.88064 7.68287 14.7077
61 5 -3.04481 0.740743 13.7582
62 5 -0.46731 8.95511 11.8382
63 5 -2.54053 5.5897 16.1034
64 5 -0.971128 4.10365 9.49304
65 5 -0.905533 0.31602 14.3047
66 5 -2.60806 9.37844 11.2878
67 5 -4.67832 5.16116 15.5571
68 5 1.16679 4.53202 10.0398
69 3 -4.9873 7.74928 10.7239
70 3 1.4789 1.94239 14.8704
71 3 3.54984 2.90382 10.6051
72 3 -7.06077 6.79142 14.9889
73 3 1.94163 7.188 11.2787
74 3 -5.45522 2.50466 14.3134
75 3 -3.38185 2.34407 10.045
76 3 -0.129463 7.35208 15.5446
77 6 -1.87856 0.304906 13.5053
78 6 -1.63698 9.38789 12.0897
79 6 -3.70771 5.15423 16.3508
80 6 0.196713 4.54286 9.24179
81 4 -4.02916 7.80109 10.2397
82 4 0.510712 1.89088 15.3523
83 4 2.57821 2.96016 11.0932
84 4 -6.095 6.7382 14.4991
85 4 0.989933 6.67622 11.3198
86 4 -4.5065 3.00847 14.2706
87 4 -2.43143 1.8234 10.0071
88 4 -1.07554 7.85671 15.5933
89 1 -0.260637 10.2394 3.74317
90 1 5.03257 18.8409 4.78792
91 1 7.10305 15.0859 0.523318
92 1 -2.33068 13.9939 8.00909
93 2 -1.23256 18.2844 3.15063
94 2 6.00565 10.7988 5.38101
95 2 8.07783 13.4356 1.11321
96 2 -3.30533 15.6444 7.41272
97 2 6.40674 17.9296 3.50325
98 2 -1.63376 11.155 5.0258
99 2 0.435937 13.0796 0.760667
100 2 4.33648 16.004 7.77092
101 2 7.09489 16.549 1.91055
102 2 -2.32022 12.5313 6.61762
103 2 -0.253286 11.7025 2.35421
104 2 5.02178 17.3775 6.17919
105 5 1.10028 10.436 5.22701
106 5 3.67205 18.6481 3.30426
107 5 1.6027 15.283 7.57005
108 5 3.17143 13.7995 0.961438
109 5 3.23676 10.0099 5.77661
110 5 1.53248 19.0709 2.75607
111 5 -0.537974 14.856 7.02239
112 5 5.30849 14.2255 1.50858
113 3 -0.848526 17.4452 2.19122
114 3 5.62184 11.6367 6.34102
115 3 7.69149 12.5975 2.07566
116 3 -2.92065 16.4809 6.4551
117 3 6.08462 16.8821 2.75076
118 3 -1.31092 12.198 5.78375
119 3 0.755351 12.0344 1.51886
120 3 4.01362 17.0459 7.01132
121 6 2.26721 9.99943 4.97538
122 6 2.5085 19.0835 3.55381
123 6 0.432956 14.8451 7.82448
124 6 4.33612 14.2367 0.710149
125 4 0.123601 17.4885 1.71208
126 4 4.6523 11.5836 6.80834
127 4 6.72046 12.6422 2.5617
128 4 -1.95676 16.4217 5.98611
129 4 5.13881 16.3612 2.78671
130 4 -0.347907 12.7209 5.73606
131 4 1.71175 11.516 1.47047
132 4 3.05854 17.5623 7.06257
133 1 -4.40315 10.2391 12.2736
134 1 0.890487 18.8403 13.3209
135 1 2.96052 15.0848 9.05486
136 1 -6.47343 13.9944 16.5396
137 2 -5.37935 18.2845 11.6838
138 2 1.86568 10.7959 13.9122
139 2 3.93583 13.4348 9.64645
140 2 -7.44457 15.644 15.945
141 2 2.26227 17.9294 12.037
142 2 -5.77609 11.1521 13.5583
143 2 -3.70805 13.0798 9.29289
144 2 0.194903 16 16.3031
145 2 2.95385 16.5481 10.4428
146 2 -6.46453 12.5308 15.1487
147 2 -4.39215 11.7041 10.8856
148 2 0.878691 17.3796 14.7111
149 5 -3.0412 10.434 13.7584
150 5 -0.466549 18.6462 11.8352
151 5 -2.54137 15.2834 16.1022
152 5 -0.970451 13.7981 9.49187
153 5 -0.903209 10.01 14.3046
154 5 -2.60828 19.0698 11.2889
155 5 -4.67607 14.858 15.5559
156 5 1.16892 14.2223 10.0401
157 3 -4.98681 17.4412 10.7229
158 3 1.48103 11.6358 14.8733
159 3 3.55254 12.5958 10.6065
160 3 -7.0637 16.4813 14.9899
161 3 1.94159 16.8826 11.2785
162 3 -5.45556 12.198 14.3163
163 3 -3.38382 12.0358 10.0476
164 3 -0.125753 17.0439 15.5476
165 6 -1.87532 9.99471 13.5054
166 6 -1.63584 19.0813 12.0891
167 6 -3.70433 14.8434 16.3528
168 6 0.198819 14.2392 9.23971
169 4 -4.0214 17.4889 10.2395
170 4 0.512492 11.5888 15.3606
171 4 2.58011 12.6553 11.0975
172 4 -6.09674 16.4331 14.5133
173 4 0.991584 16.3694 11.3303
174 4 -4.49691 12.7117 14.2629
175 4 -2.43827 11.5246 10.0028
176 4 -1.08367 17.5621 15.5878
177 7 3.01701 9.56706 9.89215
178 8 3.33793 8.73148 9.17199
179 8 2.68801 10.404 10.6127
180 7 0.109492 11.6542 10.6033
181 8 -0.582947 11.3373 11.4649
182 8 0.799098 11.9747 9.73734
183 7 -1.68347 6.75019 9.99234
184 8 -1.58351 6.25651 8.96162
185 8 -1.78302 7.24904 11.0238
186 7 1.81662 10.5479 7.93445
187 8 1.07592 9.81659 7.44322
188 8 2.55461 11.2776 8.42558
189 7 -2.61122 8.99022 7.21838
190 8 -1.96182 9.27755 6.31643
191 8 -3.26036 8.70142 8.11953
192 7 0.166892 7.74673 7.02472
193 8 0.952313 7.48192 6.22692
194 8 -0.620831 8.00661 7.82268
195 7 0.92952 8.2977 9.50832
196 8 1.12674 7.23543 9.0994
197 8 0.726901 9.35167 9.91385
198 7 -1.14079 10.3336 8.518
199 8 -0.799719 11.1097 7.74431
200 8 -1.47757 9.5516 9.29268
201 7 -2.79423 14.6184 12.4037
202 8 -2.90523 15.3044 13.3175
203 8 -2.68489 13.9387 11.4801
204 7 -1.88334 13.4618 14.6882
205 8 -1.18082 13.8892 13.8828
206 8 -2.57908 13.0285 15.4961
207 7 -2.74768 4.46922 13.1525
208 8 -3.32302 4.83012 12.2289
209 8 -2.1686 4.10285 14.0794
210 7 -0.0205206 4.17154 12.7447
211 8 0.182382 4.85016 13.6473
212 8 -0.222857 3.48255 11.8454
213 7 3.72764 4.74205 5.41992
214 8 3.09771 3.91071 5.90882
215 8 4.34966 5.57172 4.93541
216 7 4.24243 2.35229 2.85571
217 8 4.24558 1.91008 1.79498
218 8 4.23907 2.78874 3.91506
219 7 2.31942 13.5934 4.65152
220 8 2.01059 13.606 5.75928
221 8 2.63085 13.582 3.54694
222 7 3.82009 15.6059 4.89978
223 8 4.84772 15.0931 4.97743
224 8 2.79533 16.1198 4.82087
ITEM: TIMESTEP
2
ITEM: NUMBER OF ATOMS
224
ITEM: BOX BOUNDS xy xz yz pp pp pp
-8.2837615645068308e+00 8.9139208777179260e+00 0.0000000000000000e+00
-2.6246704618415606e-04 1.9387261567046181e+01 -8.2836408867889073e+00
-2.3100154159116926e-04 1.7063046101541595e+01 0.0000000000000000e+00
ITEM: ATOMS id type x y z
1 1 -0.258733 0.545254 3.74156
2 1 5.03044 9.14903 4.7884
3 1 7.10142 5.39372 0.520332
4 1 -2.33059 4.30062 8.00971
5 2 -1.23391 8.59098 3.14993
6 2 6.0073 1.10559 5.38477
7 2 8.07922 3.74043 1.1149
8 2 -3.30481 5.95174 7.41511
9 2 6.41252 8.23318 3.50786
10 2 -1.62677 1.46405 5.02045
11 2 0.434568 3.38851 0.760919
12 2 4.33933 6.30382 7.77689
13 2 7.09312 6.85712 1.918
14 2 -2.31985 2.83517 6.6189
15 2 -0.246196 2.00717 2.35211
16 2 5.01848 7.6877 6.17519
17 5 1.09639 0.744609 5.22738
18 5 3.67735 8.95132 3.30399
19 5 1.60077 5.59259 7.56892
20 5 3.16664 4.10468 0.966162
21 5 3.2355 0.31588 5.77158
22 5 1.53399 9.37928 2.75752
23 5 -0.529289 5.15873 7.02984
24 5 5.30559 4.53257 1.50808
25 3 -0.849248 7.74899 2.19235
26 3 5.6178 1.94029 6.34366
27 3 7.69025 2.90359 2.07758
28 3 -2.9202 6.79273 6.45273
29 3 6.0885 7.18408 2.75304
30 3 -1.31832 2.50284 5.78349
31 3 0.759224 2.34372 1.51681
32 3 4.0103 7.35802 7.013
33 6 2.27029 0.307089 4.98119
34 6 2.50469 9.38753 3.55607
35 6 0.430699 5.15364 7.81893
36 6 4.33767 4.54073 0.711755
37 4 0.137657 7.79996 1.71735
38 4 4.64307 1.87992 6.81819
39 4 6.72038 2.96703 2.53887
40 4 -1.94834 6.7467 5.99296
41 4 5.13257 6.68379 2.79504
42 4 -0.357748 2.99275 5.73414
43 4 1.70511 1.83381 1.47401
44 4 3.04964 7.87657 7.06713
45 1 -4.40067 0.546059 12.2747
46 1 0.891254 9.14768 13.3186
47 1 2.9625 5.38984 9.05265
48 1 -6.47247 4.30016 16.5401
49 2 -5.37747 8.59035 11.6855
50 2 1.85809 1.10269 13.9061
51 2 3.93505 3.7467 9.6516
52 2 -7.44426 5.95317 15.9476
53 2 2.26096 8.23235 12.0292
54 2 -5.77591 1.4525 13.5613
55 2 -3.69967 3.38487 9.29246
56 2 0.195142 6.3097 16.3061
57 2 2.94823 6.85592 10.4414
58 2 -6.46328 2.84232 15.155
59 2 -4.39509 2.0012 10.8833
60 2 0.8797 7.68039 14.706
61 5 -3.0473 0.739285 13.7579
62 5 -0.465778 8.9588 11.841
63 5 -2.5414 5.59052 16.1055
64 5 -0.97074 4.10249 9.4932
65 5 -0.907992 0.316163 14.304
66 5 -2.60811 9.37919 11.287
67 5 -4.67773 5.15976 15.5599
68 5 1.16584 4.53298 10.0399
69 3 -4.98378 7.74694 10.7276
70 3 1.47874 1.94171 14.8683
71 3 3.54978 2.90377 10.6035
72 3 -7.0605 6.79309 14.9904
73 3 1.94063 7.18712 11.2776
74 3 -5.45658 2.50452 14.3128
75 3 -3.38066 2.34599 10.0417
76 3 -0.1308 7.35267 15.5436
77 6 -1.88184 0.305738 13.5043
78 6 -1.63814 9.38616 12.0917
79 6 -3.70871 5.1577 16.3482
80 6 0.197907 4.54281 9.24289
81 4 -4.03783 7.79812 10.2374
82 4 0.512519 1.89194 15.3527
83 4 2.57677 2.9632 11.1002
84 4 -6.09914 6.73988 14.4903
85 4 0.989457 6.6762 11.3141
86 4 -4.5114 2.99949 14.2727
87 4 -2.43213 1.81735 10.0113
88 4 -1.07075 7.84933 15.5954
89 1 -0.260935 10.2389 3.74351
90 1 5.03265 18.8412 4.78716
91 1 7.10279 15.0853 0.523591
92 1 -2.33019 13.9939 8.0097
93 2 -1.23134 18.2849 3.15081
94 2 6.00492 10.8018 5.38052
95 2 8.0789 13.434 1.111
96 2 -3.30604 15.6458 7.40936
97 2 6.40679 17.9323 3.50209
98 2 -1.63296 11.1567 5.0244
99 2 0.435589 13.079 0.759873
100 2 4.3371 16.0079 7.77177
101 2 7.09572 16.5497 1.90858
102 2 -2.31861 12.5307 6.61619
103 2 -0.255489 11.7034 2.35507
104 2 5.02034 17.3762 6.18023
105 5 1.10123 10.4364 5.2267
106 5 3.67129 18.6514 3.30422
107 5 1.60339 15.2838 7.5702
108 5 3.1727 13.8009 0.961273
109 5 3.23495 10.0106 5.77913
110 5 1.53139 19.0706 2.7547
111 5 -0.538692 14.8561 7.02169
112 5 5.30758 14.2265 1.50872
113 3 -0.848487 17.4464 2.19202
114 3 5.62295 11.637 6.34092
115 3 7.69145 12.5978 2.07585
116 3 -2.92184 16.4788 6.45425
117 3 6.08489 16.882 2.75273
118 3 -1.30966 12.198 5.78459
119 3 0.752097 12.0333 1.52061
120 3 4.0137 17.047 7.00826
121 6 2.26804 10.0014 4.97571
122 6 2.51122 19.084 3.55113
123 6 0.430975 14.8461 7.82682
124 6 4.33503 14.2372 0.710915
125 4 0.125588 17.4798 1.71318
126 4 4.65402 11.5841 6.79617
127 4 6.71957 12.634 2.56847
128 4 -1.9642 16.4136 5.99551
129 4 5.14556 16.3528 2.77908
130 4 -0.336101 12.731 5.7349
131 4 1.71252 11.5093 1.46938
132 4 3.05589 17.5671 7.06518
133 1 -4.40431 10.2383 12.2731
134 1 0.890139 18.84 13.3218
135 1 2.95938 15.0832 9.05538
136 1 -6.47404 13.9949 16.5394
137 2 -5.38326 18.2851 11.6858
138 2 1.86708 10.7954 13.9121
139 2 3.93654 13.4323 9.64618
140 2 -7.44288 15.6449 15.9426
141 2 2.25951 17.932 12.0382
142 2 -5.77598 11.1508 13.5583
143 2 -3.71073 13.0793 9.29298
144 2 0.195598 15.9999 16.3049
145 2 2.95529 16.5478 10.4417
146 2 -6.46549 12.5296 15.1471
147 2 -4.3914 11.7067 10.8865
148 2 0.875808 17.3805 14.7128
149 5 -3.04009 10.4323 13.7584
150 5 -0.464268 18.6476 11.8349
151 5 -2.54309 15.2846 16.1032
152 5 -0.969406 13.7982 9.49084
153 5 -0.903343 10.0108 14.3039
154 5 -2.60848 19.0685 11.2891
155 5 -4.67325 14.86 15.5575
156 5 1.1701 14.2203 10.0404
157 3 -4.98341 17.4386 10.7241
158 3 1.483 11.6352 14.8742
159 3 3.55525 12.5945 10.6063
160 3 -7.06637 16.4795 14.9924
161 3 1.94047 16.883 11.2769
162 3 -5.45724 12.1979 14.3186
163 3 -3.38462 12.0361 10.0467
164 3 -0.1234 17.0429 15.5495
165 6 -1.87538 9.99197 13.5045
166 6 -1.6358 19.0796 12.0904
167 6 -3.70204 14.8427 16.3522
168 6 0.202046 14.2423 9.23873
169 4 -4.02272 17.4807 10.2368
170 4 0.516108 11.5944 15.3693
171 4 2.5807 12.6602 11.1088
172 4 -6.10257 16.4364 14.5186
173 4 0.992758 16.3693 11.3349
174 4 -4.49249 12.7125 14.2572
175 4 -2.44595 11.5265 10.0028
176 4 -1.08684 17.5666 15.5843
177 7 3.01954 9.56739 9.89225
178 8 3.33705 8.73273 9.1711
179 8 2.68549 10.4051 10.6133
180 7 0.110086 11.6534 10.6045
181 8 -0.584256 11.3386 11.4651
182 8 0.798825 11.9752 9.73507
183 7 -1.684 6.74857 9.99103
184 8 -1.58375 6.25642 8.96285
185 8 -1.78348 7.25094 11.0208
186 7 1.81798 10.5486 7.93534
187 8 1.07548 9.81676 7.44515
188 8 2.55512 11.277 8.42533
189 7 -2.6126 8.99216 7.21741
190 8 -1.96493 9.27651 6.31617
191 8 -3.25957 8.70402 8.11736
192 7 0.168627 7.74687 7.02446
193 8 0.953217 7.47845 6.22635
194 8 -0.620608 8.00542 7.82281
195 7 0.932077 8.30029 9.51018
196 8 1.12592 7.23282 9.09864
197 8 0.727431 9.35131 9.91496
198 7 -1.14249 10.3353 8.51738
199 8 -0.799135 11.1087 7.74558
200 8 -1.47722 9.54989 9.29121
201 7 -2.79365 14.6169 12.4066
202 8 -2.90342 15.3073 13.3149
203 8 -2.68718 13.9393 11.4788
204 7 -1.88504 13.4644 14.6858
205 8 -1.17888 13.8897 13.881
206 8 -2.57755 13.027 15.4957
207 7 -2.74933 4.47116 13.1522
208 8 -3.32295 4.82951 12.2308
209 8 -2.16823 4.10185 14.0799
210 7 -0.0208614 4.17603 12.7441
211 8 0.182824 4.8494 13.6471
212 8 -0.223449 3.48191 11.8476
213 7 3.72801 4.74211 5.41852
214 8 3.09502 3.91146 5.90924
215 8 4.34519 5.56944 4.93648
216 7 4.24376 2.35359 2.85613
217 8 4.24745 1.90992 1.79683
218 8 4.23965 2.78573 3.91272
219 7 2.31924 13.5914 4.65051
220 8 2.01221 13.6051 5.75885
221 8 2.63152 13.5802 3.54851
222 7 3.8185 15.6059 4.89957
223 8 4.84663 15.0914 4.97549
224 8 2.79603 16.1226 4.82104
ITEM: TIMESTEP
3
ITEM: NUMBER OF ATOMS
224
ITEM: BOX BOUNDS xy xz yz pp pp pp
-8.2841920322963443e+00 8.9140714667479557e+00 0.0000000000000000e+00
-5.8998946357746718e-04 1.9387589089463575e+01 -8.2839207655483911e+00
-5.1925937975560998e-04 1.7063334359379759e+01 0.0000000000000000e+00
ITEM: ATOMS id type x y z
1 1 -0.257993 0.544544 3.74086
2 1 5.02942 9.14993 4.78821
3 1 7.10051 5.39396 0.518867
4 1 -2.3304 4.30059 8.01031
5 2 -1.23404 8.59122 3.1496
6 2 6.00801 1.10668 5.38655
7 2 8.08048 3.73867 1.11452
8 2 -3.30514 5.9526 7.41449
9 2 6.41542 8.23299 3.50953
10 2 -1.62296 1.4659 5.01707
11 2 0.433692 3.38927 0.760525
12 2 4.34101 6.30228 7.78031
13 2 7.09269 6.8581 1.92061
14 2 -2.31893 2.83338 6.61886
15 2 -0.24383 2.00647 2.35144
16 2 5.01584 7.68862 6.17329
17 5 1.09495 0.745665 5.2274
18 5 3.67953 8.95128 3.30377
19 5 1.60009 5.59421 7.56836
20 5 3.16493 4.10463 0.968337
21 5 3.23392 0.315747 5.77026
22 5 1.5342 9.38004 2.75752
23 5 -0.525334 5.15671 7.03318
24 5 5.30367 4.53327 1.50778
25 3 -0.849659 7.74818 2.19324
26 3 5.61639 1.9388 6.34491
27 3 7.68967 2.90335 2.07854
28 3 -2.92072 6.79406 6.45101
29 3 6.09061 7.18168 2.75508
30 3 -1.32146 2.50177 5.78384
31 3 0.759453 2.34441 1.51659
32 3 4.00858 7.36115 7.01218
33 6 2.27215 0.308496 4.98425
34 6 2.50417 9.38649 3.55574
35 6 0.428626 5.15494 7.81724
36 6 4.33785 4.53957 0.712861
37 4 0.145434 7.79785 1.72044
38 4 4.6394 1.87503 6.81707
39 4 6.7199 2.97172 2.53092
40 4 -1.94795 6.7518 6.0009
41 4 5.13279 6.68754 2.79531
42 4 -0.356676 2.98041 5.7326
43 4 1.70225 1.8358 1.47507
44 4 3.04414 7.88263 7.07057
45 1 -4.40013 0.545751 12.275
46 1 0.891415 9.14791 13.3179
47 1 2.96289 5.38815 9.05181
48 1 -6.47245 4.29991 16.5403
49 2 -5.37842 8.5899 11.6878
50 2 1.85496 1.10235 13.903
51 2 3.93502 3.74807 9.65404
52 2 -7.44341 5.95478 15.9478
53 2 2.25886 8.2317 12.0261
54 2 -5.77588 1.44859 13.5627
55 2 -3.69692 3.38381 9.2923
56 2 0.195524 6.31112 16.3086
57 2 2.9463 6.85607 10.4405
58 2 -6.4633 2.8441 15.1574
59 2 -4.39639 1.99752 10.8827
60 2 0.878714 7.67794 14.7043
61 5 -3.04982 0.737683 13.7577
62 5 -0.464377 8.96249 11.8439
63 5 -2.54243 5.59129 16.1078
64 5 -0.970334 4.10119 9.49337
65 5 -0.910565 0.316175 14.3033
66 5 -2.6083 9.38003 11.2863
67 5 -4.67724 5.1583 15.5627
68 5 1.16484 4.53389 10.0399
69 3 -4.97981 7.74353 10.7329
70 3 1.47856 1.94094 14.8664
71 3 3.54972 2.90361 10.6019
72 3 -7.06039 6.79474 14.992
73 3 1.93971 7.18616 11.2767
74 3 -5.45811 2.50428 14.3123
75 3 -3.37961 2.34778 10.0384
76 3 -0.132161 7.35322 15.5426
77 6 -1.88524 0.30647 13.5034
78 6 -1.63942 9.38435 12.0939
79 6 -3.70979 5.16113 16.3457
80 6 0.199039 4.5426 9.24405
81 4 -4.04607 7.79475 10.2354
82 4 0.514254 1.89301 15.3532
83 4 2.57541 2.96601 11.1072
84 4 -6.10343 6.74161 14.4815
85 4 0.988866 6.67606 11.3088
86 4 -4.51628 2.99049 14.2749
87 4 -2.4329 1.81124 10.0155
88 4 -1.06624 7.84208 15.5976
89 1 -0.261296 10.2385 3.74378
90 1 5.03275 18.8417 4.78634
91 1 7.10256 15.0848 0.523756
92 1 -2.3298 13.9939 8.0103
93 2 -1.23018 18.2856 3.15093
94 2 6.00379 10.8055 5.37954
95 2 8.08 13.4325 1.10868
96 2 -3.30685 15.6471 7.40604
97 2 6.40683 17.9352 3.50087
98 2 -1.63219 11.1585 5.02284
99 2 0.435218 13.0784 0.758957
100 2 4.33769 16.0118 7.77264
101 2 7.09659 16.5504 1.9065
102 2 -2.31717 12.5302 6.61473
103 2 -0.257758 11.7042 2.35588
104 2 5.01894 17.3752 6.18122
105 5 1.1022 10.4369 5.22627
106 5 3.67046 18.6549 3.30412
107 5 1.60396 15.2847 7.57035
108 5 3.17402 13.8024 0.960996
109 5 3.2331 10.0112 5.78156
110 5 1.5303 19.0705 2.75329
111 5 -0.539438 14.8563 7.02101
112 5 5.30664 14.2276 1.50874
113 3 -0.84853 17.4478 2.19273
114 3 5.62409 11.6373 6.34078
115 3 7.69145 12.5981 2.07596
116 3 -2.92308 16.4769 6.45348
117 3 6.08521 16.882 2.75459
118 3 -1.3085 12.198 5.78526
119 3 0.748786 12.0322 1.52228
120 3 4.0138 17.0483 7.00521
121 6 2.26881 10.0034 4.97602
122 6 2.51393 19.0846 3.54835
123 6 0.428987 14.8471 7.82909
124 6 4.33391 14.2378 0.711623
125 4 0.127498 17.4711 1.71417
126 4 4.65566 11.5848 6.78413
127 4 6.71876 12.6257 2.57514
128 4 -1.97153 16.4058 6.00469
129 4 5.15222 16.3446 2.77142
130 4 -0.324653 12.7409 5.73368
131 4 1.71316 11.5026 1.46817
132 4 3.05328 17.572 7.06781
133 1 -4.40559 10.2376 12.2726
134 1 0.889743 18.8398 13.3228
135 1 2.95823 15.0816 9.0559
136 1 -6.4748 13.9954 16.5393
137 2 -5.38727 18.2858 11.6878
138 2 1.86843 10.7948 13.912
139 2 3.93724 13.4299 9.64592
140 2 -7.44135 15.6459 15.9403
141 2 2.25669 17.9346 12.0395
142 2 -5.77598 11.1495 13.5583
143 2 -3.71351 13.0788 9.29304
144 2 0.196212 15.9999 16.3068
145 2 2.95671 16.5476 10.4407
146 2 -6.46661 12.5284 15.1456
147 2 -4.39061 11.7094 10.8875
148 2 0.872891 17.3816 14.7145
149 5 -3.039 10.4307 13.7583
150 5 -0.462127 18.6492 11.8345
151 5 -2.54496 15.286 16.1043
152 5 -0.968363 13.7983 9.48981
153 5 -0.903587 10.0115 14.3032
154 5 -2.60873 19.0673 11.2894
155 5 -4.67052 14.8621 15.5592
156 5 1.17121 14.2184 10.0407
157 3 -4.98016 17.436 10.7253
158 3 1.48494 11.6347 14.8752
159 3 3.55799 12.5934 10.6061
160 3 -7.06921 16.4778 14.9949
161 3 1.93934 16.8835 11.2754
162 3 -5.45907 12.1978 14.321
163 3 -3.38558 12.0364 10.0458
164 3 -0.12111 17.042 15.5515
165 6 -1.87557 9.98926 13.5038
166 6 -1.6358 19.0781 12.0917
167 6 -3.69992 14.8423 16.3517
168 6 0.205133 14.2455 9.23779
169 4 -4.02408 17.4725 10.234
170 4 0.519698 11.6001 15.3782
171 4 2.58151 12.6652 11.1202
172 4 -6.10844 16.4398 14.5239
173 4 0.993821 16.3692 11.3396
174 4 -4.48843 12.7133 14.2515
175 4 -2.45375 11.5286 10.0028
176 4 -1.09 17.5711 15.581
177 7 3.02194 9.56796 9.89218
178 8 3.33578 8.73478 9.169
179 8 2.68274 10.4062 10.6138
180 7 0.110623 11.6525 10.6057
181 8 -0.585578 11.3402 11.4654
182 8 0.798509 11.9756 9.73283
183 7 -1.68459 6.74693 9.98973
184 8 -1.58409 6.2564 8.96416
185 8 -1.78406 7.2526 11.0177
186 7 1.8193 10.5492 7.93621
187 8 1.07499 9.81691 7.44713
188 8 2.55563 11.2764 8.42503
189 7 -2.61395 8.99425 7.21656
190 8 -1.96773 9.2748 6.31628
191 8 -3.25883 8.70674 8.11539
192 7 0.170312 7.747 7.02417
193 8 0.954064 7.47497 6.22568
194 8 -0.620466 8.00419 7.82291
195 7 0.934542 8.30283 9.51198
196 8 1.12492 7.2303 9.0978
197 8 0.727948 9.35097 9.91604
198 7 -1.14424 10.3369 8.51679
199 8 -0.798548 11.1076 7.74699
200 8 -1.47694 9.54821 9.2897
201 7 -2.79319 14.6155 12.4096
202 8 -2.90174 15.3103 13.3124
203 8 -2.68954 13.94 11.4776
204 7 -1.8868 13.467 14.6836
205 8 -1.17696 13.8903 13.8792
206 8 -2.57606 13.0254 15.4953
207 7 -2.75106 4.47301 13.1519
208 8 -3.323 4.82885 12.2326
209 8 -2.16795 4.10074 14.0806
210 7 -0.0212491 4.18044 12.7434
211 8 0.183224 4.84858 13.6469
212 8 -0.224122 3.48115 11.8499
213 7 3.72832 4.74207 5.41711
214 8 3.09231 3.91212 5.90963
215 8 4.34073 5.56708 4.93741
216 7 4.24508 2.35478 2.85644
217 8 4.24933 1.90961 1.79857
218 8 4.24022 2.78265 3.91036
219 7 2.31902 13.5895 4.64947
220 8 2.01379 13.6043 5.75839
221 8 2.63217 13.5784 3.54999
222 7 3.81691 15.6059 4.89928
223 8 4.8455 15.0897 4.97339
224 8 2.79667 16.1256 4.82115
ITEM: TIMESTEP
4
ITEM: NUMBER OF ATOMS
224
ITEM: BOX BOUNDS xy xz yz pp pp pp
-8.2847926758878518e+00 8.9142815877791737e+00 0.0000000000000000e+00
-1.0469905351442321e-03 1.9388046090535141e+01 -8.2843112881086807e+00
-9.2147349986859695e-04 1.7063736573499874e+01 0.0000000000000000e+00
ITEM: ATOMS id type x y z
1 1 -0.257316 0.543711 3.7401
2 1 5.02841 9.15083 4.78796
3 1 7.09964 5.39415 0.517295
4 1 -2.33029 4.30048 8.01091
5 2 -1.23422 8.59149 3.14922
6 2 6.00876 1.10761 5.38828
7 2 8.08178 3.73688 1.11404
8 2 -3.30565 5.95334 7.41379
9 2 6.41831 8.2328 3.51114
10 2 -1.61923 1.46761 5.01363
11 2 0.4328 3.38995 0.760007
12 2 4.34265 6.30068 7.78371
13 2 7.09231 6.85898 1.92309
14 2 -2.31812 2.83155 6.61884
15 2 -0.241545 2.00561 2.35073
16 2 5.01302 7.68937 6.1711
17 5 1.09355 0.746575 5.22739
18 5 3.68161 8.95126 3.30349
19 5 1.59933 5.59564 7.56775
20 5 3.16328 4.10454 0.970405
21 5 3.2323 0.315483 5.76889
22 5 1.53441 9.38081 2.75748
23 5 -0.521418 5.15461 7.03648
24 5 5.30172 4.53391 1.50734
25 3 -0.850135 7.74734 2.19403
26 3 5.615 1.93722 6.34615
27 3 7.68918 2.90301 2.07941
28 3 -2.92135 6.79527 6.44924
29 3 6.09277 7.17925 2.75705
30 3 -1.32467 2.50061 5.78414
31 3 0.759606 2.34499 1.51629
32 3 4.0068 7.36418 7.01129
33 6 2.27391 0.309803 4.98727
34 6 2.50369 9.3854 3.55531
35 6 0.426597 5.15613 7.8155
36 6 4.33797 4.53833 0.713888
37 4 0.152929 7.79553 1.72345
38 4 4.63578 1.8702 6.81601
39 4 6.71941 2.97612 2.52307
40 4 -1.94759 6.75693 6.00862
41 4 5.13295 6.69119 2.7955
42 4 -0.355609 2.9681 5.73107
43 4 1.69948 1.83761 1.47597
44 4 3.0389 7.88857 7.07389
45 1 -4.39971 0.545319 12.2754
46 1 0.891528 9.14814 13.3174
47 1 2.96327 5.3864 9.05098
48 1 -6.47257 4.29959 16.5407
49 2 -5.37937 8.58924 11.6905
50 2 1.85179 1.10184 13.9
51 2 3.93499 3.74941 9.65646
52 2 -7.44271 5.9563 15.9481
53 2 2.2567 8.23104 12.023
54 2 -5.77597 1.44454 13.5643
55 2 -3.69427 3.38271 9.29213
56 2 0.195823 6.31246 16.3112
57 2 2.94448 6.85596 10.4398
58 2 -6.46346 2.84582 15.16
59 2 -4.39781 1.99371 10.8822
60 2 0.877681 7.67552 14.7027
61 5 -3.05238 0.73594 13.7576
62 5 -0.463107 8.9662 11.8469
63 5 -2.54363 5.59199 16.1102
64 5 -0.969908 4.09977 9.49357
65 5 -0.91325 0.316056 14.3027
66 5 -2.60862 9.38093 11.2858
67 5 -4.67684 5.15677 15.5657
68 5 1.16377 4.53474 10.04
69 3 -4.97546 7.73913 10.7395
70 3 1.47835 1.94008 14.8645
71 3 3.54965 2.90333 10.6004
72 3 -7.06044 6.79637 14.9937
73 3 1.93885 7.1851 11.276
74 3 -5.45981 2.50394 14.3119
75 3 -3.37868 2.34943 10.0352
76 3 -0.133538 7.35373 15.5417
77 6 -1.88874 0.307101 13.5026
78 6 -1.64082 9.38244 12.0961
79 6 -3.71092 5.16451 16.3433
80 6 0.200102 4.54225 9.24524
81 4 -4.05378 7.79099 10.2336
82 4 0.515903 1.89409 15.354
83 4 2.5742 2.96861 11.1142
84 4 -6.10787 6.74338 14.4728
85 4 0.988148 6.67578 11.3037
86 4 -4.52105 2.98151 14.2772
87 4 -2.43375 1.80511 10.0196
88 4 -1.0621 7.835 15.5998
89 1 -0.261722 10.2381 3.74399
90 1 5.03284 18.8423 4.78547
91 1 7.10237 15.0844 0.523813
92 1 -2.3295 13.9941 8.01089
93 2 -1.2291 18.2864 3.151
94 2 6.00227 10.8099 5.37809
95 2 8.08113 13.431 1.10625
96 2 -3.30775 15.6485 7.40275
97 2 6.40687 17.9382 3.49962
98 2 -1.63146 11.1604 5.02112
99 2 0.434825 13.0779 0.757919
100 2 4.33826 16.0159 7.77352
101 2 7.0975 16.5512 1.9043
102 2 -2.3159 12.5299 6.61322
103 2 -0.260093 11.705 2.35665
104 2 5.01758 17.3744 6.18216
105 5 1.1032 10.4374 5.22571
106 5 3.66957 18.6585 3.30393
107 5 1.60441 15.2856 7.57052
108 5 3.17538 13.804 0.96061
109 5 3.2312 10.0119 5.78392
110 5 1.52923 19.0706 2.75185
111 5 -0.540212 14.8565 7.02036
112 5 5.30568 14.2288 1.50862
113 3 -0.848656 17.4492 2.19334
114 3 5.62525 11.6377 6.3406
115 3 7.69151 12.5984 2.076
116 3 -2.92438 16.4752 6.45279
117 3 6.08559 16.8821 2.75634
118 3 -1.30745 12.1983 5.78575
119 3 0.745427 12.0311 1.52386
120 3 4.0139 17.0496 7.00218
121 6 2.26952 10.0055 4.97631
122 6 2.51662 19.0854 3.54547
123 6 0.427 14.8483 7.83128
124 6 4.33277 14.2383 0.712272
125 4 0.129321 17.4624 1.71507
126 4 4.65716 11.5857 6.77225
127 4 6.71806 12.6174 2.58167
128 4 -1.97866 16.3982 6.01357
129 4 5.15875 16.3366 2.76377
130 4 -0.313706 12.7506 5.73239
131 4 1.71362 11.496 1.46685
132 4 3.05075 17.577 7.07044
133 1 -4.40698 10.2369 12.2722
134 1 0.889298 18.8397 13.3238
135 1 2.95705 15.08 9.05643
136 1 -6.47571 13.996 16.5393
137 2 -5.3914 18.2867 11.6899
138 2 1.86973 10.7942 13.912
139 2 3.93791 13.4277 9.64567
140 2 -7.43998 15.6468 15.9382
141 2 2.2538 17.9374 12.0409
142 2 -5.77609 11.1482 13.5583
143 2 -3.71636 13.0784 9.29304
144 2 0.196748 15.9999 16.3088
145 2 2.95812 16.5474 10.4396
146 2 -6.46787 12.5274 15.1443
147 2 -4.38977 11.7121 10.8887
148 2 0.869944 17.3828 14.7162
149 5 -3.03795 10.4291 13.7584
150 5 -0.460127 18.6509 11.8343
151 5 -2.54698 15.2874 16.1055
152 5 -0.967317 13.7985 9.48877
153 5 -0.90394 10.0123 14.3025
154 5 -2.60903 19.0663 11.2897
155 5 -4.66788 14.8643 15.561
156 5 1.17226 14.2167 10.0411
157 3 -4.97708 17.4335 10.7266
158 3 1.48684 11.6342 14.8763
159 3 3.56076 12.5924 10.606
160 3 -7.07222 16.4762 14.9976
161 3 1.93821 16.884 11.2739
162 3 -5.46102 12.1978 14.3235
163 3 -3.38671 12.0366 10.045
164 3 -0.118893 17.0413 15.5535
165 6 -1.87589 9.98658 13.5032
166 6 -1.63585 19.0766 12.093
167 6 -3.69798 14.8422 16.3514
168 6 0.208072 14.2488 9.2369
169 4 -4.02546 17.4643 10.2312
170 4 0.523271 11.6059 15.3871
171 4 2.58263 12.6703 11.1317
172 4 -6.11432 16.4434 14.5292
173 4 0.994765 16.3691 11.3444
174 4 -4.48482 12.7141 14.2459
175 4 -2.46159 11.5307 10.0028
176 4 -1.09307 17.5756 15.5778
177 7 3.0242 9.56877 9.89194
178 8 3.33412 8.73758 9.16577
179 8 2.67977 10.4072 10.6143
180 7 0.111107 11.6517 10.6068
181 8 -0.586916 11.3419 11.4657
182 8 0.798146 11.9758 9.73062
183 7 -1.68526 6.74528 9.98847
184 8 -1.58453 6.25646 8.96556
185 8 -1.78475 7.25401 11.0147
186 7 1.82057 10.5499 7.93707
187 8 1.07448 9.81702 7.44916
188 8 2.55615 11.2759 8.42468
189 7 -2.61525 8.99648 7.21582
190 8 -1.97022 9.27244 6.31673
191 8 -3.25816 8.70959 8.11361
192 7 0.171946 7.74713 7.02385
193 8 0.954854 7.47148 6.22493
194 8 -0.620401 8.00292 7.82297
195 7 0.936918 8.30531 9.5137
196 8 1.12374 7.22788 9.09689
197 8 0.728452 9.35066 9.9171
198 7 -1.14603 10.3385 8.51624
199 8 -0.797958 11.1065 7.74854
200 8 -1.47672 9.54656 9.28815
201 7 -2.79282 14.6142 12.4125
202 8 -2.90019 15.3134 13.3099
203 8 -2.69198 13.9408 11.4765
204 7 -1.88863 13.4696 14.6814
205 8 -1.17508 13.8909 13.8775
206 8 -2.5746 13.0236 15.4949
207 7 -2.75287 4.47478 13.1518
208 8 -3.32319 4.82814 12.2345
209 8 -2.16775 4.09954 14.0813
210 7 -0.0216851 4.18476 12.7428
211 8 0.183582 4.84773 13.6468
212 8 -0.224873 3.48027 11.8522
213 7 3.72858 4.7419 5.4157
214 8 3.08956 3.9127 5.91001
215 8 4.33628 5.56467 4.93822
216 7 4.2464 2.35585 2.85663
217 8 4.25121 1.90916 1.8002
218 8 4.24079 2.77951 3.90798
219 7 2.31874 13.5877 4.64839
220 8 2.01534 13.6035 5.7579
221 8 2.63281 13.5767 3.55137
222 7 3.81532 15.6061 4.89893
223 8 4.84432 15.0879 4.97112
224 8 2.79725 16.1286 4.82118
ITEM: TIMESTEP
5
ITEM: NUMBER OF ATOMS
224
ITEM: BOX BOUNDS xy xz yz pp pp pp
-7.5027478771527711e-04 9.5450401935947458e+00 0.0000000000000000e+00
-1.6318042033525160e-03 1.9388630904203346e+01 6.3048971880702886e-01
-1.4361775774389685e-03 1.7064251277577444e+01 0.0000000000000000e+00
ITEM: ATOMS id type x y z
1 1 8.6586 0.542758 3.73927
2 1 5.02741 9.15172 4.78766
3 1 7.0988 5.39428 0.515618
4 1 6.58502 4.3003 8.0115
5 2 7.68083 8.5918 3.14878
6 2 6.00954 1.10836 5.38994
7 2 8.08309 3.73506 1.11345
8 2 5.60895 5.95397 7.413
9 2 6.42119 8.23259 3.5127
10 2 7.29971 1.46918 5.01014
11 2 0.431895 3.39057 0.759369
12 2 4.34424 6.29904 7.78711
13 2 7.09198 6.85976 1.92543
14 2 6.59789 2.82969 6.61884
15 2 8.67596 2.0046 2.34997
16 2 5.01004 7.68996 6.16863
17 5 1.09219 0.747338 5.22733
18 5 3.68361 8.95125 3.30313
19 5 1.59848 5.59689 7.56709
20 5 3.16167 4.10442 0.972368
21 5 3.23065 0.315088 5.76746
22 5 1.53461 9.38158 2.7574
23 5 8.39775 5.15242 7.03974
24 5 5.29976 4.53449 1.50679
25 3 8.06463 7.74647 2.19473
26 3 5.61366 1.93554 6.34735
27 3 7.68877 2.90258 2.08017
28 3 5.9932 6.79637 6.44743
29 3 6.09496 7.17679 2.75893
30 3 7.58735 2.49936 5.78441
31 3 0.759682 2.34547 1.51591
32 3 4.00496 7.3671 7.01032
33 6 2.27555 0.311009 4.99024
34 6 2.50323 9.38429 3.55476
35 6 0.424627 5.15721 7.81371
36 6 4.33803 4.537 0.714831
37 4 0.160074 7.79301 1.7264
38 4 4.63224 1.86545 6.815
39 4 6.71886 2.98021 2.51533
40 4 6.96809 6.7621 6.0161
41 4 5.13305 6.69474 2.79561
42 4 8.56075 2.95585 5.72958
43 4 1.69682 1.83924 1.4767
44 4 3.03395 7.89434 7.07708
45 1 4.51589 0.544767 12.2758
46 1 0.891594 9.14836 13.3169
47 1 2.96363 5.38459 9.05016
48 1 2.44247 4.29919 16.5411
49 2 3.53497 8.58837 11.6935
50 2 1.84859 1.10118 13.897
51 2 3.93497 3.7507 9.65888
52 2 1.47314 5.95772 15.9486
53 2 2.25448 8.23036 12.0201
54 2 3.13914 1.44038 13.5659
55 2 5.22359 3.38157 9.29194
56 2 9.11134 6.31375 16.3139
57 2 2.94277 6.85561 10.4392
58 2 2.45152 2.84749 15.1627
59 2 4.51597 1.98975 10.8817
60 2 0.876599 7.67314 14.7011
61 5 5.86033 0.734058 13.7575
62 5 8.45333 8.96992 11.8501
63 5 6.37031 5.59263 16.1127
64 5 7.94584 4.09822 9.49377
65 5 7.99925 0.315809 14.3021
66 5 6.30622 9.38192 11.2855
67 5 4.23876 5.15518 15.5688
68 5 1.16264 4.53554 10.0399
69 3 3.94452 7.73381 10.7475
70 3 1.47813 1.93915 14.8628
71 3 3.54955 2.90295 10.5989
72 3 1.85466 6.79798 14.9955
73 3 1.93807 7.18396 11.2755
74 3 3.45361 2.50351 14.3115
75 3 5.53741 2.35092 10.0321
76 3 8.78038 7.3542 15.5409
77 6 7.02295 0.307632 13.5019
78 6 7.27298 9.38046 12.0984
79 6 5.20318 5.16785 16.3411
80 6 9.11639 4.54175 9.24647
81 4 4.85441 7.78689 10.232
82 4 9.43276 1.89517 15.3548
83 4 2.57317 2.97099 11.1211
84 4 2.80283 6.74517 14.4642
85 4 0.987292 6.67538 11.299
86 4 4.38967 2.97259 14.2795
87 4 6.48063 1.79899 10.0235
88 4 7.85688 7.82815 15.6022
89 1 8.65309 10.2377 3.74414
90 1 5.03295 18.843 4.78455
91 1 7.10221 15.0841 0.523765
92 1 6.58602 13.9942 8.01148
93 2 7.68722 18.2874 3.15101
94 2 6.00037 10.8148 5.37617
95 2 8.08228 13.4297 1.10372
96 2 5.60656 15.6499 7.39951
97 2 6.4069 17.9413 3.49832
98 2 7.28453 11.1625 5.01924
99 2 0.434412 13.0775 0.756761
100 2 4.33879 16.0199 7.7744
101 2 7.09843 16.552 1.902
102 2 6.6005 12.5297 6.61168
103 2 8.65281 11.7058 2.35737
104 2 5.01626 17.3737 6.18304
105 5 1.10423 10.4378 5.22503
106 5 3.66862 18.6622 3.30367
107 5 1.60474 15.2866 7.57069
108 5 3.17679 13.8057 0.960115
109 5 3.22926 10.0125 5.78619
110 5 1.52817 19.0707 2.75037
111 5 8.37429 14.8568 7.01973
112 5 5.30469 14.2301 1.50837
113 3 8.06644 17.4507 2.19385
114 3 5.62645 11.6382 6.34038
115 3 7.69161 12.5987 2.07596
116 3 5.98957 16.4736 6.45218
117 3 6.08604 16.8822 2.75797
118 3 7.60883 12.1987 5.78605
119 3 0.742028 12.03 1.52536
120 3 4.01399 17.0511 6.99916
121 6 2.27016 10.0076 4.97658
122 6 2.51927 19.0863 3.5425
123 6 0.425021 14.8496 7.8334
124 6 4.33161 14.239 0.712858
125 4 0.13105 17.4537 1.7159
126 4 4.65847 11.5868 6.76055
127 4 6.71748 12.6091 2.58803
128 4 6.92979 16.391 6.02211
129 4 5.16514 16.3287 2.75616
130 4 8.61191 12.7601 5.73105
131 4 1.71382 11.4896 1.46543
132 4 3.04836 17.5821 7.07306
133 1 4.50681 10.2361 12.2718
134 1 0.888806 18.8398 13.3249
135 1 2.95585 15.0786 9.05697
136 1 2.43855 13.9966 16.5394
137 2 3.51968 18.2877 11.6921
138 2 1.87098 10.7935 13.9121
139 2 3.93856 13.4256 9.64542
140 2 1.47652 15.6478 15.9361
141 2 2.25086 17.9402 12.0423
142 2 3.139 11.1469 13.5584
143 2 5.19601 13.0781 9.293
144 2 9.11251 16 16.3109
145 2 2.9595 16.5473 10.4385
146 2 2.44602 12.5264 15.1431
147 2 4.5264 11.7149 10.8899
148 2 0.866973 17.3841 14.718
149 5 5.87838 10.4274 13.7585
150 5 8.45703 18.6527 11.8341
151 5 6.36615 15.2891 16.1069
152 5 7.94904 13.7989 9.48774
153 5 8.0109 10.013 14.3019
154 5 6.30591 19.0654 11.2901
155 5 4.24996 14.8666 15.563
156 5 1.17325 14.2151 10.0414
157 3 3.94113 17.4311 10.7279
158 3 1.48871 11.6337 14.8774
159 3 3.56356 12.5916 10.6059
160 3 1.83989 16.4748 15.0003
161 3 1.93708 16.8847 11.2724
162 3 3.45222 12.1978 14.326
163 3 5.5273 12.0368 10.0441
164 3 8.79854 17.0407 15.5556
165 6 7.03896 9.98393 13.5027
166 6 7.27936 19.0753 12.0942
167 6 5.21909 14.8423 16.3513
168 6 9.12616 14.2522 9.23606
169 4 4.88848 17.4562 10.2283
170 4 9.44214 11.6118 15.396
171 4 2.58412 12.6755 11.1433
172 4 2.79514 16.4473 14.5345
173 4 0.995581 16.369 11.3492
174 4 4.4336 12.7149 14.2403
175 4 6.44592 11.5328 10.0027
176 4 7.81931 17.58 15.5748
177 7 3.02634 9.56982 9.89155
178 8 3.33211 8.74107 9.1615
179 8 2.6766 10.4083 10.6147
180 7 9.02684 11.6509 10.608
181 8 8.32703 11.3439 11.466
182 8 0.797734 11.976 9.72844
183 7 7.22931 6.74361 9.98723
184 8 7.33024 6.25659 8.96703
185 8 7.12976 7.25519 11.0117
186 7 1.82179 10.5505 7.9379
187 8 1.07394 9.81711 7.45123
188 8 2.55668 11.2754 8.42427
189 7 6.29877 8.99885 7.2152
190 8 6.9429 9.26945 6.3175
191 8 5.65775 8.71255 8.11203
192 7 9.08883 7.74724 7.02349
193 8 0.955584 7.46799 6.22407
194 8 8.29489 8.00162 7.82298
195 7 0.939208 8.3077 9.51534
196 8 1.12237 7.22556 9.0959
197 8 0.728941 9.35038 9.91814
198 7 7.76742 10.3401 8.51573
199 8 8.11794 11.1053 7.75022
200 8 7.43874 9.54494 9.28654
201 7 6.12274 14.6129 12.4154
202 8 6.01654 15.3166 13.3075
203 8 6.22083 13.9417 11.4754
204 7 7.02479 13.4723 14.6793
205 8 7.74207 13.8916 13.8759
206 8 6.34214 13.0217 15.4946
207 7 6.16056 4.47645 13.1517
208 8 5.59179 4.8274 12.2364
209 8 6.74765 4.09824 14.082
210 7 8.89313 4.18898 12.7423
211 8 9.0992 4.84684 13.6468
212 8 8.6896 3.47928 11.8546
213 7 3.72875 4.7416 5.41429
214 8 3.0868 3.91319 5.91035
215 8 4.33184 5.56221 4.93888
216 7 4.24771 2.35679 2.8567
217 8 4.2531 1.90856 1.80171
218 8 4.24136 2.7763 3.90559
219 7 2.31842 13.5858 4.64729
220 8 2.01687 13.6027 5.75738
221 8 2.63343 13.5751 3.55265
222 7 3.81375 15.6063 4.89852
223 8 4.84311 15.0861 4.96871
224 8 2.79775 16.1318 4.82114
ITEM: TIMESTEP
6
ITEM: NUMBER OF ATOMS
224
ITEM: BOX BOUNDS xy xz yz pp pp pp
-1.0769769396157258e-03 9.5454131044733437e+00 0.0000000000000000e+00
-2.3423624593998937e-03 1.9389341462459392e+01 6.3053592753372711e-01
-2.0615515240791638e-03 1.7064876651524084e+01 0.0000000000000000e+00
ITEM: ATOMS id type x y z
1 1 8.65981 0.541687 3.73838
2 1 5.02641 9.1526 4.7873
3 1 7.098 5.39435 0.513838
4 1 6.5856 4.30005 8.01208
5 2 7.68119 8.59213 3.14829
6 2 6.01036 1.10895 5.39153
7 2 8.08444 3.73322 1.11275
8 2 5.60873 5.95447 7.41213
9 2 6.42404 8.23239 3.51421
10 2 7.30391 1.47061 5.0066
11 2 0.430981 3.39112 0.758611
12 2 4.34579 6.29735 7.7905
13 2 7.09169 6.86043 1.92763
14 2 6.59913 2.8278 6.61886
15 2 8.67873 2.00344 2.34918
16 2 5.0069 7.6904 6.16587
17 5 1.09087 0.747958 5.22723
18 5 3.68551 8.95127 3.30271
19 5 1.59755 5.59795 7.56638
20 5 3.16013 4.10427 0.974225
21 5 3.22897 0.314565 5.76598
22 5 1.53481 9.38236 2.75728
23 5 8.40222 5.15014 7.04296
24 5 5.29779 4.53501 1.50611
25 3 8.0647 7.74559 2.19534
26 3 5.61236 1.93378 6.34854
27 3 7.68844 2.90206 2.08083
28 3 5.99297 6.79735 6.44557
29 3 6.09719 7.17431 2.76075
30 3 7.58465 2.49802 5.78463
31 3 0.75968 2.34586 1.51545
32 3 4.00305 7.36991 7.00929
33 6 2.27708 0.312115 4.99316
34 6 2.50281 9.38313 3.55412
35 6 0.422727 5.15819 7.81189
36 6 4.33802 4.5356 0.715684
37 4 0.166803 7.79027 1.72932
38 4 4.6288 1.86079 6.81406
39 4 6.71825 2.98399 2.50774
40 4 6.96916 6.76731 6.02333
41 4 5.13307 6.69819 2.79563
42 4 8.56246 2.9437 5.72814
43 4 1.69432 1.84067 1.47727
44 4 3.02935 7.89993 7.08014
45 1 4.51674 0.544094 12.2763
46 1 0.891612 9.14857 13.3164
47 1 2.96397 5.38273 9.04934
48 1 2.44271 4.29873 16.5417
49 2 3.53467 8.5873 11.6969
50 2 1.84536 1.10037 13.8941
51 2 3.93496 3.75196 9.66129
52 2 1.4742 5.95905 15.9492
53 2 2.25221 8.22966 12.0173
54 2 3.13948 1.43609 13.5675
55 2 5.22669 3.3804 9.29172
56 2 9.11213 6.31498 16.3168
57 2 2.94118 6.85502 10.4389
58 2 2.45171 2.84911 15.1655
59 2 4.51499 1.98567 10.8812
60 2 0.875468 7.6708 14.6996
61 5 5.85835 0.732039 13.7575
62 5 8.45499 8.97364 11.8535
63 5 6.36944 5.59322 16.1153
64 5 7.94696 4.09655 9.494
65 5 7.997 0.315436 14.3015
66 5 6.30629 9.38298 11.2853
67 5 4.23961 5.15354 15.572
68 5 1.16145 4.53629 10.0399
69 3 3.95013 7.72765 10.7567
70 3 1.47789 1.93814 14.8611
71 3 3.54944 2.90245 10.5974
72 3 1.85495 6.79957 14.9973
73 3 1.93735 7.18271 11.2752
74 3 3.4522 2.50297 14.3113
75 3 5.53873 2.35226 10.029
76 3 8.77965 7.35461 15.5402
77 6 7.0199 0.308063 13.5013
78 6 7.27202 9.37839 12.1008
79 6 5.20258 5.17113 16.3389
80 6 9.11796 4.54111 9.24773
81 4 4.84862 7.78246 10.2306
82 4 9.43486 1.89624 15.3558
83 4 2.57238 2.97316 11.128
84 4 2.79872 6.74695 14.4557
85 4 0.986291 6.67486 11.2945
86 4 4.38599 2.96377 14.2819
87 4 6.48027 1.79293 10.0273
88 4 7.86069 7.82159 15.6046
89 1 8.6532 10.2373 3.74423
90 1 5.03306 18.8438 4.78359
91 1 7.10209 15.0838 0.523613
92 1 6.58679 13.9945 8.01206
93 2 7.68882 18.2885 3.15097
94 2 5.99812 10.8204 5.37381
95 2 8.08346 13.4284 1.10108
96 2 5.60612 15.6514 7.39631
97 2 6.40692 17.9445 3.49697
98 2 7.28583 11.1646 5.01723
99 2 0.43398 13.0771 0.755486
100 2 4.3393 16.0241 7.77529
101 2 7.0994 16.5529 1.8996
102 2 6.60207 12.5297 6.6101
103 2 8.651 11.7066 2.35805
104 2 5.01498 17.3733 6.18387
105 5 1.10528 10.4383 5.22423
106 5 3.66761 18.666 3.30333
107 5 1.60494 15.2876 7.57088
108 5 3.17823 13.8074 0.959516
109 5 3.22727 10.0132 5.78838
110 5 1.52712 19.071 2.74887
111 5 8.37412 14.8571 7.01914
112 5 5.30367 14.2314 1.508
113 3 8.06681 17.4523 2.19425
114 3 5.62767 11.6387 6.34011
115 3 7.69175 12.5991 2.07585
116 3 5.98879 16.4723 6.45165
117 3 6.08656 16.8825 2.75947
118 3 7.61038 12.1992 5.78618
119 3 0.738599 12.0289 1.52676
120 3 4.01407 17.0527 6.99618
121 6 2.27075 10.0097 4.97683
122 6 2.52187 19.0873 3.53945
123 6 0.423055 14.8511 7.83543
124 6 4.33043 14.2396 0.713381
125 4 0.132677 17.4452 1.71669
126 4 4.65955 11.5883 6.74908
127 4 6.71705 12.6008 2.59418
128 4 6.92396 16.384 6.03023
129 4 5.17135 16.321 2.74861
130 4 8.6221 12.7691 5.72965
131 4 1.71372 11.4833 1.46392
132 4 3.04614 17.5872 7.07567
133 1 4.50584 10.2354 12.2715
134 1 0.888266 18.8399 13.326
135 1 2.95464 15.0772 9.05752
136 1 2.43801 13.9974 16.5396
137 2 3.51602 18.2889 11.6943
138 2 1.87217 10.7929 13.9122
139 2 3.93917 13.4235 9.64517
140 2 1.4782 15.6488 15.9343
141 2 2.24785 17.9432 12.0438
142 2 3.13934 11.1456 13.5586
143 2 5.19367 13.0778 9.29291
144 2 9.11356 16.0001 16.3131
145 2 2.96086 16.5472 10.4375
146 2 2.44512 12.5256 15.142
147 2 4.52797 11.7178 10.8912
148 2 0.863984 17.3856 14.7199
149 5 5.88002 10.4257 13.7587
150 5 8.4594 18.6547 11.8339
151 5 6.36449 15.2908 16.1084
152 5 7.95075 13.7993 9.4867
153 5 8.01099 10.0137 14.3013
154 5 6.30616 19.0646 11.2906
155 5 4.25306 14.8689 15.5651
156 5 1.17418 14.2137 10.0417
157 3 3.94453 17.4288 10.7293
158 3 1.49053 11.6332 14.8787
159 3 3.56636 12.5909 10.6059
160 3 1.83718 16.4735 15.003
161 3 1.93594 16.8855 11.2709
162 3 3.45069 12.1978 14.3286
163 3 5.52648 12.037 10.0432
164 3 8.80124 17.0402 15.5578
165 6 7.03904 9.98132 13.5023
166 6 7.27988 19.074 12.0955
167 6 5.22132 14.8426 16.3512
168 6 9.12943 14.2557 9.23528
169 4 4.88782 17.4482 10.2254
170 4 9.44636 11.6177 15.405
171 4 2.58604 12.6806 11.1548
172 4 2.79004 16.4513 14.5396
173 4 0.996266 16.3689 11.354
174 4 4.4368 12.7156 14.2348
175 4 6.4389 11.5349 10.0027
176 4 7.81727 17.5843 15.572
177 7 3.02834 9.5711 9.89102
178 8 3.3298 8.74519 9.15628
179 8 2.67323 10.4093 10.615
180 7 9.02789 11.6502 10.6091
181 8 8.32632 11.346 11.4663
182 8 0.797272 11.976 9.72631
183 7 7.22916 6.74195 9.98604
184 8 7.33026 6.25678 8.96857
185 8 7.12951 7.25613 11.0086
186 7 1.82294 10.5512 7.9387
187 8 1.07337 9.81718 7.45336
188 8 2.55722 11.275 8.42382
189 7 6.29818 9.00136 7.21469
190 8 6.94165 9.26588 6.31857
191 8 5.65894 8.71563 8.11065
192 7 9.09101 7.74735 7.02311
193 8 0.956256 7.4645 6.22313
194 8 8.29546 8.00029 7.82295
195 7 0.941414 8.30999 9.51688
196 8 1.12081 7.22336 9.09485
197 8 0.729416 9.35014 9.91915
198 7 7.76617 10.3417 8.51527
199 8 8.11919 11.1041 7.75202
200 8 7.43949 9.54335 9.28489
201 7 6.12355 14.6117 12.4183
202 8 6.01849 15.32 13.3052
203 8 6.21892 13.9427 11.4745
204 7 7.02349 13.475 14.6773
205 8 7.74454 13.8923 13.8744
206 8 6.34421 13.0197 15.4943
207 7 6.15928 4.47802 13.1518
208 8 5.59198 4.82662 12.2383
209 8 6.74831 4.09685 14.0828
210 7 8.89325 4.19309 12.7417
211 8 9.10014 4.84592 13.6469
212 8 8.68935 3.47818 11.8571
213 7 3.72884 4.74115 5.41291
214 8 3.08401 3.9136 5.91067
215 8 4.32743 5.55972 4.93939
216 7 4.24902 2.35762 2.85663
217 8 4.25499 1.90783 1.8031
218 8 4.24191 2.77304 3.90322
219 7 2.31805 13.5841 4.64618
220 8 2.01836 13.6019 5.75683
221 8 2.63404 13.5735 3.55381
222 7 3.81219 15.6066 4.89803
223 8 4.84185 15.0842 4.96613
224 8 2.7982 16.135 4.82103
ITEM: TIMESTEP
7
ITEM: NUMBER OF ATOMS
224
ITEM: BOX BOUNDS xy xz yz pp pp pp
-1.4604262539412716e-03 9.5458507888285631e+00 0.0000000000000000e+00
-3.1763425066220208e-03 1.9390175442506614e+01 6.3059016257462064e-01
-2.7955510084467505e-03 1.7065610651008452e+01 0.0000000000000000e+00
ITEM: ATOMS id type x y z
1 1 8.66107 0.540499 3.73743
2 1 5.02542 9.15348 4.7869
3 1 7.09723 5.39437 0.511957
4 1 6.5862 4.29972 8.01265
5 2 7.6816 8.5925 3.14774
6 2 6.01123 1.10937 5.39304
7 2 8.0858 3.73135 1.11195
8 2 5.60845 5.95485 7.41118
9 2 6.42688 8.23217 3.51567
10 2 7.30812 1.4719 5.00302
11 2 0.430062 3.3916 0.757735
12 2 4.34727 6.29562 7.79386
13 2 7.09145 6.86099 1.9297
14 2 6.60036 2.82587 6.61892
15 2 8.68152 2.00214 2.34835
16 2 5.00359 7.6907 6.16285
17 5 1.0896 0.748434 5.2271
18 5 3.68731 8.9513 3.30223
19 5 1.59654 5.59882 7.56563
20 5 3.15864 4.10409 0.975979
21 5 3.22726 0.313918 5.76445
22 5 1.53501 9.38313 2.75713
23 5 8.40674 5.14779 7.04613
24 5 5.2958 4.53548 1.50531
25 3 8.06484 7.74469 2.19587
26 3 5.61109 1.93194 6.34971
27 3 7.68821 2.90144 2.08138
28 3 5.99272 6.79822 6.44368
29 3 6.09946 7.17182 2.7625
30 3 7.58202 2.49659 5.7848
31 3 0.759601 2.34614 1.51491
32 3 4.00108 7.3726 7.0082
33 6 2.27848 0.313121 4.99601
34 6 2.50244 9.38195 3.55337
35 6 0.420912 5.15905 7.81004
36 6 4.33795 4.53412 0.716445
37 4 0.173054 7.78731 1.73223
38 4 4.62548 1.85623 6.81318
39 4 6.71753 2.98743 2.50034
40 4 6.97041 6.77255 6.03029
41 4 5.13302 6.70151 2.79555
42 4 8.56428 2.93167 5.72679
43 4 1.692 1.84188 1.47766
44 4 3.02514 7.90532 7.08304
45 1 4.51758 0.543304 12.2769
46 1 0.891584 9.14878 13.316
47 1 2.96429 5.38081 9.04854
48 1 2.44293 4.2982 16.5424
49 2 3.53449 8.58602 11.7005
50 2 1.8421 1.09941 13.8913
51 2 3.93497 3.75319 9.66367
52 2 1.47522 5.96028 15.9499
53 2 2.24988 8.22894 12.0146
54 2 3.13982 1.43168 13.5692
55 2 5.22979 3.3792 9.29149
56 2 9.11296 6.31615 16.3197
57 2 2.93971 6.85419 10.4387
58 2 2.45186 2.85066 15.1683
59 2 4.51402 1.98148 10.8808
60 2 0.874287 7.6685 14.6981
61 5 5.85645 0.729887 13.7575
62 5 8.45662 8.97737 11.857
63 5 6.36854 5.59375 16.118
64 5 7.94822 4.09477 9.49424
65 5 7.99474 0.314941 14.301
66 5 6.30634 9.38411 11.2853
67 5 4.24048 5.15183 15.5752
68 5 1.16022 4.53698 10.0398
69 3 3.95607 7.72074 10.7669
70 3 1.47763 1.93706 14.8595
71 3 3.5493 2.90183 10.5961
72 3 1.85521 6.80114 14.9993
73 3 1.93671 7.18137 11.2752
74 3 3.45073 2.50234 14.3111
75 3 5.54003 2.35343 10.026
76 3 8.77904 7.35495 15.5395
77 6 7.01688 0.308394 13.5009
78 6 7.27107 9.37625 12.1033
79 6 5.20203 5.17435 16.3369
80 6 9.11955 4.54032 9.24901
81 4 4.84365 7.77774 10.2293
82 4 9.43697 1.89729 15.3569
83 4 2.57188 2.97512 11.1347
84 4 2.79457 6.74872 14.4473
85 4 0.985138 6.67424 11.2904
86 4 4.38274 2.95507 14.2844
87 4 6.47993 1.78694 10.0309
88 4 7.86403 7.81537 15.6071
89 1 8.65335 10.2369 3.74426
90 1 5.03318 18.8448 4.78258
91 1 7.102 15.0836 0.523358
92 1 6.5876 13.9947 8.01263
93 2 7.69046 18.2898 3.15088
94 2 5.99554 10.8265 5.37102
95 2 8.08466 13.4273 1.09835
96 2 5.6057 15.6528 7.39316
97 2 6.40694 17.9478 3.49558
98 2 7.2872 11.1669 5.01507
99 2 0.433533 13.0768 0.754097
100 2 4.33978 16.0282 7.77619
101 2 7.1004 16.5538 1.89711
102 2 6.6036 12.5299 6.6085
103 2 8.64924 11.7073 2.35869
104 2 5.01375 17.3731 6.18463
105 5 1.10635 10.4388 5.22331
106 5 3.66657 18.67 3.3029
107 5 1.60501 15.2887 7.57108
108 5 3.17971 13.8092 0.958814
109 5 3.22525 10.0138 5.79048
110 5 1.52609 19.0714 2.74733
111 5 8.37404 14.8575 7.01858
112 5 5.30263 14.2328 1.50751
113 3 8.06722 17.4539 2.19455
114 3 5.62893 11.6392 6.33981
115 3 7.69193 12.5995 2.07567
116 3 5.98806 16.4712 6.45121
117 3 6.08715 16.8828 2.76085
118 3 7.612 12.1999 5.78613
119 3 0.735145 12.0279 1.52806
120 3 4.01413 17.0545 6.99322
121 6 2.27127 10.0118 4.97706
122 6 2.52442 19.0884 3.53632
123 6 0.42111 14.8526 7.83737
124 6 4.32924 14.2403 0.713838
125 4 0.134193 17.4367 1.71744
126 4 4.66035 11.5899 6.73787
127 4 6.71679 12.5926 2.60007
128 4 6.9187 16.3774 6.03789
129 4 5.17735 16.3135 2.74116
130 4 8.63153 12.7778 5.72821
131 4 1.71324 11.4772 1.46233
132 4 3.04414 17.5923 7.07825
133 1 4.50487 10.2347 12.2712
134 1 0.88768 18.8402 13.3273
135 1 2.9534 15.0759 9.05807
136 1 2.43745 13.9981 16.5399
137 2 3.51239 18.2902 11.6965
138 2 1.87331 10.7922 13.9124
139 2 3.93976 13.4216 9.64493
140 2 1.47982 15.6498 15.9326
141 2 2.24478 17.9463 12.0453
142 2 3.13969 11.1444 13.5588
143 2 5.19138 13.0776 9.29276
144 2 9.11465 16.0003 16.3155
145 2 2.9622 16.5471 10.4364
146 2 2.44419 12.5249 15.1411
147 2 4.52969 11.7207 10.8926
148 2 0.860981 17.3872 14.7218
149 5 5.88174 10.424 13.759
150 5 8.46174 18.6568 11.8338
151 5 6.36281 15.2927 16.11
152 5 7.95259 13.7998 9.48566
153 5 8.01109 10.0145 14.3008
154 5 6.30647 19.0639 11.2912
155 5 4.25618 14.8713 15.5673
156 5 1.17505 14.2125 10.042
157 3 3.94786 17.4267 10.7307
158 3 1.49232 11.6328 14.88
159 3 3.56916 12.5904 10.6059
160 3 1.83441 16.4723 15.0058
161 3 1.93481 16.8864 11.2695
162 3 3.44919 12.1978 14.3312
163 3 5.52561 12.0372 10.0424
164 3 8.80395 17.0399 15.5601
165 6 7.03911 9.97874 13.5021
166 6 7.28047 19.0729 12.0967
167 6 5.22349 14.8431 16.3514
168 6 9.13265 14.2593 9.23457
169 4 4.88736 17.4404 10.2226
170 4 9.4507 11.6236 15.4139
171 4 2.58846 12.6859 11.1662
172 4 2.78517 16.4555 14.5447
173 4 0.996815 16.3688 11.3587
174 4 4.4395 12.7162 14.2294
175 4 6.43218 11.537 10.0027
176 4 7.81561 17.5884 15.5694
177 7 3.03021 9.57262 9.89035
178 8 3.32721 8.74987 9.15022
179 8 2.66967 10.4102 10.6154
180 7 9.02901 11.6494 10.6102
181 8 8.3257 11.3483 11.4667
182 8 0.796756 11.9759 9.72421
183 7 7.22906 6.74029 9.98491
184 8 7.3303 6.25703 8.97016
185 8 7.12928 7.25683 11.0056
186 7 1.82403 10.5518 7.93947
187 8 1.07277 9.81721 7.45553
188 8 2.55778 11.2746 8.42332
189 7 6.29773 9.00399 7.2143
190 8 6.9408 9.26175 6.3199
191 8 5.66017 8.71882 8.10948
192 7 9.09325 7.74745 7.0227
193 8 0.956869 7.46101 6.22209
194 8 8.29607 7.99893 7.82288
195 7 0.943538 8.31215 9.51832
196 8 1.11907 7.22128 9.09374
197 8 0.729876 9.34994 9.92015
198 7 7.76498 10.3433 8.51486
199 8 8.12057 11.1029 7.75394
200 8 7.44029 9.54179 9.28319
201 7 6.12437 14.6105 12.4211
202 8 6.02043 15.3235 13.303
203 8 6.21705 13.9438 11.4737
204 7 7.02226 13.4777 14.6754
205 8 7.74708 13.893 13.873
206 8 6.34638 13.0176 15.4941
207 7 6.15808 4.47949 13.1521
208 8 5.59214 4.8258 12.2402
209 8 6.74899 4.09538 14.0837
210 7 8.89343 4.19708 12.7412
211 8 9.10115 4.84497 13.6471
212 8 8.68913 3.47696 11.8596
213 7 3.72882 4.74053 5.41155
214 8 3.0812 3.91394 5.91097
215 8 4.32305 5.55722 4.93976
216 7 4.25032 2.35832 2.85641
217 8 4.25689 1.90696 1.80437
218 8 4.24247 2.76973 3.90086
219 7 2.31763 13.5823 4.64506
220 8 2.01983 13.6012 5.75625
221 8 2.63464 13.5719 3.55486
222 7 3.81065 15.6069 4.89747
223 8 4.84054 15.0823 4.9634
224 8 2.79857 16.1384 4.82085
ITEM: TIMESTEP
8
ITEM: NUMBER OF ATOMS
224
ITEM: BOX BOUNDS xy xz yz pp pp pp
-1.8994699735550569e-03 9.5463519308573872e+00 0.0000000000000000e+00
-4.1312371650192858e-03 1.9391130337165013e+01 6.3065226088383053e-01
-3.6359694204026738e-03 1.7066451069420406e+01 0.0000000000000000e+00
ITEM: ATOMS id type x y z
1 1 8.66239 0.539197 3.73642
2 1 5.02443 9.15435 4.78645
3 1 7.0965 5.39433 0.509977
4 1 6.58684 4.29933 8.01322
5 2 7.68208 8.5929 3.14714
6 2 6.01215 1.10963 5.39448
7 2 8.08717 3.72946 1.11105
8 2 5.60811 5.95512 7.41015
9 2 6.42969 8.23194 3.51707
10 2 7.31233 1.47305 4.99941
11 2 0.42914 3.39202 0.756745
12 2 4.3487 6.29387 7.79719
13 2 7.09125 6.86144 1.93163
14 2 6.60159 2.82392 6.619
15 2 8.68434 2.00069 2.34749
16 2 5.00014 7.69084 6.15955
17 5 1.08837 0.74877 5.22692
18 5 3.68902 8.95136 3.30168
19 5 1.59545 5.5995 7.56482
20 5 3.15721 4.10388 0.977632
21 5 3.22554 0.313148 5.76289
22 5 1.53521 9.38391 2.75693
23 5 8.41131 5.14535 7.04924
24 5 5.29381 4.5359 1.50441
25 3 8.06505 7.74377 2.1963
26 3 5.60986 1.93001 6.35086
27 3 7.68807 2.90074 2.08183
28 3 5.99246 6.79897 6.44176
29 3 6.10176 7.16932 2.76419
30 3 7.57945 2.49507 5.78492
31 3 0.759444 2.34634 1.5143
32 3 3.99904 7.37517 7.00706
33 6 2.27975 0.314028 4.99877
34 6 2.50211 9.38073 3.55253
35 6 0.419193 5.15981 7.80819
36 6 4.33779 4.53256 0.717107
37 4 0.17877 7.78411 1.73514
38 4 4.62228 1.85179 6.81237
39 4 6.7167 2.99051 2.49314
40 4 6.97186 6.77783 6.03695
41 4 5.1329 6.7047 2.79538
42 4 8.5662 2.9198 5.72555
43 4 1.68989 1.84288 1.47789
44 4 3.02136 7.91048 7.08577
45 1 4.51842 0.542398 12.2774
46 1 0.89151 9.14898 13.3157
47 1 2.9646 5.37883 9.04773
48 1 2.44313 4.29761 16.5432
49 2 3.53442 8.58455 11.7045
50 2 1.83882 1.09829 13.8885
51 2 3.935 3.75438 9.66604
52 2 1.4762 5.96141 15.9507
53 2 2.2475 8.22822 12.012
54 2 3.14016 1.42716 13.5709
55 2 5.23289 3.37798 9.29124
56 2 9.11383 6.31727 16.3228
57 2 2.93837 6.85314 10.4387
58 2 2.45198 2.85216 15.1713
59 2 4.51306 1.97717 10.8804
60 2 0.873057 7.66624 14.6966
61 5 5.85463 0.727603 13.7576
62 5 8.45823 8.9811 11.8606
63 5 6.3676 5.59423 16.1208
64 5 7.94962 4.09286 9.4945
65 5 7.99249 0.314325 14.3005
66 5 6.30639 9.38532 11.2854
67 5 4.24135 5.15007 15.5786
68 5 1.15893 4.53763 10.0398
69 3 3.96228 7.71315 10.778
70 3 1.47736 1.93592 14.8581
71 3 3.54914 2.90109 10.5947
72 3 1.85544 6.80271 15.0012
73 3 1.93613 7.17994 11.2753
74 3 3.44918 2.50161 14.3111
75 3 5.54132 2.35443 10.0232
76 3 8.77856 7.35524 15.539
77 6 7.0139 0.308626 13.5006
78 6 7.27014 9.37404 12.1058
79 6 5.20155 5.17751 16.3351
80 6 9.12117 4.5394 9.25031
81 4 4.83952 7.77277 10.2281
82 4 9.43906 1.89832 15.358
83 4 2.57169 2.97689 11.1414
84 4 2.79036 6.75045 14.439
85 4 0.983831 6.67351 11.2866
86 4 4.37998 2.94654 14.287
87 4 6.47958 1.78108 10.0343
88 4 7.86682 7.80953 15.6097
89 1 8.65356 10.2365 3.74422
90 1 5.03331 18.8458 4.78152
91 1 7.10195 15.0834 0.523003
92 1 6.58843 13.9951 8.0132
93 2 7.69215 18.2913 3.15075
94 2 5.99267 10.8331 5.36783
95 2 8.08587 13.4263 1.09552
96 2 5.60529 15.6543 7.39007
97 2 6.40695 17.9513 3.49416
98 2 7.28864 11.1693 5.01277
99 2 0.43307 13.0765 0.752597
100 2 4.34024 16.0325 7.77709
101 2 7.10142 16.5547 1.89453
102 2 6.60506 12.5302 6.60687
103 2 8.64754 11.708 2.35929
104 2 5.01258 17.3731 6.18533
105 5 1.10745 10.4394 5.22228
106 5 3.66548 18.6741 3.3024
107 5 1.60494 15.2899 7.5713
108 5 3.18122 13.811 0.958013
109 5 3.22318 10.0144 5.7925
110 5 1.52508 19.0719 2.74577
111 5 8.37405 14.858 7.01805
112 5 5.30156 14.2342 1.50689
113 3 8.06767 17.4556 2.19473
114 3 5.63023 11.6398 6.33945
115 3 7.69215 12.5999 2.07543
116 3 5.98736 16.4702 6.45086
117 3 6.08782 16.8831 2.76209
118 3 7.61368 12.2008 5.7859
119 3 0.731677 12.0269 1.52928
120 3 4.01417 17.0563 6.99031
121 6 2.27173 10.014 4.97726
122 6 2.5269 19.0896 3.53312
123 6 0.419193 14.8543 7.83921
124 6 4.32805 14.2411 0.714228
125 4 0.135591 17.4282 1.71819
126 4 4.66084 11.5919 6.72694
127 4 6.71671 12.5846 2.60567
128 4 6.91406 16.3711 6.04505
129 4 5.18312 16.3063 2.73385
130 4 8.64007 12.786 5.72674
131 4 1.71235 11.4714 1.46067
132 4 3.04242 17.5975 7.08079
133 1 4.50391 10.234 12.271
134 1 0.887048 18.8406 13.3285
135 1 2.95215 15.0747 9.05862
136 1 2.43687 13.9989 16.5404
137 2 3.50879 18.2917 11.6987
138 2 1.8744 10.7914 13.9126
139 2 3.9403 13.4198 9.6447
140 2 1.48138 15.6508 15.931
141 2 2.24165 17.9495 12.0469
142 2 3.14006 11.1431 13.559
143 2 5.18914 13.0774 9.29256
144 2 9.11579 16.0005 16.3179
145 2 2.96352 16.5471 10.4353
146 2 2.44324 12.5243 15.1403
147 2 4.53156 11.7237 10.8941
148 2 0.857971 17.3889 14.7237
149 5 5.88354 10.4223 13.7593
150 5 8.46405 18.6591 11.8337
151 5 6.36111 15.2947 16.1118
152 5 7.95457 13.8005 9.48462
153 5 8.0112 10.0152 14.3002
154 5 6.30685 19.0633 11.2918
155 5 4.25932 14.8737 15.5696
156 5 1.17586 14.2114 10.0423
157 3 3.95111 17.4246 10.7321
158 3 1.49406 11.6324 14.8815
159 3 3.57195 12.5901 10.6061
160 3 1.83158 16.4713 15.0087
161 3 1.93369 16.8874 11.2681
162 3 3.44771 12.1979 14.3339
163 3 5.52467 12.0374 10.0415
164 3 8.80666 17.0397 15.5624
165 6 7.03916 9.9762 13.5021
166 6 7.28113 19.0718 12.098
167 6 5.22558 14.8438 16.3517
168 6 9.13581 14.263 9.23392
169 4 4.88712 17.4326 10.2197
170 4 9.45518 11.6295 15.4228
171 4 2.59143 12.6911 11.1774
172 4 2.78058 16.4598 14.5498
173 4 0.99723 16.3687 11.3635
174 4 4.44164 12.7168 14.2241
175 4 6.42585 11.539 10.0026
176 4 7.81439 17.5922 15.5671
177 7 3.03195 9.57436 9.88956
178 8 3.32439 8.75504 9.14343
179 8 2.66593 10.4111 10.6156
180 7 9.03021 11.6487 10.6113
181 8 8.32517 11.3507 11.4672
182 8 0.796186 11.9757 9.72217
183 7 7.229 6.73863 9.98383
184 8 7.33036 6.25733 8.9718
185 8 7.12906 7.2573 11.0026
186 7 1.82506 10.5525 7.94021
187 8 1.07216 9.81723 7.45775
188 8 2.55836 11.2743 8.42278
189 7 6.29741 9.00675 7.21403
190 8 6.94032 9.25711 6.32147
191 8 5.66144 8.72213 8.10851
192 7 9.09555 7.74754 7.02227
193 8 0.957421 7.45752 6.22096
194 8 8.29673 7.99753 7.82276
195 7 0.945584 8.31418 9.51966
196 8 1.11714 7.21934 9.09257
197 8 0.730319 9.34978 9.92113
198 7 7.76385 10.3448 8.51453
199 8 8.12207 11.1017 7.75597
200 8 7.44114 9.54027 9.28144
201 7 6.12521 14.6094 12.424
202 8 6.02237 15.3271 13.3009
203 8 6.21524 13.945 11.473
204 7 7.02109 13.4804 14.6735
205 8 7.7497 13.8938 13.8716
206 8 6.34863 13.0153 15.4938
207 7 6.15695 4.48084 13.1525
208 8 5.59228 4.82496 12.242
209 8 6.74969 4.09383 14.0846
210 7 8.89367 4.20096 12.7407
211 8 9.10224 4.844 13.6474
212 8 8.68895 3.47565 11.8622
213 7 3.72869 4.73973 5.41023
214 8 3.07838 3.91419 5.91123
215 8 4.31872 5.5547 4.93996
216 7 4.25162 2.35888 2.85604
217 8 4.25879 1.90595 1.80552
218 8 4.24302 2.76637 3.89854
219 7 2.31716 13.5806 4.64393
220 8 2.02126 13.6005 5.75565
221 8 2.63524 13.5704 3.5558
222 7 3.80914 15.6073 4.89685
223 8 4.83919 15.0803 4.96052
224 8 2.79888 16.1418 4.8206
ITEM: TIMESTEP
9
ITEM: NUMBER OF ATOMS
224
ITEM: BOX BOUNDS xy xz yz pp pp pp
-2.3929051693070136e-03 9.5469151574884581e+00 0.0000000000000000e+00
-5.2044301333733500e-03 1.9392203530133365e+01 6.3072205231915224e-01
-4.5805041104376443e-03 1.7067395604110441e+01 0.0000000000000000e+00
ITEM: ATOMS id type x y z
1 1 8.66375 0.537784 3.73536
2 1 5.02346 9.15522 4.78596
3 1 7.0958 5.39424 0.507901
4 1 6.5875 4.29886 8.01378
5 2 7.68262 8.59334 3.14649
6 2 6.01313 1.10972 5.39584
7 2 8.08856 3.72756 1.11005
8 2 5.60773 5.95527 7.40904
9 2 6.43246 8.2317 3.51842
10 2 7.31654 1.47407 4.99576
11 2 0.42822 3.39236 0.755642
12 2 4.35008 6.2921 7.8005
13 2 7.0911 6.86177 1.93342
14 2 6.6028 2.82193 6.61911
15 2 8.68717 1.9991 2.3466
16 2 4.99654 7.69085 6.156
17 5 1.08721 0.748967 5.22672
18 5 3.69062 8.95144 3.30106
19 5 1.59428 5.6 7.56397
20 5 3.15585 4.10365 0.979184
21 5 3.2238 0.312259 5.7613
22 5 1.5354 9.38469 2.7567
23 5 8.41591 5.14283 7.05229
24 5 5.2918 4.53626 1.50339
25 3 8.06534 7.74284 2.19664
26 3 5.60868 1.92801 6.35198
27 3 7.68804 2.89995 2.08217
28 3 5.99216 6.7996 6.4398
29 3 6.10409 7.16681 2.76582
30 3 7.57696 2.49347 5.78498
31 3 0.75921 2.34645 1.51361
32 3 3.99693 7.37762 7.00588
33 6 2.28087 0.314836 5.00145
34 6 2.50183 9.37947 3.5516
35 6 0.417582 5.16045 7.80634
36 6 4.33755 4.53094 0.717667
37 4 0.183898 7.78068 1.73808
38 4 4.61923 1.84747 6.81163
39 4 6.71572 2.99321 2.48618
40 4 6.97354 6.78314 6.04331
41 4 5.13269 6.70776 2.7951
42 4 8.56822 2.90809 5.72444
43 4 1.68802 1.84366 1.47793
44 4 3.01802 7.91539 7.08831
45 1 4.51926 0.54138 12.2781
46 1 0.891392 9.14917 13.3154
47 1 2.96489 5.37681 9.04694
48 1 2.4433 4.29695 16.544
49 2 3.53446 8.58288 11.7087
50 2 1.83552 1.09704 13.8857
51 2 3.93505 3.75553 9.66838
52 2 1.47714 5.96244 15.9517
53 2 2.24507 8.22748 12.0095
54 2 3.1405 1.42252 13.5727
55 2 5.23598 3.37674 9.29096
56 2 9.11473 6.31833 16.3259
57 2 2.93716 6.85188 10.4389
58 2 2.45207 2.85358 15.1744
59 2 4.51212 1.97276 10.88
60 2 0.871776 7.66402 14.6952
61 5 5.85288 0.725192 13.7578
62 5 8.45982 8.98483 11.8644
63 5 6.36662 5.59466 16.1236
64 5 7.95116 4.09084 9.49477
65 5 7.99023 0.313593 14.3
66 5 6.30642 9.3866 11.2857
67 5 4.24223 5.14825 15.582
68 5 1.1576 4.53823 10.0397
69 3 3.9687 7.70498 10.7898
70 3 1.47708 1.93473 14.8567
71 3 3.54894 2.90024 10.5935
72 3 1.85563 6.80426 15.0033
73 3 1.93563 7.1784 11.2757
74 3 3.44755 2.50077 14.3111
75 3 5.54258 2.35524 10.0204
76 3 8.77821 7.35545 15.5385
77 6 7.01094 0.308758 13.5004
78 6 7.26923 9.37176 12.1085
79 6 5.20112 5.18061 16.3334
80 6 9.12281 4.53834 9.25163
81 4 4.83626 7.76759 10.227
82 4 9.44114 1.89933 15.3593
83 4 2.57186 2.97846 11.1478
84 4 2.7861 6.75213 14.431
85 4 0.982369 6.67268 11.2831
86 4 4.37776 2.93818 14.2896
87 4 6.47924 1.77536 10.0375
88 4 7.86902 7.80412 15.6123
89 1 8.65382 10.2361 3.74413
90 1 5.03345 18.847 4.78041
91 1 7.10192 15.0833 0.52255
92 1 6.58928 13.9955 8.01376
93 2 7.69388 18.2929 3.15058
94 2 5.98953 10.8401 5.36425
95 2 8.08709 13.4253 1.0926
96 2 5.60489 15.6558 7.38703
97 2 6.40695 17.9549 3.49269
98 2 7.29013 11.1718 5.01035
99 2 0.432596 13.0763 0.750988
100 2 4.34068 16.0368 7.77799
101 2 7.10247 16.5557 1.89188
102 2 6.60646 12.5307 6.60521
103 2 8.64588 11.7086 2.35985
104 2 5.01146 17.3733 6.18595
105 5 1.10857 10.4399 5.22114
106 5 3.66436 18.6783 3.30181
107 5 1.60475 15.2911 7.57153
108 5 3.18276 13.8129 0.957117
109 5 3.22108 10.0151 5.79444
110 5 1.52409 19.0726 2.74418
111 5 8.37415 14.8585 7.01756
112 5 5.30046 14.2357 1.50615
113 3 8.06816 17.4574 2.19481
114 3 5.63156 11.6405 6.33905
115 3 7.6924 12.6004 2.07514
116 3 5.98668 16.4695 6.45059
117 3 6.08858 16.8835 2.7632
118 3 7.61544 12.2018 5.7855
119 3 0.728199 12.0258 1.5304
120 3 4.01418 17.0583 6.98743
121 6 2.27213 10.0162 4.97743
122 6 2.5293 19.091 3.52987
123 6 0.417308 14.8561 7.84095
124 6 4.32686 14.2419 0.714548
125 4 0.136861 17.42 1.71896
126 4 4.66098 11.5942 6.71631
127 4 6.71685 12.5766 2.61095
128 4 6.9101 16.3651 6.05165
129 4 5.18864 16.2993 2.72668
130 4 8.64763 12.7936 5.72523
131 4 1.71099 11.4659 1.45894
132 4 3.041 17.6027 7.08329
133 1 4.50295 10.2334 12.2708
134 1 0.886371 18.8412 13.3299
135 1 2.95088 15.0735 9.05919
136 1 2.43627 13.9998 16.5409
137 2 3.50523 18.2933 11.701
138 2 1.87543 10.7907 13.9129
139 2 3.94081 13.4181 9.64447
140 2 1.48288 15.6518 15.9296
141 2 2.23845 17.9528 12.0485
142 2 3.14045 11.1418 13.5594
143 2 5.18696 13.0772 9.2923
144 2 9.11698 16.0008 16.3205
145 2 2.96481 16.547 10.4343
146 2 2.44227 12.5238 15.1396
147 2 4.53357 11.7267 10.8957
148 2 0.854957 17.3908 14.7257
149 5 5.88542 10.4206 13.7596
150 5 8.46633 18.6615 11.8336
151 5 6.35939 15.2968 16.1136
152 5 7.95667 13.8012 9.48357
153 5 8.01131 10.0159 14.2997
154 5 6.3073 19.0629 11.2926
155 5 4.26246 14.8762 15.572
156 5 1.17662 14.2105 10.0426
157 3 3.9543 17.4226 10.7336
158 3 1.49575 11.632 14.883
159 3 3.57473 12.59 10.6062
160 3 1.82868 16.4704 15.0116
161 3 1.93257 16.8885 11.2667
162 3 3.44625 12.198 14.3366
163 3 5.52366 12.0376 10.0407
164 3 8.80936 17.0396 15.5649
165 6 7.03921 9.97369 13.5021
166 6 7.28185 19.0708 12.0992
167 6 5.22761 14.8448 16.3521
168 6 9.1389 14.2668 9.23334
169 4 4.88712 17.4251 10.2168
170 4 9.4598 11.6354 15.4315
171 4 2.595 12.6963 11.1886
172 4 2.77629 16.4643 14.5547
173 4 0.99751 16.3685 11.3683
174 4 4.44318 12.7173 14.2189
175 4 6.41996 11.5409 10.0025
176 4 7.81367 17.5958 15.5649
177 7 3.03357 9.57632 9.88865
178 8 3.32136 8.76065 9.136
179 8 2.66201 10.412 10.6158
180 7 9.03149 11.648 10.6124
181 8 8.32474 11.3534 11.4676
182 8 0.79556 11.9754 9.72017
183 7 7.22899 6.73699 9.98282
184 8 7.33044 6.25769 8.97347
185 8 7.12886 7.25755 10.9996
186 7 1.82601 10.5531 7.94091
187 8 1.07152 9.81722 7.46002
188 8 2.55896 11.2741 8.42219
189 7 6.29721 9.00963 7.21388
190 8 6.94021 9.25199 6.32324
191 8 5.66273 8.72553 8.10774
192 7 9.09791 7.74762 7.02181
193 8 0.957914 7.45404 6.21974
194 8 8.29743 7.9961 7.82258
195 7 0.947553 8.31606 9.52088
196 8 1.11503 7.21755 9.09135
197 8 0.730745 9.34968 9.9221
198 7 7.76276 10.3463 8.51426
199 8 8.12369 11.1004 7.7581
200 8 7.44205 9.53878 9.27965
201 7 6.12606 14.6083 12.4267
202 8 6.02429 15.3308 13.2989
203 8 6.21347 13.9463 11.4725
204 7 7.01997 13.4831 14.6717
205 8 7.75239 13.8946 13.8703
206 8 6.35097 13.0129 15.4936
207 7 6.15592 4.48209 13.1532
208 8 5.59238 4.82409 12.2438
209 8 6.7504 4.09219 14.0855
210 7 8.89396 4.20471 12.7401
211 8 9.10341 4.84302 13.6478
212 8 8.68881 3.47423 11.8649
213 7 3.72842 4.73873 5.40897
214 8 3.07554 3.91438 5.91147
215 8 4.31443 5.55219 4.94001
216 7 4.25291 2.35932 2.85551
217 8 4.2607 1.9048 1.80655
218 8 4.24357 2.76298 3.89626
219 7 2.31664 13.5789 4.64281
220 8 2.02267 13.5998 5.75503
221 8 2.63582 13.5689 3.55661
222 7 3.80765 15.6077 4.89617
223 8 4.83778 15.0783 4.95749
224 8 2.79912 16.1453 4.82029
ITEM: TIMESTEP
10
ITEM: NUMBER OF ATOMS
224
ITEM: BOX BOUNDS xy xz yz pp pp pp
-2.9395053571432683e-03 9.5475390687639194e+00 0.0000000000000000e+00
-6.3932538799083005e-03 1.9393392353879904e+01 6.3079936340677767e-01
-5.6268073401959384e-03 1.7068441907340201e+01 0.0000000000000000e+00
ITEM: ATOMS id type x y z
1 1 8.66517 0.536262 3.73423
2 1 5.02249 9.15607 4.78541
3 1 7.09513 5.3941 0.505731
4 1 6.58818 4.29833 8.01433
5 2 7.68323 8.5938 3.14579
6 2 6.01416 1.10965 5.39711
7 2 8.08995 3.72564 1.10895
8 2 5.60728 5.9553 7.40786
9 2 6.43521 8.23145 3.51971
10 2 7.32073 1.47494 4.99209
11 2 0.427305 3.39264 0.754428
12 2 4.35138 6.29032 7.80376
13 2 7.09101 6.86199 1.93506
14 2 6.60399 2.81993 6.61926
15 2 8.69 1.99737 2.34568
16 2 4.99281 7.69073 6.15219
17 5 1.08609 0.749026 5.22648
18 5 3.69212 8.95153 3.30039
19 5 1.59303 5.6003 7.56306
20 5 3.15454 4.10339 0.980637
21 5 3.22206 0.311253 5.75968
22 5 1.5356 9.38547 2.75643
23 5 8.42054 5.14023 7.05526
24 5 5.28979 4.53658 1.50227
25 3 8.06571 7.7419 2.1969
26 3 5.60754 1.92594 6.35309
27 3 7.6881 2.89908 2.0824
28 3 5.99183 6.80013 6.43782
29 3 6.10645 7.16431 2.76741
30 3 7.57455 2.49178 5.78497
31 3 0.7589 2.34648 1.51285
32 3 3.99476 7.37994 7.00465
33 6 2.28184 0.315546 5.00402
34 6 2.50161 9.37819 3.55058
35 6 0.416089 5.16099 7.8045
36 6 4.33723 4.52924 0.71812
37 4 0.188392 7.77701 1.74105
38 4 4.61633 1.84328 6.81096
39 4 6.7146 2.99553 2.47948
40 4 6.97544 6.78849 6.04936
41 4 5.13239 6.71067 2.79472
42 4 8.57032 2.8966 5.72349
43 4 1.68641 1.84421 1.4778
44 4 3.01517 7.92003 7.09065
45 1 4.5201 0.54025 12.2787
46 1 0.89123 9.14936 13.3152
47 1 2.96515 5.37473 9.04616
48 1 2.44344 4.29623 16.545
49 2 3.5346 8.58103 11.7132
50 2 1.83221 1.09563 13.883
51 2 3.93515 3.75665 9.6707
52 2 1.47805 5.96338 15.9528
53 2 2.24259 8.22673 12.0071
54 2 3.14083 1.41778 13.5745
55 2 5.23906 3.3755 9.29065
56 2 9.11567 6.31934 16.3291
57 2 2.93609 6.85041 10.4393
58 2 2.45212 2.85495 15.1775
59 2 4.51119 1.96825 10.8797
60 2 0.870445 7.66185 14.6938
61 5 5.8512 0.722657 13.758
62 5 8.46138 8.98856 11.8683
63 5 6.36561 5.59505 16.1266
64 5 7.95283 4.08871 9.49506
65 5 7.98798 0.312747 14.2996
66 5 6.30644 9.38796 11.2862
67 5 4.24311 5.14639 15.5855
68 5 1.15623 4.53878 10.0395
69 3 3.97528 7.69629 10.8024
70 3 1.47679 1.93348 14.8555
71 3 3.54871 2.89926 10.5924
72 3 1.8558 6.80581 15.0054
73 3 1.9352 7.17677 11.2762
74 3 3.44585 2.49983 14.3112
75 3 5.54383 2.35587 10.0178
76 3 8.77799 7.35559 15.5382
77 6 7.00803 0.308792 13.5003
78 6 7.26833 9.36941 12.1112
79 6 5.20076 5.18363 16.3318
80 6 9.12445 4.53715 9.25295
81 4 4.83385 7.76225 10.2261
82 4 9.44319 1.90029 15.3607
83 4 2.57242 2.97983 11.154
84 4 2.78178 6.75373 14.4231
85 4 0.980752 6.67178 11.2799
86 4 4.37611 2.93003 14.2924
87 4 6.47887 1.76982 10.0404
88 4 7.87057 7.79916 15.6149
89 1 8.65413 10.2357 3.74398
90 1 5.03359 18.8483 4.77926
91 1 7.10193 15.0833 0.522
92 1 6.59016 13.9959 8.01431
93 2 7.69564 18.2946 3.15036
94 2 5.98616 10.8476 5.36031
95 2 8.08832 13.4245 1.08959
96 2 5.6045 15.6573 7.38406
97 2 6.40693 17.9586 3.49119
98 2 7.29169 11.1743 5.00781
99 2 0.43211 13.0761 0.749274
100 2 4.34109 16.0411 7.77889
101 2 7.10354 16.5568 1.88914
102 2 6.60781 12.5314 6.60353
103 2 8.64428 11.7092 2.36038
104 2 5.01041 17.3737 6.18651
105 5 1.10971 10.4404 5.21989
106 5 3.66321 18.6826 3.30114
107 5 1.60442 15.2923 7.57178
108 5 3.18432 13.8149 0.956127
109 5 3.21894 10.0157 5.7963
110 5 1.52314 19.0734 2.74257
111 5 8.37434 14.859 7.0171
112 5 5.29934 14.2372 1.50531
113 3 8.06869 17.4592 2.19477
114 3 5.63294 11.6412 6.33861
115 3 7.69269 12.6008 2.07479
116 3 5.98603 16.4689 6.45041
117 3 6.08942 16.884 2.76416
118 3 7.61728 12.2031 5.78492
119 3 0.72472 12.0248 1.53142
120 3 4.01415 17.0604 6.98461
121 6 2.27247 10.0184 4.97757
122 6 2.53161 19.0925 3.52656
123 6 0.415462 14.858 7.84258
124 6 4.32569 14.2428 0.714797
125 4 0.137997 17.4118 1.71977
126 4 4.66074 11.5969 6.70599
127 4 6.7172 12.5688 2.61587
128 4 6.90687 16.3595 6.05765
129 4 5.1939 16.2926 2.71971
130 4 8.65411 12.8006 5.7237
131 4 1.70913 11.4606 1.45716
132 4 3.03993 17.6079 7.08573
133 1 4.50199 10.2327 12.2707
134 1 0.88565 18.8418 13.3313
135 1 2.94959 15.0724 9.05976
136 1 2.43564 14.0007 16.5415
137 2 3.50172 18.295 11.7033
138 2 1.87641 10.7898 13.9132
139 2 3.94128 13.4166 9.64425
140 2 1.4843 15.6527 15.9283
141 2 2.2352 17.9562 12.0502
142 2 3.14086 11.1406 13.5597
143 2 5.18485 13.0771 9.29199
144 2 9.11823 16.0012 16.3231
145 2 2.96608 16.5471 10.4332
146 2 2.44127 12.5234 15.1391
147 2 4.53572 11.7297 10.8973
148 2 0.851946 17.3928 14.7277
149 5 5.88738 10.4189 13.7601
150 5 8.46858 18.664 11.8337
151 5 6.35766 15.2991 16.1156
152 5 7.95891 13.8021 9.48252
153 5 8.01144 10.0167 14.2993
154 5 6.30782 19.0626 11.2934
155 5 4.26563 14.8787 15.5745
156 5 1.17733 14.2097 10.0428
157 3 3.95739 17.4206 10.7352
158 3 1.4974 11.6316 14.8846
159 3 3.57749 12.59 10.6065
160 3 1.82573 16.4697 15.0144
161 3 1.93146 16.8897 11.2654
162 3 3.44484 12.1981 14.3393
163 3 5.52257 12.0377 10.0398
164 3 8.81204 17.0397 15.5673
165 6 7.03924 9.97123 13.5023
166 6 7.28264 19.0699 12.1003
167 6 5.22955 14.8459 16.3527
168 6 9.14191 14.2707 9.23284
169 4 4.88737 17.4177 10.2139
170 4 9.46456 11.6412 15.4402
171 4 2.59922 12.7016 11.1994
172 4 2.77233 16.469 14.5595
173 4 0.99766 16.3682 11.3731
174 4 4.44409 12.7177 14.2139
175 4 6.41456 11.5427 10.0023
176 4 7.81348 17.5991 15.563
177 7 3.03507 9.5785 9.88763
178 8 3.31817 8.76664 9.12803
179 8 2.65793 10.4128 10.616
180 7 9.03284 11.6474 10.6134
181 8 8.3244 11.3562 11.4681
182 8 0.794878 11.9749 9.71822
183 7 7.22901 6.73537 9.98189
184 8 7.33054 6.25808 8.97517
185 8 7.12867 7.25757 10.9966
186 7 1.82688 10.5537 7.94158
187 8 1.07086 9.8172 7.46233
188 8 2.55959 11.2739 8.42156
189 7 6.29712 9.01262 7.21385
190 8 6.94044 9.24645 6.32519
191 8 5.66406 8.72904 8.10717
192 7 9.10032 7.74768 7.02133
193 8 0.958346 7.45057 6.21843
194 8 8.29818 7.99464 7.82236
195 7 0.949447 8.31777 9.52199
196 8 1.11274 7.2159 9.09009
197 8 0.731154 9.34963 9.92305
198 7 7.76173 10.3477 8.51408
199 8 8.12543 11.0992 7.76033
200 8 7.44301 9.53733 9.27781
201 7 6.12693 14.6072 12.4295
202 8 6.0262 15.3346 13.2969
203 8 6.21176 13.9477 11.472
204 7 7.01893 13.4858 14.6701
205 8 7.75514 13.8954 13.869
206 8 6.35341 13.0104 15.4934
207 7 6.15497 4.48321 13.154
208 8 5.59244 4.8232 12.2456
209 8 6.75112 4.09048 14.0865
210 7 8.89431 4.20833 12.7396
211 8 9.10466 4.84203 13.6484
212 8 8.68871 3.47271 11.8676
213 7 3.72802 4.73752 5.40776
214 8 3.0727 3.9145 5.91167
215 8 4.3102 5.54969 4.93989
216 7 4.2542 2.35962 2.8548
217 8 4.26261 1.90353 1.80746
218 8 4.24411 2.75956 3.89404
219 7 2.31607 13.5772 4.6417
220 8 2.02405 13.5991 5.75438
221 8 2.6364 13.5675 3.55729
222 7 3.80619 15.6081 4.89541
223 8 4.83633 15.0763 4.95431
224 8 2.79929 16.1489 4.81991
ITEM: TIMESTEP
11
ITEM: NUMBER OF ATOMS
224
ITEM: BOX BOUNDS xy xz yz pp pp pp
-3.5380397135824637e-03 9.5482222597727091e+00 0.0000000000000000e+00
-7.6950314348511739e-03 1.9394694131434846e+01 6.3088402005913014e-01
-6.7725230647770474e-03 1.7069587623064784e+01 0.0000000000000000e+00
ITEM: ATOMS id type x y z
1 1 8.66664 0.534634 3.73305
2 1 5.02152 9.15693 4.78482
3 1 7.09449 5.39391 0.503469
4 1 6.58889 4.29773 8.01487
5 2 7.6839 8.59431 3.14504
6 2 6.01526 1.10941 5.3983
7 2 8.09135 3.72371 1.10776
8 2 5.6068 5.95521 7.40661
9 2 6.43792 8.23119 3.52095
10 2 7.32488 1.47567 4.98839
11 2 0.426396 3.39285 0.753107
12 2 4.35262 6.28854 7.80699
13 2 7.09096 6.8621 1.93657
14 2 6.60516 2.81789 6.61945
15 2 8.69285 1.99551 2.34473
16 2 4.98894 7.69048 6.14814
17 5 1.08504 0.748951 5.22621
18 5 3.69352 8.95165 3.29965
19 5 1.59169 5.60042 7.56211
20 5 3.15331 4.10311 0.981994
21 5 3.22031 0.310133 5.75804
22 5 1.53579 9.38626 2.75613
23 5 8.42519 5.13755 7.05816
24 5 5.28778 4.53685 1.50105
25 3 8.06617 7.74094 2.19707
26 3 5.60644 1.9238 6.35418
27 3 7.68828 2.89812 2.08252
28 3 5.99147 6.80054 6.4358
29 3 6.10885 7.1618 2.76895
30 3 7.57222 2.49001 5.78491
31 3 0.758514 2.34642 1.51201
32 3 3.99252 7.38211 7.00339
33 6 2.28265 0.316158 5.00648
34 6 2.50144 9.37687 3.54948
35 6 0.414726 5.16141 7.80268
36 6 4.33682 4.52748 0.718462
37 4 0.192212 7.7731 1.74408
38 4 4.61361 1.83924 6.81037
39 4 6.71331 2.99745 2.47305
40 4 6.97759 6.79386 6.05509
41 4 5.13202 6.71344 2.79423
42 4 8.57249 2.88532 5.72273
43 4 1.68507 1.84452 1.47749
44 4 3.01282 7.92439 7.09277
45 1 4.52094 0.539013 12.2794
46 1 0.891025 9.14954 13.3151
47 1 2.96541 5.37259 9.04538
48 1 2.44356 4.29544 16.5461
49 2 3.53485 8.579 11.718
50 2 1.82888 1.0941 13.8804
51 2 3.93528 3.75774 9.67299
52 2 1.47891 5.96422 15.9539
53 2 2.24006 8.22598 12.0048
54 2 3.14116 1.41294 13.5764
55 2 5.24212 3.37425 9.29032
56 2 9.11665 6.32031 16.3324
57 2 2.93516 6.84874 10.4398
58 2 2.45213 2.85624 15.1807
59 2 4.51028 1.96365 10.8793
60 2 0.869063 7.65973 14.6925
61 5 5.84959 0.720001 13.7584
62 5 8.4629 8.99229 11.8724
63 5 6.36456 5.59539 16.1296
64 5 7.95464 4.08646 9.49537
65 5 7.98571 0.31179 14.2992
66 5 6.30645 9.38939 11.2868
67 5 4.24399 5.14447 15.5891
68 5 1.15482 4.53928 10.0394
69 3 3.98197 7.68714 10.8154
70 3 1.47649 1.93219 14.8543
71 3 3.54844 2.89816 10.5913
72 3 1.85594 6.80736 15.0075
73 3 1.93483 7.17504 11.277
74 3 3.44406 2.4988 14.3114
75 3 5.54504 2.35629 10.0153
76 3 8.77791 7.35565 15.5379
77 6 7.00517 0.308728 13.5003
78 6 7.26745 9.367 12.114
79 6 5.20045 5.18658 16.3305
80 6 9.12611 4.53582 9.25427
81 4 4.83226 7.75678 10.2252
82 4 9.44522 1.90121 15.3621
83 4 2.5734 2.98103 11.16
84 4 2.77739 6.75524 14.4154
85 4 0.978986 6.67081 11.277
86 4 4.37508 2.9221 14.2953
87 4 6.47849 1.7645 10.0431
88 4 7.87146 7.79468 15.6176
89 1 8.65449 10.2353 3.74378
90 1 5.03373 18.8497 4.77807
91 1 7.10198 15.0834 0.521357
92 1 6.59107 13.9964 8.01485
93 2 7.69745 18.2965 3.1501
94 2 5.98257 10.8555 5.35604
95 2 8.08955 13.4237 1.0865
96 2 5.60412 15.6589 7.38114
97 2 6.40691 17.9624 3.48965
98 2 7.29329 11.177 5.00515
99 2 0.431615 13.076 0.747458
100 2 4.34148 16.0455 7.7798
101 2 7.10463 16.5579 1.88634
102 2 6.6091 12.5322 6.60182
103 2 8.64272 11.7097 2.36087
104 2 5.00942 17.3743 6.18699
105 5 1.11087 10.441 5.21853
106 5 3.66203 18.687 3.30038
107 5 1.60395 15.2936 7.57204
108 5 3.18591 13.817 0.955048
109 5 3.21676 10.0163 5.79808
110 5 1.52221 19.0742 2.74093
111 5 8.37462 14.8596 7.01669
112 5 5.2982 14.2388 1.50434
113 3 8.06925 17.4611 2.19461
114 3 5.63436 11.6419 6.33813
115 3 7.693 12.6013 2.07438
116 3 5.98539 16.4685 6.45031
117 3 6.09034 16.8845 2.76498
118 3 7.61922 12.2045 5.78417
119 3 0.721246 12.0238 1.53234
120 3 4.01408 17.0626 6.98185
121 6 2.27275 10.0206 4.97769
122 6 2.53382 19.0941 3.52321
123 6 0.41366 14.86 7.8441
124 6 4.32453 14.2437 0.714973
125 4 0.13899 17.4038 1.72063
126 4 4.6601 11.5999 6.69602
127 4 6.71778 12.5612 2.62039
128 4 6.90443 16.3542 6.06304
129 4 5.19887 16.2862 2.71295
130 4 8.65946 12.8069 5.72214
131 4 1.70672 11.4556 1.45533
132 4 3.03924 17.6131 7.0881
133 1 4.50103 10.232 12.2706
134 1 0.884885 18.8425 13.3327
135 1 2.94829 15.0713 9.06033
136 1 2.43499 14.0017 16.5422
137 2 3.49825 18.2969 11.7055
138 2 1.87732 10.789 13.9137
139 2 3.94171 13.4151 9.64403
140 2 1.48566 15.6537 15.9273
141 2 2.23188 17.9596 12.0519
142 2 3.14128 11.1394 13.5602
143 2 5.1828 13.0771 9.29162
144 2 9.11952 16.0015 16.3259
145 2 2.96732 16.5471 10.4322
146 2 2.44025 12.5231 15.1387
147 2 4.53801 11.7328 10.8991
148 2 0.848942 17.3949 14.7298
149 5 5.88941 10.4172 13.7606
150 5 8.47079 18.6667 11.8337
151 5 6.35592 15.3014 16.1177
152 5 7.96128 13.803 9.48146
153 5 8.01158 10.0174 14.2988
154 5 6.3084 19.0624 11.2942
155 5 4.2688 14.8813 15.5771
156 5 1.17798 14.2091 10.0431
157 3 3.9604 17.4188 10.7368
158 3 1.499 11.6313 14.8863
159 3 3.58021 12.5902 10.6068
160 3 1.82271 16.4691 15.0174
161 3 1.93037 16.891 11.2641
162 3 3.44347 12.1982 14.3421
163 3 5.52141 12.0379 10.039
164 3 8.8147 17.04 15.5699
165 6 7.03927 9.96879 13.5027
166 6 7.28349 19.069 12.1015
167 6 5.23142 14.8472 16.3534
168 6 9.14483 14.2746 9.23241
169 4 4.88789 17.4105 10.211
170 4 9.46946 11.6469 15.4487
171 4 2.60411 12.7068 11.2101
172 4 2.76872 16.4737 14.5642
173 4 0.997685 16.3679 11.3778
174 4 4.44431 12.718 14.2091
175 4 6.40972 11.5443 10.0021
176 4 7.81386 17.602 15.5613
177 7 3.03645 9.58088 9.88651
178 8 3.31484 8.77295 9.11959
179 8 2.65368 10.4136 10.6161
180 7 9.03428 11.6468 10.6144
181 8 8.32414 11.3591 11.4687
182 8 0.794137 11.9743 9.71633
183 7 7.22907 6.73377 9.98104
184 8 7.33065 6.25852 8.97688
185 8 7.12849 7.25738 10.9936
186 7 1.82767 10.5543 7.9422
187 8 1.07019 9.81716 7.46469
188 8 2.56024 11.2737 8.42089
189 7 6.29715 9.01571 7.21395
190 8 6.941 9.24053 6.32728
191 8 5.6654 8.73265 8.1068
192 7 9.10278 7.74774 7.02083
193 8 0.958717 7.44711 6.21704
194 8 8.29898 7.99315 7.82209
195 7 0.951267 8.31931 9.52297
196 8 1.11027 7.21442 9.08878
197 8 0.731544 9.34964 9.92399
198 7 7.76074 10.3491 8.51399
199 8 8.12729 11.0979 7.76264
200 8 7.44401 9.53591 9.27593
201 7 6.1278 14.6062 12.4321
202 8 6.0281 15.3386 13.2951
203 8 6.21009 13.9492 11.4716
204 7 7.01794 13.4885 14.6685
205 8 7.75795 13.8962 13.8679
206 8 6.35594 13.0078 15.4933
207 7 6.15412 4.48422 13.1549
208 8 5.59246 4.82229 12.2473
209 8 6.75185 4.0887 14.0875
210 7 8.89471 4.21182 12.7391
211 8 9.10599 4.84104 13.649
212 8 8.68864 3.4711 11.8704
213 7 3.72746 4.73609 5.40663
214 8 3.06984 3.91455 5.91185
215 8 4.30604 5.54721 4.93961
216 7 4.25549 2.35978 2.85393
217 8 4.26453 1.90211 1.80825
218 8 4.24464 2.75611 3.89188
219 7 2.31544 13.5756 4.64062
220 8 2.02541 13.5985 5.75371
221 8 2.63697 13.5661 3.55785
222 7 3.80477 15.6087 4.8946
223 8 4.83482 15.0742 4.95099
224 8 2.79939 16.1526 4.81947
ITEM: TIMESTEP
12
ITEM: NUMBER OF ATOMS
224
ITEM: BOX BOUNDS xy xz yz pp pp pp
-4.1872861727396682e-03 9.5489633356000443e+00 0.0000000000000000e+00
-9.1071048756869999e-03 1.9396106204875686e+01 6.3097584942730700e-01
-8.0153120030939107e-03 1.7070830412003097e+01 0.0000000000000000e+00
ITEM: ATOMS id type x y z
1 1 8.66816 0.532903 3.73181
2 1 5.02056 9.15777 4.78419
3 1 7.09388 5.39366 0.501119
4 1 6.58963 4.29707 8.01541
5 2 7.68464 8.59485 3.14424
6 2 6.01642 1.10902 5.3994
7 2 8.09275 3.72176 1.10648
8 2 5.60626 5.95501 7.40528
9 2 6.4406 8.2309 3.52214
10 2 7.32901 1.47626 4.98468
11 2 0.425498 3.39299 0.751681
12 2 4.3538 6.28676 7.81017
13 2 7.09096 6.86209 1.93794
14 2 6.60631 2.81583 6.61968
15 2 8.69569 1.99351 2.34376
16 2 4.98495 7.69011 6.14386
17 5 1.08404 0.748744 5.22591
18 5 3.69481 8.95179 3.29886
19 5 1.59029 5.60034 7.5611
20 5 3.15213 4.10281 0.983256
21 5 3.21856 0.308904 5.75638
22 5 1.53598 9.38704 2.75579
23 5 8.42984 5.1348 7.06098
24 5 5.28576 4.53706 1.49973
25 3 8.06671 7.73998 2.19715
26 3 5.60538 1.92159 6.35526
27 3 7.68857 2.89708 2.08253
28 3 5.99106 6.80084 6.43375
29 3 6.11126 7.15931 2.77045
30 3 7.56998 2.48815 5.78477
31 3 0.758055 2.34628 1.51111
32 3 3.99022 7.38415 7.0021
33 6 2.28329 0.316672 5.00882
34 6 2.50133 9.37552 3.5483
35 6 0.413501 5.16172 7.80091
36 6 4.33632 4.52567 0.718689
37 4 0.195327 7.76895 1.74716
38 4 4.61107 1.83535 6.80986
39 4 6.71185 2.99895 2.46691
40 4 6.97998 6.79927 6.06048
41 4 5.13158 6.71605 2.79363
42 4 8.57472 2.87428 5.72216
43 4 1.68402 1.84461 1.47699
44 4 3.01097 7.92845 7.09465
45 1 4.52178 0.53767 12.2802
46 1 0.890778 9.14971 13.315
47 1 2.96564 5.37041 9.04461
48 1 2.44366 4.2946 16.5472
49 2 3.5352 8.57679 11.723
50 2 1.82555 1.09242 13.8778
51 2 3.93546 3.75879 9.67525
52 2 1.47974 5.96497 15.9553
53 2 2.23749 8.22522 12.0027
54 2 3.14147 1.408 13.5783
55 2 5.24515 3.373 9.28996
56 2 9.11767 6.32122 16.3358
57 2 2.93438 6.84689 10.4405
58 2 2.45211 2.85746 15.184
59 2 4.50939 1.95898 10.879
60 2 0.867631 7.65765 14.6911
61 5 5.84804 0.717228 13.7587
62 5 8.46439 8.99601 11.8766
63 5 6.36349 5.59569 16.1327
64 5 7.95658 4.08411 9.49569
65 5 7.98345 0.310726 14.2988
66 5 6.30645 9.39089 11.2876
67 5 4.24487 5.14251 15.5928
68 5 1.15337 4.53974 10.0393
69 3 3.98874 7.6776 10.829
70 3 1.47618 1.93086 14.8533
71 3 3.54814 2.89694 10.5903
72 3 1.85605 6.8089 15.0097
73 3 1.93453 7.17321 11.2779
74 3 3.44219 2.49766 14.3117
75 3 5.54624 2.35652 10.013
76 3 8.77796 7.35563 15.5378
77 6 7.00235 0.308565 13.5004
78 6 7.26659 9.36453 12.1168
79 6 5.20021 5.18946 16.3294
80 6 9.12777 4.53437 9.25558
81 4 4.83148 7.75122 10.2243
82 4 9.4472 1.90208 15.3636
83 4 2.57481 2.98205 11.1658
84 4 2.77294 6.75664 14.4079
85 4 0.977075 6.66978 11.2744
86 4 4.37468 2.9144 14.2982
87 4 6.47807 1.75941 10.0455
88 4 7.87164 7.79072 15.6202
89 1 8.65489 10.235 3.74352
90 1 5.03389 18.8512 4.77683
91 1 7.10205 15.0835 0.520622
92 1 6.59199 13.9969 8.01539
93 2 7.69929 18.2986 3.14981
94 2 5.97881 10.8637 5.35145
95 2 8.09078 13.4231 1.08333
96 2 5.60374 15.6604 7.3783
97 2 6.40688 17.9663 3.48807
98 2 7.29493 11.1797 5.00238
99 2 0.431112 13.0759 0.745544
100 2 4.34185 16.0499 7.78069
101 2 7.10574 16.559 1.88347
102 2 6.61033 12.5332 6.6001
103 2 8.64122 11.7102 2.36133
104 2 5.00849 17.3751 6.1874
105 5 1.11205 10.4416 5.21708
106 5 3.66085 18.6915 3.29954
107 5 1.60335 15.295 7.57232
108 5 3.18751 13.8191 0.953883
109 5 3.21455 10.0169 5.79977
110 5 1.52132 19.0752 2.73928
111 5 8.37499 14.8603 7.01632
112 5 5.29703 14.2405 1.50327
113 3 8.06986 17.463 2.19433
114 3 5.63581 11.6427 6.3376
115 3 7.69333 12.6017 2.07393
116 3 5.98476 16.4683 6.4503
117 3 6.09136 16.8851 2.76565
118 3 7.62124 12.206 5.78325
119 3 0.717782 12.0228 1.53317
120 3 4.01396 17.0649 6.97914
121 6 2.27297 10.0229 4.97777
122 6 2.53592 19.0959 3.51983
123 6 0.411906 14.8622 7.84551
124 6 4.32339 14.2446 0.715072
125 4 0.139834 17.3959 1.72158
126 4 4.65906 11.6032 6.68639
127 4 6.71861 12.5537 2.6245
128 4 6.90278 16.3494 6.06777
129 4 5.20356 16.2802 2.70643
130 4 8.66361 12.8126 5.72057
131 4 1.70373 11.451 1.45347
132 4 3.03895 17.6182 7.09039
133 1 4.50008 10.2313 12.2706
134 1 0.884077 18.8434 13.3342
135 1 2.94697 15.0703 9.06091
136 1 2.43432 14.0027 16.543
137 2 3.49485 18.2989 11.7079
138 2 1.87818 10.7881 13.9141
139 2 3.94209 13.4138 9.64382
140 2 1.48693 15.6546 15.9263
141 2 2.2285 17.9631 12.0537
142 2 3.14171 11.1382 13.5607
143 2 5.18083 13.077 9.29119
144 2 9.12088 16.0019 16.3287
145 2 2.96853 16.5472 10.4311
146 2 2.43922 12.523 15.1384
147 2 4.54043 11.7359 10.9009
148 2 0.84595 17.3971 14.7319
149 5 5.8915 10.4154 13.7611
150 5 8.47296 18.6695 11.8338
151 5 6.35418 15.3039 16.1198
152 5 7.96378 13.804 9.48039
153 5 8.01172 10.0181 14.2984
154 5 6.30905 19.0623 11.2952
155 5 4.27197 14.884 15.5799
156 5 1.17859 14.2087 10.0433
157 3 3.96332 17.4171 10.7384
158 3 1.50055 11.631 14.8881
159 3 3.58291 12.5905 10.6072
160 3 1.81963 16.4687 15.0203
161 3 1.92928 16.8924 11.2629
162 3 3.44215 12.1984 14.3448
163 3 5.52017 12.038 10.0382
164 3 8.81732 17.0404 15.5725
165 6 7.03928 9.9664 13.5032
166 6 7.2844 19.0683 12.1026
167 6 5.2332 14.8488 16.3543
168 6 9.14767 14.2786 9.23207
169 4 4.88869 17.4036 10.2082
170 4 9.47452 11.6525 15.457
171 4 2.60972 12.7121 11.2204
172 4 2.76548 16.4786 14.5689
173 4 0.997594 16.3675 11.3824
174 4 4.44384 12.7182 14.2045
175 4 6.40548 11.5457 10.0019
176 4 7.81483 17.6045 15.5599
177 7 3.03771 9.58346 9.8853
178 8 3.3114 8.77956 9.11076
179 8 2.64929 10.4143 10.6162
180 7 9.03579 11.6462 10.6153
181 8 8.32397 11.3623 11.4692
182 8 0.793337 11.9736 9.7145
183 7 7.22917 6.7322 9.98028
184 8 7.33079 6.25898 8.9786
185 8 7.12833 7.25698 10.9907
186 7 1.82837 10.5549 7.94278
187 8 1.0695 9.8171 7.46709
188 8 2.56093 11.2737 8.42018
189 7 6.29726 9.0189 7.21418
190 8 6.94187 9.23426 6.32948
191 8 5.66675 8.73635 8.10663
192 7 9.10529 7.74779 7.02031
193 8 0.959026 7.44366 6.21556
194 8 8.29982 7.99163 7.82176
195 7 0.953017 8.32067 9.52383
196 8 1.10763 7.2131 9.08745
197 8 0.731916 9.34971 9.92492
198 7 7.7598 10.3504 8.51398
199 8 8.12927 11.0966 7.76503
200 8 7.44507 9.53453 9.274
201 7 6.12869 14.6052 12.4347
202 8 6.02999 15.3427 13.2933
203 8 6.20846 13.9509 11.4714
204 7 7.01702 13.4912 14.6669
205 8 7.76083 13.8971 13.8668
206 8 6.35855 13.0051 15.4931
207 7 6.15338 4.4851 13.1561
208 8 5.59244 4.82137 12.249
209 8 6.75258 4.08685 14.0885
210 7 8.89516 4.21516 12.7385
211 8 9.10739 4.84004 13.6497
212 8 8.68861 3.4694 11.8733
213 7 3.72675 4.73443 5.40557
214 8 3.06697 3.91453 5.912
215 8 4.30195 5.54477 4.93915
216 7 4.25677 2.3598 2.85287
217 8 4.26645 1.90057 1.80891
218 8 4.24517 2.75265 3.88979
219 7 2.31477 13.574 4.63955
220 8 2.02673 13.5979 5.75302
221 8 2.63755 13.5647 3.55828
222 7 3.80339 15.6092 4.89372
223 8 4.83326 15.0721 4.94753
224 8 2.79943 16.1564 4.81896
ITEM: TIMESTEP
13
ITEM: NUMBER OF ATOMS
224
ITEM: BOX BOUNDS xy xz yz pp pp pp
-4.8860392216756310e-03 9.5497609202253262e+00 0.0000000000000000e+00
-1.0626852281605537e-02 1.9397625952281608e+01 6.3107468100365283e-01
-9.3528665597411020e-03 1.7072167966559743e+01 0.0000000000000000e+00
ITEM: ATOMS id type x y z
1 1 8.66972 0.531071 3.73052
2 1 5.01961 9.15861 4.78352
3 1 7.0933 5.39337 0.498683
4 1 6.59039 4.29635 8.01594
5 2 7.68545 8.59542 3.14341
6 2 6.01765 1.10848 5.40041
7 2 8.09415 3.71982 1.10511
8 2 5.60568 5.95469 7.40389
9 2 6.44323 8.2306 3.52328
10 2 7.33309 1.47672 4.98095
11 2 0.424613 3.39307 0.750152
12 2 4.3549 6.285 7.81329
13 2 7.09102 6.86197 1.93916
14 2 6.60742 2.81376 6.61995
15 2 8.69852 1.99139 2.34277
16 2 4.98084 7.68963 6.13936
17 5 1.08311 0.748406 5.22558
18 5 3.696 8.95196 3.29801
19 5 1.5888 5.60008 7.56005
20 5 3.15103 4.10249 0.984424
21 5 3.21682 0.307566 5.75471
22 5 1.53617 9.38783 2.75541
23 5 8.4345 5.13198 7.06371
24 5 5.28375 4.53724 1.49831
25 3 8.06734 7.73901 2.19716
26 3 5.60437 1.91932 6.35631
27 3 7.68897 2.89597 2.08243
28 3 5.9906 6.80103 6.43168
29 3 6.1137 7.15682 2.77192
30 3 7.56784 2.48622 5.78456
31 3 0.757523 2.34607 1.51013
32 3 3.98787 7.38604 7.0008
33 6 2.28376 0.317089 5.01102
34 6 2.50129 9.37415 3.54705
35 6 0.412422 5.16192 7.79918
36 6 4.33573 4.52379 0.718797
37 4 0.19771 7.76456 1.75032
38 4 4.60873 1.83162 6.80943
39 4 6.71022 3.00003 2.46108
40 4 6.98261 6.8047 6.06554
41 4 5.13106 6.71851 2.79291
42 4 8.577 2.86351 5.72182
43 4 1.68327 1.84446 1.47632
44 4 3.00964 7.9322 7.09627
45 1 4.52261 0.536223 12.281
46 1 0.89049 9.14988 13.3149
47 1 2.96586 5.36818 9.04384
48 1 2.44374 4.2937 16.5485
49 2 3.53564 8.57442 11.7282
50 2 1.82221 1.09061 13.8753
51 2 3.93568 3.7598 9.67747
52 2 1.48052 5.96562 15.9567
53 2 2.23488 8.22446 12.0006
54 2 3.14177 1.40296 13.5803
55 2 5.24815 3.37177 9.28958
56 2 9.11872 6.32209 16.3393
57 2 2.93375 6.84487 10.4414
58 2 2.45205 2.85861 15.1873
59 2 4.50852 1.95423 10.8786
60 2 0.866149 7.65563 14.6899
61 5 5.84655 0.71434 13.7592
62 5 8.46585 8.99973 11.8809
63 5 6.36239 5.59595 16.1358
64 5 7.95866 4.08166 9.49603
65 5 7.98118 0.309558 14.2985
66 5 6.30644 9.39246 11.2885
67 5 4.24574 5.14051 15.5964
68 5 1.15189 4.54015 10.0391
69 3 3.99556 7.6677 10.8429
70 3 1.47586 1.92949 14.8523
71 3 3.5478 2.89559 10.5894
72 3 1.85614 6.81044 15.012
73 3 1.93429 7.17127 11.2791
74 3 3.44024 2.49642 14.3121
75 3 5.54741 2.35653 10.0107
76 3 8.77815 7.35553 15.5377
77 6 6.99959 0.308304 13.5006
78 6 7.26576 9.36201 12.1197
79 6 5.20003 5.19225 16.3285
80 6 9.12942 4.53279 9.25688
81 4 4.83146 7.74562 10.2236
82 4 9.44915 1.90289 15.3652
83 4 2.57668 2.98289 11.1713
84 4 2.7684 6.75793 14.4007
85 4 0.975027 6.66871 11.2722
86 4 4.37494 2.90695 14.3013
87 4 6.47762 1.75459 10.0476
88 4 7.8711 7.78728 15.6229
89 1 8.65534 10.2346 3.74321
90 1 5.03405 18.8528 4.77556
91 1 7.10215 15.0836 0.519797
92 1 6.59294 13.9975 8.01592
93 2 7.70116 18.3008 3.14949
94 2 5.97489 10.8722 5.34657
95 2 8.09201 13.4225 1.08008
96 2 5.60336 15.6619 7.37553
97 2 6.40683 17.9703 3.48647
98 2 7.29662 11.1825 4.99951
99 2 0.430603 13.0758 0.743535
100 2 4.3422 16.0544 7.78159
101 2 7.10687 16.5602 1.88054
102 2 6.6115 12.5343 6.59836
103 2 8.63976 11.7107 2.36176
104 2 5.00764 17.3761 6.18773
105 5 1.11324 10.4421 5.21552
106 5 3.65965 18.6961 3.29862
107 5 1.60261 15.2964 7.57262
108 5 3.18912 13.8212 0.952635
109 5 3.21231 10.0175 5.80139
110 5 1.52046 19.0763 2.73761
111 5 8.37544 14.861 7.01599
112 5 5.29583 14.2422 1.5021
113 3 8.07051 17.465 2.19394
114 3 5.6373 11.6436 6.33703
115 3 7.69369 12.6022 2.07344
116 3 5.98414 16.4683 6.45037
117 3 6.09247 16.8857 2.76618
118 3 7.62337 12.2077 5.78217
119 3 0.714333 12.0218 1.53389
120 3 4.01379 17.0673 6.9765
121 6 2.27314 10.0251 4.97782
122 6 2.5379 19.0978 3.51642
123 6 0.410205 14.8645 7.8468
124 6 4.32227 14.2456 0.715094
125 4 0.140523 17.3883 1.72262
126 4 4.65759 11.607 6.67711
127 4 6.71969 12.5466 2.62816
128 4 6.90196 16.3449 6.07183
129 4 5.20795 16.2745 2.70017
130 4 8.66652 12.8175 5.71898
131 4 1.70015 11.4467 1.45158
132 4 3.03908 17.6233 7.09259
133 1 4.49913 10.2307 12.2706
134 1 0.883227 18.8443 13.3357
135 1 2.94564 15.0694 9.06149
136 1 2.43363 14.0038 16.5439
137 2 3.4915 18.301 11.7102
138 2 1.87898 10.7872 13.9147
139 2 3.94243 13.4126 9.64362
140 2 1.48813 15.6556 15.9256
141 2 2.22507 17.9667 12.0555
142 2 3.14217 11.137 13.5612
143 2 5.17893 13.077 9.29071
144 2 9.12229 16.0024 16.3316
145 2 2.96972 16.5473 10.4301
146 2 2.43816 12.5229 15.1383
147 2 4.54297 11.739 10.9029
148 2 0.842975 17.3994 14.734
149 5 5.89367 10.4137 13.7618
150 5 8.47509 18.6724 11.834
151 5 6.35244 15.3065 16.1221
152 5 7.96641 13.8052 9.47932
153 5 8.01188 10.0188 14.2981
154 5 6.30977 19.0623 11.2962
155 5 4.27516 14.8867 15.5827
156 5 1.17915 14.2084 10.0435
157 3 3.96614 17.4155 10.7402
158 3 1.50205 11.6308 14.8899
159 3 3.58556 12.591 10.6077
160 3 1.8165 16.4685 15.0232
161 3 1.92821 16.894 11.2617
162 3 3.44088 12.1985 14.3476
163 3 5.51885 12.0382 10.0373
164 3 8.8199 17.041 15.5751
165 6 7.03929 9.96404 13.5038
166 6 7.28537 19.0676 12.1037
167 6 5.2349 14.8505 16.3553
168 6 9.15041 14.2826 9.23181
169 4 4.88978 17.3969 10.2054
170 4 9.47973 11.658 15.4651
171 4 2.61605 12.7173 11.2304
172 4 2.76263 16.4837 14.5734
173 4 0.997397 16.367 11.387
174 4 4.44266 12.7184 14.2001
175 4 6.40187 11.5469 10.0016
176 4 7.81641 17.6067 15.5588
177 7 3.03885 9.58623 9.884
178 8 3.30786 8.7864 9.1016
179 8 2.64477 10.4149 10.6162
180 7 9.03739 11.6456 10.6161
181 8 8.32387 11.3656 11.4699
182 8 0.792477 11.9727 9.71273
183 7 7.22931 6.73066 9.97962
184 8 7.33094 6.25947 8.98031
185 8 7.12818 7.25637 10.9878
186 7 1.82899 10.5554 7.94331
187 8 1.0688 9.81702 7.46953
188 8 2.56164 11.2737 8.41943
189 7 6.29747 9.02217 7.21453
190 8 6.94305 9.22769 6.33176
191 8 5.66812 8.74014 8.10666
192 7 9.10785 7.74783 7.01977
193 8 0.959273 7.44023 6.21399
194 8 8.30072 7.99007 7.82137
195 7 0.954695 8.32184 9.52455
196 8 1.10481 7.21194 9.08608
197 8 0.732269 9.34983 9.92584
198 7 7.75889 10.3516 8.51408
199 8 8.13136 11.0954 7.76749
200 8 7.44617 9.53319 9.27204
201 7 6.12959 14.6042 12.4372
202 8 6.03186 15.3469 13.2916
203 8 6.20689 13.9526 11.4713
204 7 7.01617 13.494 14.6655
205 8 7.76376 13.898 13.8658
206 8 6.36125 13.0023 15.493
207 7 6.15275 4.48585 13.1575
208 8 5.59237 4.82043 12.2507
209 8 6.75331 4.08493 14.0896
210 7 8.89565 4.21835 12.7379
211 8 9.10887 4.83905 13.6506
212 8 8.68861 3.46761 11.8762
213 7 3.72587 4.73254 5.4046
214 8 3.0641 3.91445 5.91212
215 8 4.29793 5.54237 4.93852
216 7 4.25805 2.35968 2.85163
217 8 4.26838 1.8989 1.80944
218 8 4.2457 2.74916 3.88779
219 7 2.31405 13.5724 4.63852
220 8 2.02803 13.5972 5.75231
221 8 2.63812 13.5634 3.55858
222 7 3.80204 15.6098 4.89278
223 8 4.83164 15.07 4.94393
224 8 2.7994 16.1603 4.81839
ITEM: TIMESTEP
14
ITEM: NUMBER OF ATOMS
224
ITEM: BOX BOUNDS xy xz yz pp pp pp
-5.6331140597656315e-03 9.5506136612698231e+00 0.0000000000000000e+00
-1.2251696779879140e-02 1.9399250796779882e+01 6.3118034721006033e-01
-1.0782918786869544e-02 1.7073598018786868e+01 0.0000000000000000e+00
ITEM: ATOMS id type x y z
1 1 8.67133 0.529141 3.72918
2 1 5.01866 9.15945 4.7828
3 1 7.09276 5.39303 0.496163
4 1 6.59117 4.29556 8.01646
5 2 7.68632 8.59603 3.14252
6 2 6.01896 1.10777 5.40133
7 2 8.09554 3.71786 1.10366
8 2 5.60506 5.95426 7.40242
9 2 6.44583 8.23028 3.52437
10 2 7.33711 1.47704 4.97722
11 2 0.423744 3.39307 0.748524
12 2 4.35593 6.28325 7.81636
13 2 7.09113 6.86172 1.94024
14 2 6.60849 2.81165 6.62027
15 2 8.70135 1.98915 2.34176
16 2 4.97663 7.68904 6.13464
17 5 1.08224 0.74794 5.22522
18 5 3.69709 8.95214 3.2971
19 5 1.58725 5.59963 7.55895
20 5 3.14999 4.10216 0.985501
21 5 3.21509 0.306124 5.75304
22 5 1.53635 9.38861 2.755
23 5 8.43916 5.12908 7.06634
24 5 5.28174 4.53736 1.49681
25 3 8.06806 7.73804 2.19708
26 3 5.60341 1.91699 6.35735
27 3 7.68949 2.89478 2.08222
28 3 5.9901 6.80111 6.42959
29 3 6.11616 7.15435 2.77336
30 3 7.5658 2.4842 5.78427
31 3 0.756921 2.34578 1.50908
32 3 3.98545 7.38779 6.99947
33 6 2.28406 0.317409 5.01308
34 6 2.50131 9.37274 3.54573
35 6 0.411498 5.162 7.79752
36 6 4.33504 4.52186 0.718782
37 4 0.199345 7.75993 1.75355
38 4 4.60659 1.82806 6.80908
39 4 6.70842 3.00065 2.45557
40 4 6.98548 6.81014 6.07027
41 4 5.13048 6.72081 2.79207
42 4 8.57931 2.85302 5.72172
43 4 1.68281 1.84408 1.47546
44 4 3.00882 7.93563 7.09762
45 1 4.52345 0.534675 12.2818
46 1 0.890161 9.15004 13.3149
47 1 2.96607 5.36591 9.04309
48 1 2.4438 4.29274 16.5498
49 2 3.53618 8.57188 11.7337
50 2 1.81886 1.08868 13.8728
51 2 3.93596 3.76078 9.67966
52 2 1.48126 5.96618 15.9582
53 2 2.23223 8.22369 11.9987
54 2 3.14206 1.39783 13.5823
55 2 5.25111 3.37054 9.28917
56 2 9.11981 6.32292 16.3428
57 2 2.93327 6.84267 10.4424
58 2 2.45196 2.85968 15.1907
59 2 4.50767 1.94941 10.8783
60 2 0.864616 7.65365 14.6886
61 5 5.84512 0.711342 13.7597
62 5 8.46726 9.00344 11.8853
63 5 6.36126 5.59618 16.1391
64 5 7.96087 4.0791 9.49638
65 5 7.9789 0.308289 14.2981
66 5 6.30643 9.39409 11.2896
67 5 4.2466 5.13846 15.6002
68 5 1.15038 4.54052 10.0389
69 3 4.00238 7.6575 10.8572
70 3 1.47554 1.92809 14.8515
71 3 3.54743 2.89411 10.5886
72 3 1.85621 6.81198 15.0142
73 3 1.93411 7.16923 11.2804
74 3 3.43821 2.49509 14.3126
75 3 5.54854 2.35633 10.0087
76 3 8.77849 7.35534 15.5377
77 6 6.9969 0.307945 13.501
78 6 7.26495 9.35944 12.1227
79 6 5.1999 5.19495 16.3278
80 6 9.13106 4.53109 9.25817
81 4 4.83214 7.74001 10.223
82 4 9.45105 1.90364 15.3668
83 4 2.57902 2.98357 11.1764
84 4 2.76379 6.75907 14.3937
85 4 0.972854 6.66761 11.2703
86 4 4.37585 2.89974 14.3045
87 4 6.47712 1.75005 10.0493
88 4 7.86984 7.78438 15.6255
89 1 8.65584 10.2343 3.74284
90 1 5.03421 18.8545 4.77424
91 1 7.10229 15.0838 0.518885
92 1 6.59391 13.9982 8.01644
93 2 7.70307 18.3032 3.14913
94 2 5.97086 10.8809 5.34141
95 2 8.09323 13.422 1.07676
96 2 5.60297 15.6634 7.37283
97 2 6.40678 17.9744 3.48483
98 2 7.29833 11.1854 4.99655
99 2 0.430088 13.0758 0.741433
100 2 4.34254 16.0589 7.78248
101 2 7.10801 16.5615 1.87756
102 2 6.61262 12.5356 6.5966
103 2 8.63835 11.7111 2.36217
104 2 5.00686 17.3773 6.18798
105 5 1.11446 10.4427 5.21387
106 5 3.65844 18.7008 3.29761
107 5 1.60173 15.2978 7.57293
108 5 3.19074 13.8234 0.951306
109 5 3.21004 10.0181 5.80293
110 5 1.51964 19.0775 2.73593
111 5 8.37598 14.8617 7.0157
112 5 5.29461 14.2439 1.50082
113 3 8.0712 17.467 2.19342
114 3 5.63884 11.6445 6.33642
115 3 7.69408 12.6027 2.0729
116 3 5.98353 16.4685 6.45052
117 3 6.09367 16.8863 2.76655
118 3 7.62559 12.2096 5.78093
119 3 0.710903 12.0209 1.53451
120 3 4.01357 17.0698 6.97393
121 6 2.27326 10.0274 4.97783
122 6 2.53975 19.0999 3.513
123 6 0.408561 14.8669 7.84796
124 6 4.32119 14.2467 0.715035
125 4 0.14105 17.3808 1.72378
126 4 4.65569 11.6111 6.66819
127 4 6.72102 12.5396 2.63135
128 4 6.90197 16.3408 6.0752
129 4 5.21203 16.2692 2.69421
130 4 8.66817 12.8217 5.71738
131 4 1.69595 11.4427 1.44967
132 4 3.03967 17.6284 7.0947
133 1 4.49818 10.23 12.2707
134 1 0.882336 18.8454 13.3373
135 1 2.94429 15.0685 9.06208
136 1 2.43292 14.0049 16.5449
137 2 3.48821 18.3032 11.7125
138 2 1.87972 10.7862 13.9153
139 2 3.94272 13.4115 9.64341
140 2 1.48925 15.6565 15.925
141 2 2.22157 17.9704 12.0573
142 2 3.14264 11.1358 13.5618
143 2 5.1771 13.0771 9.29016
144 2 9.12375 16.0029 16.3346
145 2 2.97088 16.5474 10.4291
146 2 2.43709 12.523 15.1383
147 2 4.54564 11.7421 10.9049
148 2 0.84002 17.4018 14.7362
149 5 5.8959 10.4119 13.7624
150 5 8.47718 18.6755 11.8341
151 5 6.35069 15.3093 16.1245
152 5 7.96918 13.8064 9.47824
153 5 8.01204 10.0195 14.2977
154 5 6.31055 19.0624 11.2973
155 5 4.27834 14.8895 15.5856
156 5 1.17966 14.2083 10.0438
157 3 3.96886 17.4139 10.742
158 3 1.5035 11.6305 14.8918
159 3 3.58817 12.5917 10.6083
160 3 1.8133 16.4685 15.0261
161 3 1.92715 16.8956 11.2605
162 3 3.43966 12.1987 14.3503
163 3 5.51745 12.0383 10.0365
164 3 8.82244 17.0417 15.5779
165 6 7.03929 9.96172 13.5046
166 6 7.28639 19.067 12.1048
167 6 5.23652 14.8523 16.3565
168 6 9.15305 14.2867 9.23164
169 4 4.89114 17.3904 10.2027
170 4 9.48509 11.6634 15.473
171 4 2.62314 12.7225 11.24
172 4 2.76016 16.4888 14.5777
173 4 0.997105 16.3664 11.3915
174 4 4.44075 12.7185 14.196
175 4 6.39893 11.5478 10.0013
176 4 7.81863 17.6085 15.558
177 7 3.03989 9.58918 9.88263
178 8 3.30425 8.79347 9.09217
179 8 2.64011 10.4155 10.6162
180 7 9.03907 11.6451 10.6169
181 8 8.32386 11.369 11.4705
182 8 0.791557 11.9718 9.71101
183 7 7.22948 6.72916 9.97906
184 8 7.33111 6.25998 8.982
185 8 7.12804 7.25557 10.9849
186 7 1.82953 10.5559 7.9438
187 8 1.06808 9.81693 7.47202
188 8 2.56239 11.2737 8.41864
189 7 6.29775 9.02553 7.21502
190 8 6.94451 9.22086 6.33409
191 8 5.66948 8.74402 8.10689
192 7 9.11045 7.74785 7.0192
193 8 0.959459 7.43682 6.21234
194 8 8.30166 7.98848 7.82093
195 7 0.956305 8.32281 9.52514
196 8 1.10183 7.21097 9.08469
197 8 0.732602 9.35002 9.92676
198 7 7.75803 10.3527 8.51429
199 8 8.13357 11.0942 7.77001
200 8 7.44732 9.53189 9.27003
201 7 6.13051 14.6033 12.4397
202 8 6.03372 15.3512 13.29
203 8 6.20536 13.9544 11.4713
204 7 7.01539 13.4967 14.6641
205 8 7.76674 13.8989 13.8649
206 8 6.36404 12.9994 15.4928
207 7 6.15223 4.48647 13.1591
208 8 5.59225 4.81948 12.2523
209 8 6.75405 4.08295 14.0907
210 7 8.89619 4.2214 12.7373
211 8 9.11043 4.83807 13.6515
212 8 8.68864 3.46574 11.8791
213 7 3.72482 4.7304 5.40371
214 8 3.06122 3.91431 5.91221
215 8 4.294 5.54002 4.93771
216 7 4.25932 2.35943 2.85021
217 8 4.27031 1.8971 1.80985
218 8 4.24622 2.74567 3.88587
219 7 2.31327 13.5709 4.63751
220 8 2.0293 13.5967 5.75158
221 8 2.63869 13.5621 3.55874
222 7 3.80073 15.6104 4.89177
223 8 4.82997 15.0679 4.94019
224 8 2.79931 16.1642 4.81775
ITEM: TIMESTEP
15
ITEM: NUMBER OF ATOMS
224
ITEM: BOX BOUNDS xy xz yz pp pp pp
-6.4273484210701781e-03 9.5515202320767933e+00 0.0000000000000000e+00
-1.3979110509410475e-02 1.9400978210509415e+01 6.3129268365572633e-01
-1.2303243872571201e-02 1.7075118343872568e+01 0.0000000000000000e+00
ITEM: ATOMS id type x y z
1 1 8.67299 0.527115 3.72779
2 1 5.01772 9.16028 4.78204
3 1 7.09224 5.39264 0.49356
4 1 6.59198 4.29471 8.01698
5 2 7.68726 8.59667 3.1416
6 2 6.02034 1.10691 5.40216
7 2 8.09692 3.7159 1.10212
8 2 5.6044 5.95371 7.40089
9 2 6.44838 8.22994 3.5254
10 2 7.34108 1.47722 4.97348
11 2 0.422892 3.39301 0.746798
12 2 4.35688 6.28154 7.81936
13 2 7.09129 6.86136 1.94118
14 2 6.60953 2.80953 6.62064
15 2 8.70416 1.98678 2.34073
16 2 4.97232 7.68835 6.12973
17 5 1.08145 0.747348 5.22484
18 5 3.69806 8.95235 3.29614
19 5 1.58562 5.59899 7.55779
20 5 3.14901 4.1018 0.986487
21 5 3.21337 0.30458 5.75137
22 5 1.53654 9.3894 2.75456
23 5 8.4438 5.12612 7.06888
24 5 5.27972 4.53745 1.49522
25 3 8.06886 7.73707 2.19692
26 3 5.60249 1.9146 6.35837
27 3 7.69012 2.89351 2.0819
28 3 5.98954 6.80109 6.42746
29 3 6.11864 7.1519 2.77477
30 3 7.56387 2.48211 5.78391
31 3 0.756252 2.34542 1.50797
32 3 3.98299 7.38937 6.99813
33 6 2.28418 0.317631 5.01498
34 6 2.50139 9.37131 3.54435
35 6 0.410735 5.16198 7.79592
36 6 4.33426 4.51988 0.718639
37 4 0.200221 7.75506 1.75686
38 4 4.60467 1.82468 6.80881
39 4 6.70645 3.00083 2.45039
40 4 6.98858 6.8156 6.07466
41 4 5.12985 6.72296 2.79111
42 4 8.58164 2.84282 5.72188
43 4 1.68266 1.84349 1.47441
44 4 3.0085 7.93873 7.09868
45 1 4.52428 0.533028 12.2827
46 1 0.889792 9.1502 13.315
47 1 2.96626 5.36358 9.04234
48 1 2.44383 4.29173 16.5512
49 2 3.5368 8.56919 11.7393
50 2 1.81552 1.08661 13.8704
51 2 3.9363 3.76173 9.68181
52 2 1.48195 5.96664 15.9599
53 2 2.22955 8.22293 11.9969
54 2 3.14233 1.39261 13.5844
55 2 5.25403 3.36934 9.28872
56 2 9.12094 6.32371 16.3465
57 2 2.93294 6.84032 10.4436
58 2 2.45183 2.86067 15.1942
59 2 4.50685 1.94454 10.878
60 2 0.863034 7.65173 14.6874
61 5 5.84375 0.708236 13.7602
62 5 8.46864 9.00713 11.8899
63 5 6.3601 5.59638 16.1423
64 5 7.96321 4.07644 9.49676
65 5 7.97661 0.306921 14.2978
66 5 6.30642 9.3958 11.2909
67 5 4.24744 5.13637 15.6039
68 5 1.14885 4.54085 10.0387
69 3 4.00919 7.64703 10.8717
70 3 1.47522 1.92667 14.8508
71 3 3.54701 2.89251 10.5878
72 3 1.85626 6.81353 15.0165
73 3 1.93399 7.16708 11.2819
74 3 3.43609 2.49366 14.3131
75 3 5.54965 2.35592 10.0068
76 3 8.77895 7.35507 15.5379
77 6 6.99426 0.307488 13.5014
78 6 7.26417 9.35682 12.1257
79 6 5.19984 5.19757 16.3273
80 6 9.13269 4.52928 9.25943
81 4 4.83347 7.73442 10.2224
82 4 9.4529 1.90431 15.3684
83 4 2.58182 2.98408 11.1813
84 4 2.7591 6.76007 14.387
85 4 0.970566 6.66649 11.2687
86 4 4.37743 2.89277 14.3078
87 4 6.47659 1.74581 10.0507
88 4 7.86786 7.78202 15.6281
89 1 8.65638 10.2339 3.74242
90 1 5.03438 18.8563 4.77288
91 1 7.10245 15.0841 0.517887
92 1 6.5949 13.9988 8.01695
93 2 7.70501 18.3056 3.14874
94 2 5.96672 10.8899 5.336
95 2 8.09444 13.4217 1.07337
96 2 5.60258 15.665 7.37022
97 2 6.40671 17.9786 3.48315
98 2 7.30008 11.1883 4.9935
99 2 0.429569 13.0758 0.739243
100 2 4.34286 16.0634 7.78336
101 2 7.10917 16.5628 1.87454
102 2 6.61368 12.5371 6.59483
103 2 8.63698 11.7115 2.36254
104 2 5.00615 17.3787 6.18814
105 5 1.11569 10.4434 5.21213
106 5 3.65724 18.7056 3.29651
107 5 1.60072 15.2993 7.57327
108 5 3.19237 13.8257 0.949901
109 5 3.20773 10.0187 5.80439
110 5 1.51887 19.0788 2.73423
111 5 8.37661 14.8625 7.01547
112 5 5.29337 14.2457 1.49944
113 3 8.07192 17.469 2.19278
114 3 5.6404 11.6454 6.33578
115 3 7.69448 12.6032 2.07232
116 3 5.98291 16.4689 6.45075
117 3 6.09497 16.887 2.76677
118 3 7.62791 12.2117 5.77953
119 3 0.707495 12.0199 1.53503
120 3 4.01329 17.0725 6.97143
121 6 2.27333 10.0297 4.97781
122 6 2.54146 19.1021 3.50956
123 6 0.406976 14.8694 7.849
124 6 4.32015 14.2479 0.714894
125 4 0.141413 17.3736 1.72507
126 4 4.65338 11.6157 6.65963
127 4 6.7226 12.533 2.63404
128 4 6.90281 16.3371 6.07787
129 4 5.21581 16.2643 2.68855
130 4 8.66856 12.8251 5.71576
131 4 1.69112 11.4391 1.44775
132 4 3.04072 17.6334 7.09671
133 1 4.49723 10.2294 12.2708
134 1 0.881404 18.8465 13.339
135 1 2.94293 15.0677 9.06268
136 1 2.43219 14.0061 16.546
137 2 3.48499 18.3056 11.7148
138 2 1.8804 10.7852 13.9159
139 2 3.94296 13.4106 9.64322
140 2 1.49028 15.6573 15.9246
141 2 2.21802 17.9741 12.0591
142 2 3.14313 11.1347 13.5625
143 2 5.17535 13.0771 9.28955
144 2 9.12528 16.0034 16.3377
145 2 2.972 16.5476 10.4281
146 2 2.436 12.5233 15.1385
147 2 4.54841 11.7452 10.907
148 2 0.837091 17.4043 14.7384
149 5 5.89819 10.4101 13.7631
150 5 8.47923 18.6786 11.8344
151 5 6.34896 15.3121 16.127
152 5 7.97209 13.8078 9.47716
153 5 8.01221 10.0202 14.2974
154 5 6.3114 19.0626 11.2985
155 5 4.28153 14.8923 15.5886
156 5 1.18013 14.2083 10.0439
157 3 3.97147 17.4124 10.7438
158 3 1.50489 11.6303 14.8939
159 3 3.59073 12.5925 10.609
160 3 1.81005 16.4686 15.029
161 3 1.92611 16.8974 11.2594
162 3 3.4385 12.1988 14.3531
163 3 5.51597 12.0384 10.0357
164 3 8.82492 17.0425 15.5807
165 6 7.03929 9.95944 13.5055
166 6 7.28746 19.0665 12.1058
167 6 5.23805 14.8544 16.3579
168 6 9.15558 14.2909 9.23156
169 4 4.89279 17.3843 10.2
170 4 9.4906 11.6686 15.4807
171 4 2.63097 12.7276 11.2492
172 4 2.75808 16.494 14.582
173 4 0.996732 16.3658 11.396
174 4 4.43811 12.7185 14.1921
175 4 6.39668 11.5486 10.0009
176 4 7.82147 17.6098 15.5574
177 7 3.04082 9.5923 9.88119
178 8 3.30058 8.80072 9.08252
179 8 2.63533 10.4161 10.6161
180 7 9.04084 11.6446 10.6177
181 8 8.32392 11.3726 11.4712
182 8 0.790577 11.9707 9.70937
183 7 7.22968 6.72769 9.97861
184 8 7.3313 6.2605 8.98367
185 8 7.12792 7.25457 10.982
186 7 1.82997 10.5563 7.94424
187 8 1.06736 9.81683 7.47454
188 8 2.56318 11.2739 8.41782
189 7 6.29809 9.02897 7.21565
190 8 6.94624 9.21379 6.33644
191 8 5.67085 8.74797 8.1073
192 7 9.11309 7.74786 7.01862
193 8 0.959581 7.43343 6.21061
194 8 8.30265 7.98687 7.82042
195 7 0.957845 8.32358 9.5256
196 8 1.09869 7.21016 9.08328
197 8 0.732916 9.35026 9.92766
198 7 7.75719 10.3537 8.5146
199 8 8.13589 11.093 7.77258
200 8 7.44851 9.53062 9.26799
201 7 6.13143 14.6024 12.442
202 8 6.03557 15.3556 13.2885
203 8 6.20387 13.9563 11.4714
204 7 7.01468 13.4994 14.6628
205 8 7.76976 13.8999 13.864
206 8 6.36691 12.9964 15.4927
207 7 6.15183 4.48697 13.161
208 8 5.59208 4.81853 12.2538
209 8 6.75478 4.08091 14.0918
210 7 8.89676 4.2243 12.7366
211 8 9.11206 4.8371 13.6526
212 8 8.68871 3.46379 11.8822
213 7 3.72359 4.72801 5.40292
214 8 3.05833 3.91411 5.91228
215 8 4.29014 5.53772 4.93673
216 7 4.26059 2.35903 2.84859
217 8 4.27225 1.89517 1.81013
218 8 4.24674 2.74217 3.88406
219 7 2.31245 13.5694 4.63654
220 8 2.03055 13.5961 5.75084
221 8 2.63926 13.5608 3.55877
222 7 3.79947 15.6111 4.8907
223 8 4.82824 15.0657 4.93632
224 8 2.79916 16.1683 4.81706
ITEM: TIMESTEP
16
ITEM: NUMBER OF ATOMS
224
ITEM: BOX BOUNDS xy xz yz pp pp pp
-7.2676023169933046e-03 9.5524793314177447e+00 0.0000000000000000e+00
-1.5806614061041557e-02 1.9402805714061046e+01 6.3141152910075349e-01
-1.3911659648279340e-02 1.7076726759648274e+01 0.0000000000000000e+00
ITEM: ATOMS id type x y z
1 1 8.67469 0.524996 3.72634
2 1 5.01679 9.16111 4.78124
3 1 7.09175 5.39221 0.490879
4 1 6.59282 4.2938 8.01749
5 2 7.68826 8.59735 3.14064
6 2 6.0218 1.1059 5.40288
7 2 8.0983 3.71395 1.1005
8 2 5.60371 5.95305 7.3993
9 2 6.45088 8.22958 3.52638
10 2 7.34497 1.47726 4.96974
11 2 0.422059 3.39288 0.744979
12 2 4.35775 6.27985 7.8223
13 2 7.0915 6.86088 1.94198
14 2 6.61053 2.80739 6.62106
15 2 8.70696 1.9843 2.33968
16 2 4.96792 7.68756 6.12462
17 5 1.08071 0.746634 5.22444
18 5 3.69893 8.95258 3.29512
19 5 1.58392 5.59817 7.55659
20 5 3.14811 4.10143 0.987386
21 5 3.21167 0.302936 5.7497
22 5 1.53673 9.39018 2.75408
23 5 8.44842 5.12308 7.07132
24 5 5.27772 4.53749 1.49354
25 3 8.06976 7.73609 2.19669
26 3 5.60163 1.91217 6.35938
27 3 7.69087 2.89217 2.08147
28 3 5.98892 6.80097 6.42532
29 3 6.12113 7.14947 2.77616
30 3 7.56206 2.47995 5.78346
31 3 0.755518 2.34498 1.50679
32 3 3.98048 7.3908 6.99679
33 6 2.28412 0.317756 5.01672
34 6 2.50155 9.36986 3.54291
35 6 0.410139 5.16183 7.7944
36 6 4.33338 4.51786 0.718367
37 4 0.200339 7.74996 1.76024
38 4 4.60296 1.82146 6.80863
39 4 6.70433 3.00054 2.44553
40 4 6.99188 6.82106 6.07871
41 4 5.12918 6.72495 2.79003
42 4 8.58397 2.83293 5.72232
43 4 1.68281 1.84267 1.47319
44 4 3.00868 7.94149 7.09943
45 1 4.52512 0.531284 12.2836
46 1 0.889383 9.15035 13.3151
47 1 2.96643 5.36121 9.04161
48 1 2.44384 4.29066 16.5528
49 2 3.53751 8.56635 11.7452
50 2 1.81219 1.08443 13.868
51 2 3.93671 3.76264 9.68391
52 2 1.4826 5.96701 15.9616
53 2 2.22683 8.22218 11.9953
54 2 3.14257 1.38731 13.5865
55 2 5.2569 3.36815 9.28825
56 2 9.12211 6.32445 16.3501
57 2 2.93278 6.83782 10.445
58 2 2.45167 2.86158 15.1977
59 2 4.50605 1.93961 10.8776
60 2 0.861401 7.64986 14.6863
61 5 5.84243 0.705025 13.7608
62 5 8.46997 9.01082 11.8945
63 5 6.35893 5.59654 16.1456
64 5 7.96567 4.07368 9.49714
65 5 7.97431 0.305458 14.2975
66 5 6.3064 9.39757 11.2923
67 5 4.24827 5.13425 15.6077
68 5 1.14729 4.54114 10.0386
69 3 4.01598 7.63632 10.8864
70 3 1.47489 1.92523 14.8502
71 3 3.54656 2.89078 10.5872
72 3 1.85629 6.81508 15.0189
73 3 1.93393 7.16483 11.2836
74 3 3.4339 2.49214 14.3137
75 3 5.55072 2.35528 10.005
76 3 8.77955 7.35471 15.5381
77 6 6.9917 0.306933 13.5019
78 6 7.26341 9.35416 12.1288
79 6 5.19983 5.20009 16.327
80 6 9.13431 4.52734 9.26066
81 4 4.83538 7.72888 10.222
82 4 9.45471 1.90492 15.37
83 4 2.5851 2.98444 11.1859
84 4 2.75432 6.76089 14.3806
85 4 0.968178 6.66538 11.2674
86 4 4.37965 2.88605 14.3113
87 4 6.47601 1.7419 10.0518
88 4 7.86519 7.7802 15.6307
89 1 8.65697 10.2336 3.74196
90 1 5.03455 18.8582 4.77149
91 1 7.10264 15.0845 0.516805
92 1 6.59591 13.9996 8.01746
93 2 7.70697 18.3083 3.14833
94 2 5.96252 10.899 5.33035
95 2 8.09563 13.4214 1.06992
96 2 5.60218 15.6665 7.36768
97 2 6.40664 17.9829 3.48145
98 2 7.30184 11.1913 4.99037
99 2 0.429047 13.0759 0.736968
100 2 4.34316 16.068 7.78423
101 2 7.11034 16.5641 1.87147
102 2 6.61469 12.5387 6.59305
103 2 8.63567 11.7118 2.36289
104 2 5.00552 17.3803 6.18823
105 5 1.11693 10.444 5.2103
106 5 3.65604 18.7105 3.29532
107 5 1.59957 15.3008 7.57362
108 5 3.194 13.828 0.948422
109 5 3.2054 10.0193 5.80577
110 5 1.51813 19.0802 2.73252
111 5 8.37732 14.8633 7.01527
112 5 5.29211 14.2476 1.49796
113 3 8.07269 17.471 2.19202
114 3 5.642 11.6464 6.3351
115 3 7.69491 12.6037 2.07171
116 3 5.98231 16.4694 6.45105
117 3 6.09636 16.8878 2.76684
118 3 7.63033 12.2139 5.77798
119 3 0.704114 12.019 1.53545
120 3 4.01295 17.0752 6.96901
121 6 2.27335 10.032 4.97774
122 6 2.54302 19.1044 3.50612
123 6 0.405454 14.8721 7.84991
124 6 4.31915 14.2491 0.714667
125 4 0.141608 17.3666 1.72651
126 4 4.65067 11.6207 6.65143
127 4 6.72443 12.5266 2.63622
128 4 6.90446 16.3338 6.07983
129 4 5.21928 16.2598 2.68322
130 4 8.66769 12.8277 5.71413
131 4 1.68568 11.4359 1.44583
132 4 3.04223 17.6384 7.09861
133 1 4.49629 10.2287 12.271
134 1 0.880433 18.8478 13.3407
135 1 2.94156 15.067 9.06328
136 1 2.43144 14.0073 16.5471
137 2 3.48184 18.308 11.7171
138 2 1.88103 10.7842 13.9166
139 2 3.94314 13.4097 9.64303
140 2 1.49122 15.6581 15.9244
141 2 2.21442 17.9778 12.061
142 2 3.14364 11.1336 13.5632
143 2 5.17368 13.0772 9.28888
144 2 9.12687 16.004 16.3409
145 2 2.9731 16.5477 10.4271
146 2 2.43489 12.5236 15.1388
147 2 4.5513 11.7483 10.9093
148 2 0.83419 17.4069 14.7407
149 5 5.90054 10.4083 13.7639
150 5 8.48124 18.6819 11.8346
151 5 6.34723 15.315 16.1295
152 5 7.97512 13.8092 9.47607
153 5 8.01239 10.0209 14.2971
154 5 6.31232 19.0629 11.2998
155 5 4.28472 14.8952 15.5916
156 5 1.18056 14.2085 10.0441
157 3 3.97397 17.4111 10.7457
158 3 1.50623 11.6301 14.896
159 3 3.59325 12.5935 10.6097
160 3 1.80675 16.4689 15.0319
161 3 1.92509 16.8993 11.2583
162 3 3.43741 12.199 14.3558
163 3 5.51441 12.0386 10.0348
164 3 8.82734 17.0435 15.5835
165 6 7.03927 9.9572 13.5065
166 6 7.28858 19.0661 12.1068
167 6 5.2395 14.8566 16.3594
168 6 9.15801 14.295 9.23157
169 4 4.89472 17.3785 10.1975
170 4 9.49625 11.6736 15.488
171 4 2.63954 12.7328 11.2581
172 4 2.75639 16.4993 14.5862
173 4 0.996294 16.365 11.4003
174 4 4.43475 12.7185 14.1885
175 4 6.39513 11.5491 10.0005
176 4 7.82493 17.6106 15.5571
177 7 3.04164 9.59558 9.87968
178 8 3.29686 8.80813 9.07269
179 8 2.63044 10.4166 10.616
180 7 9.04268 11.6442 10.6184
181 8 8.32405 11.3764 11.4719
182 8 0.789537 11.9694 9.70778
183 7 7.22991 6.72627 9.97827
184 8 7.33151 6.26104 8.9853
185 8 7.12781 7.25339 10.9792
186 7 1.83032 10.5567 7.94463
187 8 1.06663 9.81672 7.47711
188 8 2.564 11.2741 8.41696
189 7 6.2985 9.03247 7.21641
190 8 6.94825 9.20654 6.33879
191 8 5.6722 8.75201 8.1079
192 7 9.11578 7.74786 7.01802
193 8 0.95964 7.43007 6.2088
194 8 8.3037 7.98522 7.81986
195 7 0.959317 8.32415 9.52592
196 8 1.09539 7.20954 9.08186
197 8 0.733209 9.35057 9.92856
198 7 7.75639 10.3547 8.51503
199 8 8.13832 11.0918 7.7752
200 8 7.44974 9.52939 9.26591
201 7 6.13236 14.6015 12.4443
202 8 6.03741 15.3601 13.2871
203 8 6.20244 13.9583 11.4716
204 7 7.01404 13.5021 14.6616
205 8 7.77283 13.9009 13.8633
206 8 6.36987 12.9933 15.4926
207 7 6.15154 4.48733 13.163
208 8 5.59186 4.81756 12.2553
209 8 6.75551 4.07881 14.0929
210 7 8.89738 4.22704 12.736
211 8 9.11376 4.83614 13.6538
212 8 8.6888 3.46176 11.8852
213 7 3.72218 4.72538 5.40223
214 8 3.05544 3.91384 5.91232
215 8 4.28638 5.53548 4.93556
216 7 4.26185 2.3585 2.84679
217 8 4.2742 1.89311 1.81028
218 8 4.24725 2.73867 3.88234
219 7 2.31158 13.5679 4.63561
220 8 2.03177 13.5956 5.75008
221 8 2.63983 13.5596 3.55867
222 7 3.79824 15.6118 4.88958
223 8 4.82645 15.0634 4.93232
224 8 2.79894 16.1724 4.8163
ITEM: TIMESTEP
17
ITEM: NUMBER OF ATOMS
224
ITEM: BOX BOUNDS xy xz yz pp pp pp
-8.1527566756065539e-03 9.5534896819393005e+00 0.0000000000000000e+00
-1.7731773518150362e-02 1.9404730873518155e+01 6.3153672526369620e-01
-1.5606023984153339e-02 1.7078421123984150e+01 0.0000000000000000e+00
ITEM: ATOMS id type x y z
1 1 8.67644 0.522786 3.72485
2 1 5.01586 9.16193 4.7804
3 1 7.09129 5.39173 0.48812
4 1 6.59367 4.29284 8.01799
5 2 7.68933 8.59806 3.13964
6 2 6.02334 1.10474 5.40351
7 2 8.09966 3.71199 1.0988
8 2 5.60298 5.95228 7.39764
9 2 6.45333 8.2292 3.52731
10 2 7.34879 1.47717 4.96601
11 2 0.421249 3.39269 0.743067
12 2 4.35855 6.27821 7.82517
13 2 7.09177 6.86028 1.94263
14 2 6.61148 2.80524 6.62153
15 2 8.70973 1.9817 2.33862
16 2 4.96344 7.68669 6.11933
17 5 1.08005 0.745798 5.22402
18 5 3.6997 8.95283 3.29405
19 5 1.58216 5.59716 7.55534
20 5 3.14727 4.10105 0.988197
21 5 3.20999 0.301196 5.74803
22 5 1.53691 9.39097 2.75357
23 5 8.45301 5.11997 7.07365
24 5 5.27572 4.53749 1.49179
25 3 8.07073 7.73511 2.19638
26 3 5.60082 1.90969 6.36036
27 3 7.69174 2.89076 2.08093
28 3 5.98824 6.80075 6.42315
29 3 6.12364 7.14706 2.77753
30 3 7.56036 2.47772 5.78294
31 3 0.754722 2.34448 1.50554
32 3 3.97793 7.39206 6.99544
33 6 2.28387 0.317784 5.01828
34 6 2.50177 9.36838 3.54141
35 6 0.409715 5.16157 7.79298
36 6 4.3324 4.5158 0.71796
37 4 0.199706 7.74464 1.7637
38 4 4.60148 1.81844 6.80854
39 4 6.70207 2.99978 2.44101
40 4 6.99537 6.82651 6.08242
41 4 5.12847 6.72679 2.78882
42 4 8.58627 2.82336 5.72305
43 4 1.68325 1.84165 1.47178
44 4 3.00932 7.94391 7.09986
45 1 4.52595 0.529446 12.2846
46 1 0.888937 9.1505 13.3152
47 1 2.96659 5.3588 9.04088
48 1 2.44384 4.28955 16.5543
49 2 3.5383 8.56336 11.7513
50 2 1.80887 1.08212 13.8656
51 2 3.93718 3.76351 9.68598
52 2 1.4832 5.96729 15.9635
53 2 2.22409 8.22142 11.9937
54 2 3.1428 1.38194 13.5887
55 2 5.25972 3.367 9.28775
56 2 9.12332 6.32515 16.3539
57 2 2.93277 6.83518 10.4465
58 2 2.45147 2.8624 15.2012
59 2 4.50529 1.93463 10.8773
60 2 0.85972 7.64804 14.6851
61 5 5.84116 0.701714 13.7615
62 5 8.47126 9.01449 11.8993
63 5 6.35773 5.59668 16.149
64 5 7.96826 4.07083 9.49755
65 5 7.97201 0.303902 14.2973
66 5 6.30638 9.3994 11.2938
67 5 4.24908 5.13208 15.6116
68 5 1.14571 4.54138 10.0384
69 3 4.02271 7.62539 10.9013
70 3 1.47457 1.92376 14.8497
71 3 3.54607 2.88893 10.5867
72 3 1.8563 6.81663 15.0213
73 3 1.93392 7.16248 11.2854
74 3 3.43163 2.49052 14.3144
75 3 5.55176 2.35442 10.0034
76 3 8.78028 7.35426 15.5384
77 6 6.98921 0.306278 13.5026
78 6 7.26269 9.35146 12.1319
79 6 5.19988 5.20252 16.3271
80 6 9.13591 4.5253 9.26186
81 4 4.83779 7.72342 10.2218
82 4 9.45647 1.90544 15.3717
83 4 2.58883 2.98466 11.1901
84 4 2.74946 6.76154 14.3745
85 4 0.965704 6.66428 11.2664
86 4 4.38249 2.87956 14.3149
87 4 6.4754 1.73832 10.0525
88 4 7.86184 7.77891 15.6331
89 1 8.65759 10.2332 3.74144
90 1 5.03473 18.8601 4.77006
91 1 7.10285 15.0848 0.515641
92 1 6.59694 14.0003 8.01796
93 2 7.70896 18.311 3.14789
94 2 5.95826 10.9084 5.32448
95 2 8.09682 13.4212 1.0664
96 2 5.60177 15.668 7.36523
97 2 6.40655 17.9872 3.47971
98 2 7.30362 11.1944 4.98716
99 2 0.428522 13.076 0.73461
100 2 4.34345 16.0726 7.7851
101 2 7.11152 16.5655 1.86837
102 2 6.61565 12.5405 6.59125
103 2 8.6344 11.7121 2.36322
104 2 5.00497 17.3821 6.18822
105 5 1.11819 10.4446 5.20839
106 5 3.65485 18.7154 3.29405
107 5 1.59829 15.3023 7.57399
108 5 3.19562 13.8303 0.946872
109 5 3.20304 10.0199 5.80707
110 5 1.51745 19.0817 2.73079
111 5 8.37812 14.8642 7.01513
112 5 5.29082 14.2495 1.49639
113 3 8.07349 17.4731 2.19113
114 3 5.64363 11.6475 6.33439
115 3 7.69535 12.6042 2.07106
116 3 5.9817 16.4701 6.45143
117 3 6.09785 16.8885 2.76675
118 3 7.63285 12.2163 5.77628
119 3 0.700759 12.018 1.53577
120 3 4.01255 17.078 6.96667
121 6 2.27332 10.0343 4.97762
122 6 2.54443 19.1069 3.50268
123 6 0.403997 14.8749 7.8507
124 6 4.3182 14.2503 0.714352
125 4 0.141633 17.3598 1.72811
126 4 4.64756 11.6261 6.64359
127 4 6.7265 12.5206 2.63786
128 4 6.9069 16.3309 6.08109
129 4 5.22245 16.2559 2.67824
130 4 8.66559 12.8296 5.71248
131 4 1.67961 11.433 1.4439
132 4 3.04421 17.6433 7.1004
133 1 4.49536 10.2281 12.2711
134 1 0.879422 18.8491 13.3424
135 1 2.94017 15.0662 9.06388
136 1 2.43068 14.0085 16.5483
137 2 3.47876 18.3106 11.7194
138 2 1.88159 10.7831 13.9174
139 2 3.94327 13.409 9.64284
140 2 1.49207 15.6589 15.9244
141 2 2.21076 17.9816 12.0629
142 2 3.14416 11.1325 13.5639
143 2 5.1721 13.0774 9.28815
144 2 9.12852 16.0046 16.3441
145 2 2.97417 16.5479 10.4261
146 2 2.43378 12.5241 15.1392
147 2 4.55429 11.7514 10.9115
148 2 0.831321 17.4096 14.743
149 5 5.90294 10.4065 13.7647
150 5 8.4832 18.6853 11.835
151 5 6.34551 15.3181 16.1322
152 5 7.97829 13.8108 9.47497
153 5 8.01258 10.0216 14.2968
154 5 6.31331 19.0634 11.3011
155 5 4.2879 14.8981 15.5948
156 5 1.18094 14.2088 10.0443
157 3 3.97636 17.4098 10.7476
158 3 1.50752 11.63 14.8981
159 3 3.59571 12.5946 10.6105
160 3 1.8034 16.4694 15.0347
161 3 1.92408 16.9012 11.2572
162 3 3.43637 12.1991 14.3586
163 3 5.51277 12.0387 10.034
164 3 8.82971 17.0447 15.5864
165 6 7.03926 9.95499 13.5077
166 6 7.28975 19.0657 12.1078
167 6 5.24085 14.8589 16.3611
168 6 9.16034 14.2992 9.23168
169 4 4.89691 17.373 10.195
170 4 9.50205 11.6784 15.4951
171 4 2.64886 12.7379 11.2665
172 4 2.75508 16.5048 14.5903
173 4 0.995808 16.3642 11.4046
174 4 4.43069 12.7185 14.1852
175 4 6.39428 11.5493 9.99996
176 4 7.82901 17.6111 15.5572
177 7 3.04236 9.599 9.87811
178 8 3.29311 8.8157 9.06272
179 8 2.62545 10.417 10.6159
180 7 9.0446 11.6438 10.619
181 8 8.32426 11.3802 11.4727
182 8 0.788437 11.9681 9.70626
183 7 7.23018 6.7249 9.97805
184 8 7.33174 6.26157 8.98688
185 8 7.12771 7.25203 10.9764
186 7 1.83057 10.5571 7.94497
187 8 1.0659 9.81659 7.47971
188 8 2.56486 11.2743 8.41607
189 7 6.29895 9.03603 7.21731
190 8 6.9505 9.19911 6.34111
191 8 5.67355 8.75612 8.10869
192 7 9.1185 7.74784 7.0174
193 8 0.959635 7.42673 6.20691
194 8 8.3048 7.98354 7.81924
195 7 0.96072 8.32451 9.5261
196 8 1.09194 7.2091 9.08044
197 8 0.733482 9.35093 9.92945
198 7 7.75562 10.3555 8.51558
199 8 8.14087 11.0907 7.77786
200 8 7.45101 9.52819 9.26381
201 7 6.1333 14.6007 12.4465
202 8 6.03924 15.3647 13.2857
203 8 6.20104 13.9604 11.472
204 7 7.01347 13.5048 14.6605
205 8 7.77594 13.9019 13.8626
206 8 6.37291 12.9901 15.4925
207 7 6.15137 4.48756 13.1652
208 8 5.59159 4.81659 12.2567
209 8 6.75624 4.07666 14.094
210 7 8.89803 4.22962 12.7352
211 8 9.11554 4.83519 13.6551
212 8 8.68893 3.45966 11.8884
213 7 3.72059 4.72249 5.40164
214 8 3.05254 3.91351 5.91233
215 8 4.28271 5.53331 4.93422
216 7 4.26311 2.35783 2.8448
217 8 4.27615 1.89093 1.8103
218 8 4.24775 2.73517 3.88074
219 7 2.31066 13.5664 4.63472
220 8 2.03296 13.595 5.74932
221 8 2.6404 13.5584 3.55843
222 7 3.79706 15.6125 4.88839
223 8 4.82461 15.0612 4.9282
224 8 2.79867 16.1765 4.81549
ITEM: TIMESTEP
18
ITEM: NUMBER OF ATOMS
224
ITEM: BOX BOUNDS xy xz yz pp pp pp
-9.0817112070089578e-03 9.5545500277266449e+00 0.0000000000000000e+00
-1.9752195813932616e-02 1.9406751295813933e+01 6.3166811651963695e-01
-1.7384230702946368e-02 1.7080199330702943e+01 0.0000000000000000e+00
ITEM: ATOMS id type x y z
1 1 8.67823 0.520487 3.72331
2 1 5.01494 9.16275 4.77953
3 1 7.09085 5.39121 0.485287
4 1 6.59456 4.29182 8.01849
5 2 7.69047 8.59881 3.1386
6 2 6.02497 1.10343 5.40404
7 2 8.10101 3.71004 1.09702
8 2 5.60222 5.9514 7.39593
9 2 6.45574 8.22879 3.52819
10 2 7.35252 1.47695 4.96229
11 2 0.420461 3.39242 0.741066
12 2 4.35926 6.27662 7.82796
13 2 7.09209 6.85956 1.94314
14 2 6.61238 2.80306 6.62205
15 2 8.71248 1.979 2.33755
16 2 4.95888 7.68574 6.11388
17 5 1.07946 0.744844 5.22358
18 5 3.70035 8.95311 3.29292
19 5 1.58033 5.59597 7.55404
20 5 3.1465 4.10065 0.988923
21 5 3.20834 0.299362 5.74639
22 5 1.5371 9.39175 2.75303
23 5 8.45758 5.1168 7.07587
24 5 5.27373 4.53746 1.48996
25 3 8.07179 7.73413 2.196
26 3 5.60006 1.90716 6.36134
27 3 7.69272 2.88928 2.08029
28 3 5.9875 6.80044 6.42095
29 3 6.12615 7.14468 2.7789
30 3 7.55879 2.47541 5.78232
31 3 0.753867 2.34391 1.50422
32 3 3.97535 7.39316 6.99409
33 6 2.28343 0.317713 5.01967
34 6 2.50207 9.36689 3.53987
35 6 0.409465 5.1612 7.79165
36 6 4.33132 4.51369 0.717416
37 4 0.198336 7.7391 1.76722
38 4 4.60022 1.81559 6.80854
39 4 6.69968 2.99854 2.43683
40 4 6.99902 6.83194 6.08581
41 4 5.12776 6.72848 2.78749
42 4 8.58854 2.81412 5.72409
43 4 1.68397 1.84043 1.47019
44 4 3.01041 7.94599 7.09996
45 1 4.52678 0.527516 12.2855
46 1 0.888453 9.15064 13.3154
47 1 2.96674 5.35635 9.04015
48 1 2.44381 4.28838 16.556
49 2 3.53916 8.56023 11.7575
50 2 1.80556 1.07971 13.8634
51 2 3.93772 3.76435 9.688
52 2 1.48375 5.96747 15.9655
53 2 2.22132 8.22068 11.9923
54 2 3.143 1.37648 13.5909
55 2 5.26248 3.36587 9.28722
56 2 9.12457 6.32582 16.3576
57 2 2.93293 6.8324 10.4482
58 2 2.45123 2.86314 15.2048
59 2 4.50455 1.92962 10.8769
60 2 0.857989 7.64627 14.684
61 5 5.83994 0.698303 13.7622
62 5 8.4725 9.01814 11.9042
63 5 6.35652 5.59679 16.1524
64 5 7.97098 4.06789 9.49796
65 5 7.96969 0.302257 14.2971
66 5 6.30636 9.4013 11.2955
67 5 4.24987 5.12989 15.6154
68 5 1.14411 4.54158 10.0382
69 3 4.02938 7.61428 10.9163
70 3 1.47424 1.92229 14.8493
71 3 3.54555 2.88694 10.5862
72 3 1.85629 6.8182 15.0236
73 3 1.93396 7.16001 11.2874
74 3 3.42929 2.48882 14.3151
75 3 5.55276 2.35334 10.002
76 3 8.78114 7.35373 15.5388
77 6 6.9868 0.305525 13.5033
78 6 7.26199 9.34873 12.1351
79 6 5.19998 5.20484 16.3273
80 6 9.13749 4.52315 9.26301
81 4 4.84063 7.71806 10.2218
82 4 9.45819 1.90589 15.3733
83 4 2.59301 2.98473 11.1941
84 4 2.7445 6.762 14.3688
85 4 0.96316 6.66321 11.2657
86 4 4.38593 2.87329 14.3186
87 4 6.47474 1.73509 10.0528
88 4 7.85785 7.77815 15.6356
89 1 8.65826 10.2329 3.74088
90 1 5.03491 18.8622 4.76859
91 1 7.1031 15.0853 0.514397
92 1 6.59799 14.0011 8.01845
93 2 7.71097 18.3139 3.14742
94 2 5.95397 10.9178 5.3184
95 2 8.09798 13.4211 1.06283
96 2 5.60134 15.6695 7.36287
97 2 6.40645 17.9917 3.47794
98 2 7.3054 11.1975 4.98389
99 2 0.427996 13.0761 0.732174
100 2 4.34373 16.0772 7.78595
101 2 7.11271 16.567 1.86523
102 2 6.61655 12.5424 6.58945
103 2 8.63317 11.7123 2.36352
104 2 5.0045 17.384 6.18813
105 5 1.11945 10.4453 5.2064
106 5 3.65368 18.7204 3.29268
107 5 1.59687 15.3039 7.57438
108 5 3.19725 13.8327 0.945254
109 5 3.20065 10.0205 5.8083
110 5 1.51681 19.0833 2.72906
111 5 8.379 14.8651 7.01504
112 5 5.28951 14.2514 1.49472
113 3 8.07433 17.4752 2.19012
114 3 5.64528 11.6486 6.33365
115 3 7.69582 12.6047 2.07037
116 3 5.9811 16.471 6.45186
117 3 6.09943 16.8893 2.7665
118 3 7.63545 12.2189 5.77444
119 3 0.697434 12.0171 1.53598
120 3 4.01209 17.0809 6.96442
121 6 2.27325 10.0366 4.97746
122 6 2.54567 19.1095 3.49926
123 6 0.402606 14.8778 7.85136
124 6 4.3173 14.2517 0.713947
125 4 0.141489 17.3533 1.72988
126 4 4.6441 11.632 6.63608
127 4 6.72881 12.5149 2.63896
128 4 6.9101 16.3284 6.08165
129 4 5.22531 16.2524 2.67363
130 4 8.66231 12.8308 5.71082
131 4 1.67293 11.4305 1.44198
132 4 3.04666 17.6482 7.10206
133 1 4.49442 10.2275 12.2714
134 1 0.878372 18.8505 13.3442
135 1 2.93877 15.0656 9.06449
136 1 2.4299 14.0098 16.5496
137 2 3.47577 18.3132 11.7217
138 2 1.88209 10.782 13.9182
139 2 3.94335 13.4084 9.64266
140 2 1.49282 15.6597 15.9245
141 2 2.20705 17.9855 12.0648
142 2 3.1447 11.1314 13.5648
143 2 5.1706 13.0775 9.28736
144 2 9.13023 16.0052 16.3474
145 2 2.9752 16.5481 10.4251
146 2 2.43265 12.5247 15.1398
147 2 4.55738 11.7546 10.9139
148 2 0.828488 17.4124 14.7453
149 5 5.90539 10.4047 13.7656
150 5 8.48512 18.6889 11.8353
151 5 6.3438 15.3213 16.1349
152 5 7.98158 13.8124 9.47387
153 5 8.01277 10.0223 14.2965
154 5 6.31435 19.0639 11.3025
155 5 4.29107 14.9011 15.598
156 5 1.18128 14.2093 10.0444
157 3 3.97863 17.4086 10.7497
158 3 1.50875 11.6298 14.9004
159 3 3.59812 12.5958 10.6114
160 3 1.8 16.4701 15.0375
161 3 1.92308 16.9033 11.2562
162 3 3.4354 12.1993 14.3613
163 3 5.51106 12.0388 10.0332
164 3 8.83201 17.046 15.5893
165 6 7.03924 9.95282 13.509
166 6 7.29096 19.0654 12.1087
167 6 5.24213 14.8614 16.363
168 6 9.16255 14.3035 9.23188
169 4 4.89935 17.3678 10.1928
170 4 9.50798 11.683 15.5019
171 4 2.65888 12.743 11.2744
172 4 2.75414 16.5103 14.5943
173 4 0.995293 16.3633 11.4087
174 4 4.42595 12.7184 14.1822
175 4 6.39414 11.5494 9.9994
176 4 7.83368 17.6111 15.5575
177 7 3.04298 9.60257 9.87648
178 8 3.28933 8.82339 9.05264
179 8 2.62037 10.4174 10.6157
180 7 9.04661 11.6435 10.6195
181 8 8.32453 11.3843 11.4735
182 8 0.787276 11.9666 9.70481
183 7 7.23047 6.72357 9.97794
184 8 7.33198 6.2621 8.9884
185 8 7.12763 7.2505 10.9737
186 7 1.83074 10.5574 7.94525
187 8 1.06515 9.81646 7.48235
188 8 2.56576 11.2747 8.41514
189 7 6.29943 9.03964 7.21834
190 8 6.953 9.19156 6.34339
191 8 5.67487 8.76031 8.10966
192 7 9.12127 7.74781 7.01676
193 8 0.959565 7.42343 6.20495
194 8 8.30595 7.98183 7.81855
195 7 0.962054 8.32466 9.52614
196 8 1.08834 7.20884 9.07901
197 8 0.733735 9.35135 9.93034
198 7 7.75488 10.3563 8.51625
199 8 8.14353 11.0897 7.78054
200 8 7.45233 9.52703 9.26168
201 7 6.13424 14.5999 12.4486
202 8 6.04105 15.3694 13.2845
203 8 6.1997 13.9626 11.4724
204 7 7.01298 13.5075 14.6594
205 8 7.77908 13.9029 13.862
206 8 6.37603 12.9869 15.4924
207 7 6.15132 4.48767 13.1677
208 8 5.59128 4.81562 12.258
209 8 6.75696 4.07446 14.0952
210 7 8.89872 4.23205 12.7345
211 8 9.11739 4.83426 13.6565
212 8 8.68908 3.45749 11.8916
213 7 3.71881 4.71936 5.40115
214 8 3.04964 3.91313 5.91232
215 8 4.27912 5.5312 4.9327
216 7 4.26437 2.35702 2.84262
217 8 4.27811 1.88863 1.81018
218 8 4.24825 2.73167 3.87924
219 7 2.3097 13.565 4.63386
220 8 2.03412 13.5945 5.74854
221 8 2.64097 13.5573 3.55805
222 7 3.79591 15.6132 4.88713
223 8 4.82271 15.0589 4.92395
224 8 2.79834 16.1808 4.81462
ITEM: TIMESTEP
19
ITEM: NUMBER OF ATOMS
224
ITEM: BOX BOUNDS xy xz yz pp pp pp
-1.0053382086732121e-02 9.5556591316592581e+00 0.0000000000000000e+00
-2.1865523692953914e-02 1.9408864623692953e+01 6.3180554957252821e-01
-1.9244205145582782e-02 1.7082059305145577e+01 0.0000000000000000e+00
ITEM: ATOMS id type x y z
1 1 8.68006 0.518102 3.72172
2 1 5.01402 9.16357 4.77861
3 1 7.09044 5.39065 0.482381
4 1 6.59546 4.29075 8.01898
5 2 7.69168 8.59958 3.13752
6 2 6.02669 1.10198 5.40446
7 2 8.10234 3.70809 1.09516
8 2 5.60143 5.95041 7.39416
9 2 6.4581 8.22836 3.52902
10 2 7.35616 1.47659 4.95858
11 2 0.419698 3.3921 0.738979
12 2 4.35988 6.27508 7.83067
13 2 7.09247 6.85872 1.94351
14 2 6.61322 2.80087 6.62262
15 2 8.71519 1.97619 2.33647
16 2 4.95426 7.68471 6.10827
17 5 1.07894 0.743774 5.22312
18 5 3.7009 8.9534 3.29175
19 5 1.57845 5.5946 7.55269
20 5 3.1458 4.10024 0.989566
21 5 3.20671 0.297437 5.74475
22 5 1.53728 9.39253 2.75245
23 5 8.4621 5.11356 7.07797
24 5 5.27175 4.53738 1.48806
25 3 8.07293 7.73315 2.19555
26 3 5.59935 1.90459 6.36229
27 3 7.69383 2.88773 2.07955
28 3 5.98669 6.80002 6.41873
29 3 6.12867 7.14233 2.78025
30 3 7.55735 2.47304 5.78163
31 3 0.752958 2.34328 1.50284
32 3 3.97274 7.39408 6.99275
33 6 2.2828 0.317544 5.02086
34 6 2.50243 9.36538 3.53828
35 6 0.409393 5.16071 7.79043
36 6 4.33014 4.51156 0.716732
37 4 0.196254 7.73334 1.7708
38 4 4.59919 1.81293 6.80863
39 4 6.69719 2.9968 2.43297
40 4 7.00281 6.83734 6.08888
41 4 5.12704 6.73003 2.78603
42 4 8.59076 2.80522 5.72545
43 4 1.68495 1.83903 1.46842
44 4 3.0119 7.94773 7.0997
45 1 4.52761 0.525495 12.2866
46 1 0.887931 9.15077 13.3156
47 1 2.96687 5.35385 9.03944
48 1 2.44377 4.28716 16.5578
49 2 3.5401 8.55697 11.7639
50 2 1.80227 1.07717 13.8611
51 2 3.93834 3.76516 9.68998
52 2 1.48425 5.96757 15.9676
53 2 2.21853 8.21994 11.991
54 2 3.14317 1.37096 13.5931
55 2 5.26518 3.36477 9.28666
56 2 9.12587 6.32645 16.3615
57 2 2.93325 6.82951 10.45
58 2 2.45095 2.86378 15.2084
59 2 4.50384 1.92457 10.8765
60 2 0.856211 7.64456 14.6829
61 5 5.83877 0.694798 13.763
62 5 8.47369 9.02178 11.9092
63 5 6.3553 5.59688 16.1559
64 5 7.97381 4.06486 9.4984
65 5 7.96737 0.300525 14.2969
66 5 6.30634 9.40325 11.2974
67 5 4.25064 5.12765 15.6193
68 5 1.14249 4.54175 10.038
69 3 4.03598 7.603 10.9313
70 3 1.47391 1.9208 14.849
71 3 3.545 2.88483 10.5859
72 3 1.85627 6.81977 15.0261
73 3 1.93405 7.15743 11.2896
74 3 3.42688 2.48703 14.316
75 3 5.55373 2.35202 10.0007
76 3 8.78212 7.35311 15.5394
77 6 6.98447 0.304673 13.5041
78 6 7.26132 9.34596 12.1383
79 6 5.20013 5.20706 16.3278
80 6 9.13904 4.52089 9.26412
81 4 4.84382 7.71281 10.222
82 4 9.45986 1.90624 15.3749
83 4 2.59762 2.98467 11.1977
84 4 2.73946 6.76226 14.3633
85 4 0.960564 6.66218 11.2653
86 4 4.38993 2.86723 14.3225
87 4 6.47406 1.7322 10.0528
88 4 7.85327 7.77789 15.6379
89 1 8.65896 10.2326 3.74027
90 1 5.0351 18.8644 4.76709
91 1 7.10337 15.0858 0.513076
92 1 6.59906 14.002 8.01894
93 2 7.713 18.3169 3.14693
94 2 5.94967 10.9274 5.31213
95 2 8.09913 13.421 1.0592
96 2 5.6009 15.671 7.36059
97 2 6.40635 17.9962 3.47615
98 2 7.30719 11.2007 4.98055
99 2 0.427468 13.0762 0.729663
100 2 4.34399 16.0819 7.78679
101 2 7.11391 16.5684 1.86206
102 2 6.61741 12.5444 6.58763
103 2 8.632 11.7125 2.36379
104 2 5.00412 17.3862 6.18796
105 5 1.12072 10.446 5.20433
106 5 3.65252 18.7255 3.29123
107 5 1.59532 15.3055 7.57478
108 5 3.19886 13.8351 0.943571
109 5 3.19824 10.021 5.80945
110 5 1.51622 19.085 2.72732
111 5 8.37997 14.866 7.015
112 5 5.28818 14.2534 1.49297
113 3 8.0752 17.4773 2.18898
114 3 5.64695 11.6497 6.33288
115 3 7.6963 12.6052 2.06965
116 3 5.9805 16.472 6.45236
117 3 6.10112 16.8901 2.76609
118 3 7.63815 12.2216 5.77246
119 3 0.694138 12.0162 1.53609
120 3 4.01157 17.0839 6.96225
121 6 2.27314 10.0389 4.97725
122 6 2.54674 19.1123 3.49586
123 6 0.401282 14.8809 7.85188
124 6 4.31645 14.253 0.713448
125 4 0.141177 17.3471 1.73183
126 4 4.64031 11.6383 6.62892
127 4 6.73133 12.5095 2.63951
128 4 6.914 16.3264 6.08152
129 4 5.22788 16.2494 2.66939
130 4 8.65792 12.8313 5.70914
131 4 1.66566 11.4283 1.44007
132 4 3.04957 17.653 7.10361
133 1 4.49349 10.2268 12.2717
134 1 0.877285 18.8521 13.346
135 1 2.93735 15.065 9.0651
136 1 2.4291 14.0111 16.551
137 2 3.47285 18.316 11.7239
138 2 1.88253 10.7809 13.9191
139 2 3.94337 13.408 9.64248
140 2 1.49348 15.6604 15.9249
141 2 2.20329 17.9894 12.0667
142 2 3.14526 11.1304 13.5656
143 2 5.16918 13.0777 9.2865
144 2 9.132 16.0059 16.3508
145 2 2.9762 16.5484 10.4242
146 2 2.43151 12.5254 15.1404
147 2 4.56055 11.7576 10.9164
148 2 0.825693 17.4153 14.7476
149 5 5.9079 10.4029 13.7665
150 5 8.487 18.6925 11.8357
151 5 6.34212 15.3245 16.1378
152 5 7.98501 13.8142 9.47277
153 5 8.01298 10.023 14.2963
154 5 6.31547 19.0644 11.3039
155 5 4.29423 14.9041 15.6013
156 5 1.18158 14.2099 10.0445
157 3 3.98079 17.4074 10.7517
158 3 1.50993 11.6297 14.9027
159 3 3.60048 12.5972 10.6124
160 3 1.79656 16.471 15.0402
161 3 1.92211 16.9056 11.2553
162 3 3.43449 12.1994 14.3639
163 3 5.50928 12.039 10.0323
164 3 8.83425 17.0474 15.5923
165 6 7.03923 9.95068 13.5105
166 6 7.29221 19.0652 12.1096
167 6 5.24331 14.864 16.365
168 6 9.16465 14.3077 9.23218
169 4 4.90203 17.363 10.1906
170 4 9.51402 11.6873 15.5083
171 4 2.6696 12.748 11.2819
172 4 2.75355 16.5158 14.5982
173 4 0.994768 16.3624 11.4127
174 4 4.42055 12.7184 14.1794
175 4 6.39468 11.5492 9.9988
176 4 7.8389 17.6107 15.5582
177 7 3.04351 9.60627 9.8748
178 8 3.28553 8.8312 9.04248
179 8 2.6152 10.4177 10.6154
180 7 9.04869 11.6431 10.62
181 8 8.32488 11.3884 11.4743
182 8 0.786056 11.9651 9.70342
183 7 7.23079 6.72229 9.97796
184 8 7.33225 6.26262 8.98986
185 8 7.12756 7.24881 10.971
186 7 1.83081 10.5577 7.94549
187 8 1.06441 9.81631 7.48502
188 8 2.5667 11.2751 8.41417
189 7 6.29996 9.04331 7.21952
190 8 6.95574 9.18389 6.3456
191 8 5.67617 8.76456 8.11081
192 7 9.12407 7.74776 7.0161
193 8 0.959431 7.42015 6.20291
194 8 8.30715 7.9801 7.8178
195 7 0.963319 8.32462 9.52605
196 8 1.0846 7.20877 9.07758
197 8 0.733967 9.35183 9.93122
198 7 7.75416 10.3569 8.51705
199 8 8.14629 11.0886 7.78325
200 8 7.45367 9.5259 9.25952
201 7 6.13519 14.5991 12.4507
202 8 6.04285 15.3743 13.2833
203 8 6.1984 13.9649 11.473
204 7 7.01256 13.5101 14.6584
205 8 7.78226 13.9039 13.8614
206 8 6.37923 12.9836 15.4923
207 7 6.15138 4.48764 13.1704
208 8 5.59091 4.81464 12.2593
209 8 6.75767 4.0722 14.0963
210 7 8.89945 4.23432 12.7336
211 8 9.11932 4.83335 13.658
212 8 8.68927 3.45525 11.8948
213 7 3.71686 4.71599 5.40076
214 8 3.04673 3.91268 5.91228
215 8 4.27563 5.52915 4.931
216 7 4.26562 2.35608 2.84027
217 8 4.28007 1.8862 1.80992
218 8 4.24874 2.72818 3.87786
219 7 2.30869 13.5636 4.63305
220 8 2.03526 13.594 5.74776
221 8 2.64155 13.5562 3.55754
222 7 3.79481 15.614 4.88582
223 8 4.82076 15.0566 4.91959
224 8 2.79795 16.1851 4.81369
ITEM: TIMESTEP
20
ITEM: NUMBER OF ATOMS
224
ITEM: BOX BOUNDS xy xz yz pp pp pp
-1.1066699056011764e-02 9.5568157721010643e+00 0.0000000000000000e+00
-2.4069429404395493e-02 1.9411068529404396e+01 6.3194887304505465e-01
-2.1183898620483532e-02 1.7083998998620476e+01 0.0000000000000000e+00
ITEM: ATOMS id type x y z
1 1 8.68193 0.515634 3.72009
2 1 5.01311 9.16438 4.77766
3 1 7.09006 5.39004 0.479404
4 1 6.59638 4.28962 8.01947
5 2 7.69295 8.6004 3.13641
6 2 6.02849 1.10038 5.40478
7 2 8.10365 3.70615 1.09324
8 2 5.60061 5.94931 7.39233
9 2 6.4604 8.22791 3.52979
10 2 7.3597 1.47609 4.95489
11 2 0.418961 3.3917 0.736808
12 2 4.36042 6.2736 7.83329
13 2 7.09291 6.85776 1.94374
14 2 6.61401 2.79866 6.62325
15 2 8.71788 1.97327 2.33537
16 2 4.94958 7.6836 6.10251
17 5 1.07848 0.742591 5.22264
18 5 3.70135 8.95372 3.29052
19 5 1.5765 5.59305 7.5513
20 5 3.14516 4.09981 0.990127
21 5 3.20511 0.295423 5.74314
22 5 1.53747 9.39331 2.75184
23 5 8.46658 5.11026 7.07996
24 5 5.26978 4.53727 1.48609
25 3 8.07415 7.73217 2.19503
26 3 5.59871 1.90198 6.36323
27 3 7.69505 2.88612 2.0787
28 3 5.98581 6.79952 6.41649
29 3 6.13119 7.14001 2.78159
30 3 7.55604 2.47061 5.78084
31 3 0.751997 2.34257 1.5014
32 3 3.9701 7.39482 6.99141
33 6 2.28198 0.317277 5.02185
34 6 2.50286 9.36385 3.53665
35 6 0.409501 5.16009 7.78933
36 6 4.32887 4.50939 0.715906
37 4 0.19349 7.72738 1.77443
38 4 4.59839 1.81045 6.80881
39 4 6.69463 2.99457 2.42944
40 4 7.00669 6.8427 6.09162
41 4 5.12633 6.73144 2.78444
42 4 8.59291 2.79667 5.72714
43 4 1.68617 1.83746 1.46648
44 4 3.01377 7.94913 7.09908
45 1 4.52843 0.523387 12.2876
46 1 0.887374 9.1509 13.3159
47 1 2.96699 5.35131 9.03873
48 1 2.4437 4.2859 16.5596
49 2 3.5411 8.55357 11.7704
50 2 1.799 1.07454 13.8589
51 2 3.93903 3.76592 9.6919
52 2 1.4847 5.96758 15.9698
53 2 2.21572 8.21921 11.9898
54 2 3.14331 1.36536 13.5954
55 2 5.26781 3.36372 9.28608
56 2 9.1272 6.32704 16.3653
57 2 2.93374 6.8265 10.452
58 2 2.45064 2.86434 15.2121
59 2 4.50316 1.9195 10.8761
60 2 0.854385 7.64291 14.6819
61 5 5.83763 0.691201 13.7638
62 5 8.47484 9.0254 11.9142
63 5 6.35406 5.59695 16.1594
64 5 7.97677 4.06174 9.49885
65 5 7.96504 0.298709 14.2967
66 5 6.30633 9.40526 11.2994
67 5 4.25139 5.12539 15.6231
68 5 1.14086 4.54188 10.0378
69 3 4.04249 7.59157 10.9464
70 3 1.47358 1.91931 14.8489
71 3 3.54442 2.88259 10.5856
72 3 1.85624 6.82136 15.0285
73 3 1.93418 7.15475 11.2919
74 3 3.42441 2.48515 14.3168
75 3 5.55464 2.35047 9.99963
76 3 8.78321 7.35241 15.54
77 6 6.98223 0.30372 13.5049
78 6 7.26069 9.34318 12.1416
79 6 5.20032 5.20917 16.3286
80 6 9.14057 4.51854 9.26518
81 4 4.84729 7.70768 10.2226
82 4 9.4615 1.9065 15.3764
83 4 2.60264 2.98448 11.201
84 4 2.73434 6.7623 14.3583
85 4 0.957933 6.66121 11.2652
86 4 4.39443 2.86136 14.3265
87 4 6.47335 1.72967 10.0523
88 4 7.84815 7.77812 15.6401
89 1 8.65971 10.2323 3.73962
90 1 5.03529 18.8666 4.76555
91 1 7.10366 15.0863 0.511678
92 1 6.60015 14.0029 8.01942
93 2 7.71504 18.32 3.14642
94 2 5.94537 10.937 5.30567
95 2 8.10025 13.4211 1.05552
96 2 5.60043 15.6724 7.35841
97 2 6.40624 18.0008 3.47432
98 2 7.30897 11.2039 4.97715
99 2 0.426939 13.0764 0.72708
100 2 4.34425 16.0866 7.78762
101 2 7.11512 16.57 1.85887
102 2 6.61822 12.5467 6.58581
103 2 8.63086 11.7126 2.36405
104 2 5.00382 17.3885 6.18769
105 5 1.122 10.4467 5.20218
106 5 3.65139 18.7306 3.28969
107 5 1.59363 15.3071 7.5752
108 5 3.20046 13.8376 0.941826
109 5 3.19581 10.0216 5.81053
110 5 1.51567 19.0868 2.72557
111 5 8.38101 14.867 7.01501
112 5 5.28683 14.2554 1.49113
113 3 8.07612 17.4795 2.18773
114 3 5.64864 11.6509 6.33209
115 3 7.6968 12.6057 2.0689
116 3 5.97991 16.4733 6.4529
117 3 6.1029 16.891 2.76552
118 3 7.64091 12.2244 5.77035
119 3 0.690871 12.0153 1.53609
120 3 4.01099 17.0869 6.96018
121 6 2.27299 10.0412 4.97699
122 6 2.54763 19.1153 3.49248
123 6 0.400027 14.884 7.85228
124 6 4.31567 14.2545 0.712854
125 4 0.140701 17.3412 1.73398
126 4 4.63622 11.6451 6.62209
127 4 6.73405 12.5046 2.6395
128 4 6.91856 16.3249 6.08072
129 4 5.23016 16.247 2.66555
130 4 8.65247 12.8312 5.70743
131 4 1.65784 11.4264 1.43817
132 4 3.05292 17.6578 7.10504
133 1 4.49257 10.2262 12.272
134 1 0.87616 18.8537 13.3479
135 1 2.93593 15.0645 9.06571
136 1 2.42829 14.0125 16.5525
137 2 3.47002 18.3188 11.7262
138 2 1.88291 10.7797 13.92
139 2 3.94333 13.4077 9.64231
140 2 1.49404 15.661 15.9254
141 2 2.19948 17.9933 12.0687
142 2 3.14583 11.1294 13.5666
143 2 5.16785 13.0779 9.28559
144 2 9.13384 16.0066 16.3542
145 2 2.97717 16.5486 10.4233
146 2 2.43036 12.5263 15.1413
147 2 4.56381 11.7607 10.919
148 2 0.82294 17.4182 14.75
149 5 5.91045 10.4011 13.7675
150 5 8.48883 18.6962 11.8361
151 5 6.34045 15.3279 16.1407
152 5 7.98856 13.816 9.47165
153 5 8.01319 10.0237 14.2961
154 5 6.31665 19.0651 11.3054
155 5 4.29739 14.9071 15.6046
156 5 1.18184 14.2107 10.0446
157 3 3.98283 17.4064 10.7539
158 3 1.51105 11.6296 14.9051
159 3 3.60279 12.5987 10.6135
160 3 1.79309 16.4721 15.043
161 3 1.92115 16.9079 11.2544
162 3 3.43364 12.1995 14.3666
163 3 5.50743 12.0391 10.0315
164 3 8.83643 17.049 15.5954
165 6 7.03921 9.94858 13.5121
166 6 7.2935 19.0651 12.1105
167 6 5.24442 14.8668 16.3672
168 6 9.16664 14.312 9.23258
169 4 4.90492 17.3586 10.1887
170 4 0.584247 11.6914 15.5144
171 4 2.68096 12.7531 11.289
172 4 2.75328 16.5215 14.6021
173 4 0.994253 16.3613 11.4166
174 4 4.41453 12.7184 14.177
175 4 6.3959 11.5488 9.99814
176 4 7.84464 17.6099 15.5592
177 7 3.04393 9.61009 9.87306
178 8 3.28172 8.83911 9.03226
179 8 2.60995 10.418 10.6152
180 7 9.05084 11.6429 10.6204
181 8 8.32528 11.3927 11.4752
182 8 0.784777 11.9634 9.70211
183 7 7.23114 6.72105 9.97809
184 8 7.33253 6.26313 8.99123
185 8 7.1275 7.24697 10.9684
186 7 1.83079 10.558 7.94568
187 8 1.06365 9.81615 7.48772
188 8 2.56767 11.2755 8.41317
189 7 6.3005 9.04702 7.22082
190 8 6.9587 9.17613 6.34774
191 8 5.67745 8.76887 8.11213
192 7 9.1269 7.7477 7.01542
193 8 0.959231 7.41691 6.2008
194 8 8.3084 7.97833 7.81699
195 7 0.964514 8.32437 9.52583
196 8 1.08073 7.20887 9.07616
197 8 0.73418 9.35235 9.93209
198 7 7.75348 10.3574 8.51796
199 8 8.14916 11.0877 7.78598
200 8 7.45505 9.5248 9.25734
201 7 6.13615 14.5984 12.4527
202 8 6.04464 15.3792 13.2822
203 8 6.19714 13.9672 11.4736
204 7 7.01222 13.5128 14.6575
205 8 7.78546 13.9049 13.861
206 8 6.38251 12.9802 15.4922
207 7 6.15155 4.48749 13.1732
208 8 5.59049 4.81365 12.2606
209 8 6.75838 4.0699 14.0975
210 7 8.90021 4.23643 12.7328
211 8 9.12131 4.83246 13.6597
212 8 8.68948 3.45295 11.8981
213 7 3.71474 4.71238 5.40046
214 8 3.04382 3.91216 5.91222
215 8 4.27222 5.52717 4.92913
216 7 4.26687 2.35501 2.83774
217 8 4.28203 1.88366 1.80953
218 8 4.24923 2.72469 3.8766
219 7 2.30765 13.5622 4.63227
220 8 2.03637 13.5935 5.74697
221 8 2.64213 13.5551 3.5569
222 7 3.79374 15.6148 4.88445
223 8 4.81875 15.0543 4.91512
224 8 2.79752 16.1895 4.8127
ITEM: TIMESTEP
21
ITEM: NUMBER OF ATOMS
224
ITEM: BOX BOUNDS xy xz yz pp pp pp
-1.2120602940971281e-02 9.5580187400687144e+00 0.0000000000000000e+00
-2.6361609306430722e-02 1.9413360709306431e+01 6.3209793712774631e-01
-2.3201283654785243e-02 1.7086016383654780e+01 0.0000000000000000e+00
ITEM: ATOMS id type x y z
1 1 8.68384 0.513084 3.71841
2 1 5.0122 9.16519 4.77668
3 1 7.08971 5.3894 0.476359
4 1 6.59733 4.28844 8.01995
5 2 7.69429 8.60124 3.13527
6 2 6.03039 1.09864 5.405
7 2 8.10495 3.70423 1.09124
8 2 5.59976 5.9481 7.39045
9 2 6.46265 8.22743 3.53052
10 2 7.36314 1.47547 4.95123
11 2 0.41825 3.39124 0.734556
12 2 4.36087 6.27218 7.83582
13 2 7.0934 6.85669 1.94383
14 2 6.61475 2.79643 6.62393
15 2 8.72052 1.97026 2.33427
16 2 4.94485 7.68244 6.09662
17 5 1.0781 0.741297 5.22215
18 5 3.70169 8.95406 3.28925
19 5 1.5745 5.59132 7.54986
20 5 3.14459 4.09938 0.990607
21 5 3.20355 0.293323 5.74155
22 5 1.53765 9.39409 2.7512
23 5 8.47101 5.10689 7.08182
24 5 5.26782 4.53711 1.48405
25 3 8.07543 7.7312 2.19445
26 3 5.59812 1.89934 6.36415
27 3 7.69639 2.88443 2.07774
28 3 5.98487 6.79893 6.41422
29 3 6.13371 7.13772 2.78293
30 3 7.55487 2.46811 5.77997
31 3 0.750988 2.34181 1.49989
32 3 3.96746 7.39539 6.99008
33 6 2.28098 0.316911 5.02265
34 6 2.50336 9.36231 3.53499
35 6 0.409789 5.15936 7.78835
36 6 4.3275 4.50719 0.714935
37 4 0.190083 7.72123 1.7781
38 4 4.59781 1.80816 6.80909
39 4 6.69201 2.99185 2.42622
40 4 7.01064 6.84799 6.09406
41 4 5.12566 6.73271 2.78273
42 4 8.59497 2.78848 5.72917
43 4 1.68761 1.83573 1.46435
44 4 3.01597 7.9502 7.09809
45 1 4.52926 0.521192 12.2887
46 1 0.886781 9.15103 13.3162
47 1 2.96709 5.34873 9.03804
48 1 2.44362 4.28459 16.5615
49 2 3.54215 8.55005 11.7771
50 2 1.79575 1.07179 13.8568
51 2 3.93981 3.76665 9.69378
52 2 1.48509 5.9675 15.9721
53 2 2.2129 8.2185 11.9888
54 2 3.14341 1.3597 13.5978
55 2 5.27037 3.3627 9.28547
56 2 9.12858 6.3276 16.3693
57 2 2.93439 6.82337 10.4542
58 2 2.45028 2.8648 15.2157
59 2 4.50251 1.91441 10.8757
60 2 0.852513 7.64131 14.6809
61 5 5.83654 0.687514 13.7647
62 5 8.47593 9.029 11.9194
63 5 6.35281 5.597 16.1629
64 5 7.97984 4.05853 9.49932
65 5 7.96269 0.296811 14.2965
66 5 6.30633 9.40733 11.3015
67 5 4.25211 5.12309 15.627
68 5 1.13922 4.54196 10.0376
69 3 4.04892 7.58 10.9616
70 3 1.47325 1.91782 14.8488
71 3 3.54382 2.88022 10.5855
72 3 1.85619 6.82295 15.0309
73 3 1.93435 7.15196 11.2943
74 3 3.42189 2.48319 14.3178
75 3 5.55552 2.3487 9.99873
76 3 8.78442 7.35163 15.5407
77 6 6.98008 0.302667 13.5059
78 6 7.26009 9.34036 12.1449
79 6 5.20057 5.21118 16.3297
80 6 9.14208 4.51609 9.26618
81 4 4.85094 7.70268 10.2235
82 4 9.46309 1.90667 15.3779
83 4 2.60803 2.98417 11.204
84 4 2.72913 6.76213 14.3536
85 4 0.955286 6.66032 11.2654
86 4 4.39939 2.85566 14.3307
87 4 6.47263 1.72749 10.0515
88 4 7.84257 7.7788 15.6423
89 1 8.66049 10.232 3.73892
90 1 5.03549 18.869 4.76399
91 1 7.10399 15.0869 0.510205
92 1 6.60125 14.0038 8.01989
93 2 7.71711 18.3233 3.14589
94 2 5.9411 10.9467 5.29904
95 2 8.10135 13.4213 1.05179
96 2 5.59995 15.6739 7.35633
97 2 6.40612 18.0055 3.47246
98 2 7.31075 11.2071 4.9737
99 2 0.426409 13.0766 0.724428
100 2 4.34449 16.0913 7.78843
101 2 7.11633 16.5716 1.85566
102 2 6.61899 12.549 6.58397
103 2 8.62978 11.7126 2.36428
104 2 5.0036 17.391 6.18734
105 5 1.12329 10.4474 5.19996
106 5 3.65028 18.7359 3.28806
107 5 1.59182 15.3088 7.57564
108 5 3.20205 13.8401 0.940022
109 5 3.19336 10.0221 5.81153
110 5 1.51518 19.0886 2.72381
111 5 8.38214 14.868 7.01507
112 5 5.28546 14.2574 1.48921
113 3 8.07707 17.4816 2.18634
114 3 5.65034 11.6522 6.33127
115 3 7.69733 12.6062 2.06811
116 3 5.97933 16.4747 6.4535
117 3 6.10477 16.8918 2.7648
118 3 7.64375 12.2274 5.76811
119 3 0.687632 12.0145 1.53599
120 3 4.01035 17.09 6.9582
121 6 2.2728 10.0435 4.97667
122 6 2.54834 19.1184 3.48914
123 6 0.39884 14.8873 7.85254
124 6 4.31496 14.256 0.712162
125 4 0.140063 17.3356 1.73631
126 4 4.63189 11.6524 6.61557
127 4 6.73694 12.5 2.63893
128 4 6.9237 16.3238 6.07926
129 4 5.23216 16.2451 2.66211
130 4 8.64607 12.8304 5.70569
131 4 1.64948 11.4249 1.43628
132 4 3.0567 17.6627 7.10634
133 1 4.49165 10.2256 12.2723
134 1 0.874999 18.8554 13.3498
135 1 2.93449 15.064 9.06633
136 1 2.42746 14.0139 16.554
137 2 3.46727 18.3218 11.7284
138 2 1.88324 10.7785 13.921
139 2 3.94324 13.4075 9.64214
140 2 1.49449 15.6616 15.9261
141 2 2.19563 17.9972 12.0706
142 2 3.14642 11.1284 13.5676
143 2 5.16662 13.0782 9.28461
144 2 9.13574 16.0073 16.3576
145 2 2.97811 16.5489 10.4224
146 2 2.4292 12.5272 15.1422
147 2 4.56715 11.7638 10.9216
148 2 0.82023 17.4212 14.7524
149 5 5.91304 10.3993 13.7686
150 5 8.49061 18.7001 11.8366
151 5 6.3388 15.3314 16.1437
152 5 7.99224 13.818 9.47054
153 5 8.01342 10.0243 14.2959
154 5 6.31789 19.0659 11.307
155 5 4.30052 14.9102 15.608
156 5 1.18205 14.2116 10.0447
157 3 3.98474 17.4054 10.756
158 3 1.51212 11.6296 14.9076
159 3 3.60505 12.6003 10.6147
160 3 1.78958 16.4733 15.0456
161 3 1.9202 16.9103 11.2535
162 3 3.43284 12.1995 14.3692
163 3 5.50552 12.0392 10.0307
164 3 8.83854 17.0507 15.5985
165 6 7.0392 9.94652 13.5138
166 6 7.29482 19.065 12.1114
167 6 5.24543 14.8696 16.3695
168 6 9.16851 14.3163 9.23308
169 4 4.908 17.3545 10.187
170 4 0.588391 11.6951 15.5202
171 4 2.69293 12.7581 11.2956
172 4 2.75332 16.5272 14.6059
173 4 0.993769 16.3602 11.4203
174 4 4.40793 12.7184 14.1749
175 4 6.39776 11.5483 9.99743
176 4 7.85085 17.6087 15.5606
177 7 3.04427 9.61402 9.87128
178 8 3.27791 8.84713 9.02201
179 8 2.60464 10.4182 10.6149
180 7 9.05307 11.6426 10.6207
181 8 8.32575 11.3972 11.4761
182 8 0.783439 11.9615 9.70086
183 7 7.23152 6.71986 9.97834
184 8 7.33284 6.26362 8.99252
185 8 7.12745 7.24498 10.9659
186 7 1.83068 10.5582 7.94582
187 8 1.0629 9.81599 7.49046
188 8 2.56868 11.2761 8.41213
189 7 6.30107 9.05076 7.22225
190 8 6.96188 9.1683 6.34978
191 8 5.67868 8.77324 8.11362
192 7 9.12977 7.74761 7.01472
193 8 0.958965 7.4137 6.19862
194 8 8.30972 7.97654 7.81611
195 7 0.965638 8.32393 9.52547
196 8 1.07673 7.20916 9.07476
197 8 0.734372 9.35292 9.93296
198 7 7.75282 10.3579 8.519
199 8 8.15213 11.0868 7.78872
200 8 7.45647 9.52372 9.25515
201 7 6.13711 14.5978 12.4546
202 8 6.04641 15.3842 13.2812
203 8 6.19593 13.9697 11.4744
204 7 7.01196 13.5154 14.6566
205 8 7.78869 13.906 13.8606
206 8 6.38586 12.9768 15.492
207 7 6.15184 4.48721 13.1763
208 8 5.59003 4.81267 12.2617
209 8 6.75908 4.06755 14.0987
210 7 8.901 4.23838 12.7319
211 8 9.12337 4.83159 13.6614
212 8 8.68972 3.45058 11.9015
213 7 3.71244 4.70854 5.40026
214 8 3.04089 3.91158 5.91215
215 8 4.2689 5.52525 4.92709
216 7 4.26812 2.35382 2.83505
217 8 4.28401 1.88099 1.80899
218 8 4.24971 2.72122 3.87545
219 7 2.30656 13.5608 4.63153
220 8 2.03745 13.5931 5.74618
221 8 2.64271 13.554 3.55612
222 7 3.79272 15.6157 4.88302
223 8 4.81668 15.052 4.91053
224 8 2.79704 16.1939 4.81167
ITEM: TIMESTEP
22
ITEM: NUMBER OF ATOMS
224
ITEM: BOX BOUNDS xy xz yz pp pp pp
-1.3214043109352147e-02 9.5592668363286091e+00 0.0000000000000000e+00
-2.8739778334752941e-02 1.9415738878334754e+01 6.3225259321925897e-01
-2.5294349126005145e-02 1.7088109449126001e+01 0.0000000000000000e+00
ITEM: ATOMS id type x y z
1 1 8.68579 0.510454 3.71669
2 1 5.0113 9.16599 4.77566
3 1 7.08937 5.38871 0.473248
4 1 6.5983 4.28721 8.02042
5 2 7.6957 8.60212 3.13409
6 2 6.03238 1.09676 5.40511
7 2 8.10622 3.70231 1.08917
8 2 5.59889 5.94679 7.38852
9 2 6.46484 8.22693 3.53119
10 2 7.36647 1.47471 4.94758
11 2 0.417567 3.39071 0.732226
12 2 4.36123 6.27083 7.83826
13 2 7.09395 6.8555 1.94378
14 2 6.61543 2.79419 6.62467
15 2 8.72313 1.96714 2.33315
16 2 4.94008 7.68122 6.0906
17 5 1.07779 0.739895 5.22164
18 5 3.70193 8.95442 3.28792
19 5 1.57245 5.58943 7.54837
20 5 3.14408 4.09893 0.991008
21 5 3.20202 0.291139 5.73998
22 5 1.53784 9.39487 2.75053
23 5 8.47539 5.10347 7.08356
24 5 5.26587 4.53693 1.48195
25 3 8.07679 7.73022 2.19382
26 3 5.5976 1.89667 6.36505
27 3 7.69784 2.88268 2.07669
28 3 5.98386 6.79826 6.41193
29 3 6.13623 7.13547 2.78426
30 3 7.55385 2.46556 5.77901
31 3 0.749937 2.34097 1.49833
32 3 3.9648 7.39577 6.98877
33 6 2.27978 0.316446 5.02323
34 6 2.50393 9.36076 3.5333
35 6 0.410256 5.15851 7.78751
36 6 4.32604 4.50498 0.713817
37 4 0.186079 7.71488 1.78179
38 4 4.59746 1.80605 6.80946
39 4 6.68938 2.98861 2.42332
40 4 7.0146 6.85321 6.09619
41 4 5.12504 6.73386 2.7809
42 4 8.59692 2.78064 5.73155
43 4 1.68924 1.83386 1.46206
44 4 3.01845 7.95095 7.09671
45 1 4.53008 0.518913 12.2899
46 1 0.886153 9.15115 13.3166
47 1 2.96719 5.34611 9.03735
48 1 2.44352 4.28323 16.5635
49 2 3.54327 8.54641 11.7839
50 2 1.79254 1.06895 13.8547
51 2 3.94067 3.76734 9.69561
52 2 1.48544 5.96733 15.9745
53 2 2.21007 8.21779 11.9879
54 2 3.14348 1.35399 13.6002
55 2 5.27285 3.36172 9.28483
56 2 9.13 6.32812 16.3732
57 2 2.9352 6.82015 10.4564
58 2 2.44989 2.86517 15.2194
59 2 4.5019 1.90929 10.8752
60 2 0.850595 7.63977 14.6799
61 5 5.83549 0.683741 13.7656
62 5 8.47698 9.03258 11.9246
63 5 6.35156 5.59703 16.1664
64 5 7.98303 4.05524 9.4998
65 5 7.96034 0.294835 14.2964
66 5 6.30633 9.40945 11.3038
67 5 4.2528 5.12077 15.6309
68 5 1.13757 4.54201 10.0374
69 3 4.05524 7.56831 10.9767
70 3 1.47292 1.91633 14.8489
71 3 3.5432 2.87772 10.5854
72 3 1.85612 6.82456 15.0334
73 3 1.93456 7.14905 11.2969
74 3 3.41932 2.48116 14.3188
75 3 5.55635 2.34669 9.998
76 3 8.78572 7.35077 15.5416
77 6 6.97802 0.301514 13.5069
78 6 7.25952 9.33754 12.1482
79 6 5.20085 5.21306 16.3311
80 6 9.14356 4.51354 9.26712
81 4 4.85472 7.69781 10.2248
82 4 9.46466 1.90674 15.3794
83 4 2.61376 2.98375 11.2067
84 4 2.72385 6.76172 14.3493
85 4 0.952642 6.6595 11.2658
86 4 4.40473 2.8501 14.3351
87 4 6.47191 1.72565 10.0502
88 4 7.83658 7.77989 15.6443
89 1 8.66132 10.2317 3.73817
90 1 5.03569 18.8714 4.76238
91 1 7.10433 15.0875 0.508661
92 1 6.60237 14.0048 8.02036
93 2 7.71919 18.3267 3.14534
94 2 5.93687 10.9564 5.29225
95 2 8.10242 13.4215 1.04803
96 2 5.59944 15.6753 7.35434
97 2 6.40599 18.0102 3.47056
98 2 7.31251 11.2104 4.97021
99 2 0.425879 13.0768 0.72171
100 2 4.34472 16.096 7.78923
101 2 7.11755 16.5732 1.85244
102 2 6.61972 12.5515 6.58213
103 2 8.62874 11.7127 2.36449
104 2 5.00347 17.3937 6.1869
105 5 1.12457 10.4481 5.19768
106 5 3.64921 18.7411 3.28635
107 5 1.58988 15.3105 7.5761
108 5 3.20362 13.8426 0.93816
109 5 3.19088 10.0227 5.81246
110 5 1.51475 19.0905 2.72205
111 5 8.38335 14.869 7.01518
112 5 5.28408 14.2595 1.48721
113 3 8.07805 17.4837 2.18484
114 3 5.65205 11.6535 6.33044
115 3 7.69788 12.6067 2.06729
116 3 5.97877 16.4762 6.45414
117 3 6.10674 16.8927 2.76392
118 3 7.64664 12.2305 5.76575
119 3 0.684421 12.0136 1.53578
120 3 4.00964 17.0933 6.95631
121 6 2.27259 10.0457 4.9763
122 6 2.54886 19.1216 3.48584
123 6 0.397722 14.8907 7.85267
124 6 4.31431 14.2576 0.711369
125 4 0.139272 17.3303 1.73886
126 4 4.62736 11.6601 6.60935
127 4 6.73999 12.4958 2.63779
128 4 6.92937 16.3231 6.07718
129 4 5.23389 16.2438 2.65908
130 4 8.63882 12.8291 5.70391
131 4 1.64064 11.4236 1.43441
132 4 3.06088 17.6675 7.10752
133 1 4.49073 10.225 12.2727
134 1 0.873801 18.8571 13.3517
135 1 2.93304 15.0635 9.06695
136 1 2.42662 14.0153 16.5556
137 2 3.46461 18.3248 11.7306
138 2 1.8835 10.7773 13.9221
139 2 3.94309 13.4074 9.64197
140 2 1.49484 15.6622 15.927
141 2 2.19174 18.0012 12.0726
142 2 3.14702 11.1275 13.5686
143 2 5.16547 13.0784 9.28357
144 2 9.1377 16.008 16.3612
145 2 2.979 16.5492 10.4215
146 2 2.42804 12.5283 15.1433
147 2 4.57056 11.7668 10.9243
148 2 0.817567 17.4243 14.7549
149 5 5.91567 10.3974 13.7696
150 5 8.49235 18.704 11.8371
151 5 6.33719 15.335 16.1467
152 5 7.99604 13.82 9.46942
153 5 8.01365 10.025 14.2957
154 5 6.3192 19.0667 11.3087
155 5 4.30364 14.9134 15.6115
156 5 1.18223 14.2127 10.0447
157 3 3.98654 17.4046 10.7583
158 3 1.51314 11.6295 14.9101
159 3 3.60727 12.602 10.616
160 3 1.78604 16.4748 15.0482
161 3 1.91927 16.9128 11.2527
162 3 3.43211 12.1996 14.3717
163 3 5.50355 12.0393 10.0298
164 3 8.84059 17.0526 15.6017
165 6 7.03919 9.94449 13.5156
166 6 7.29617 19.065 12.1122
167 6 5.24636 14.8726 16.372
168 6 9.17028 14.3206 9.23367
169 4 4.91124 17.3509 10.1855
170 4 0.592534 11.6986 15.5256
171 4 2.70546 12.7632 11.3018
172 4 2.75362 16.533 14.6097
173 4 0.993338 16.3591 11.4239
174 4 4.40079 12.7186 14.1731
175 4 6.40022 11.5475 9.99667
176 4 7.85748 17.6071 15.5622
177 7 3.04451 9.61805 9.86945
178 8 3.27409 8.85523 9.01175
179 8 2.59927 10.4183 10.6145
180 7 9.05537 11.6425 10.6209
181 8 8.32629 11.4017 11.4771
182 8 0.782045 11.9596 9.69967
183 7 7.23192 6.71872 9.97871
184 8 7.33316 6.26408 8.99372
185 8 7.12741 7.24285 10.9635
186 7 1.83048 10.5583 7.94591
187 8 1.06214 9.81581 7.49322
188 8 2.56973 11.2767 8.41105
189 7 6.30165 9.05454 7.22381
190 8 6.96527 9.16042 6.35172
191 8 5.67989 8.77767 8.11528
192 7 9.13267 7.74751 7.014
193 8 0.958633 7.41053 6.19638
194 8 8.31108 7.97471 7.81517
195 7 0.96669 8.32331 9.52499
196 8 1.07261 7.20963 9.07337
197 8 0.734545 9.35353 9.93382
198 7 7.75219 10.3582 8.52016
199 8 8.1552 11.086 7.79146
200 8 7.45791 9.52268 9.25295
201 7 6.13808 14.5972 12.4564
202 8 6.04818 15.3893 13.2802
203 8 6.19476 13.9722 11.4753
204 7 7.01178 13.518 14.6559
205 8 7.79194 13.9071 13.8604
206 8 6.38929 12.9733 15.4919
207 7 6.15223 4.48681 13.1796
208 8 5.58952 4.81168 12.2629
209 8 6.75977 4.06516 14.0999
210 7 8.90183 4.24018 12.731
211 8 9.12549 4.83075 13.6632
212 8 8.68999 3.44815 11.9049
213 7 3.70998 4.7045 5.40015
214 8 3.03796 3.91093 5.91206
215 8 4.26567 5.52339 4.92488
216 7 4.26936 2.3525 2.83221
217 8 4.28599 1.8782 1.80831
218 8 4.25019 2.71775 3.87441
219 7 2.30543 13.5595 4.63083
220 8 2.0385 13.5926 5.74539
221 8 2.64329 13.553 3.55522
222 7 3.79172 15.6165 4.88153
223 8 4.81456 15.0497 4.90584
224 8 2.79651 16.1984 4.81057
ITEM: TIMESTEP
23
ITEM: NUMBER OF ATOMS
224
ITEM: BOX BOUNDS xy xz yz pp pp pp
-1.4345975186095927e-02 9.5605588687893590e+00 0.0000000000000000e+00
-3.1201665034107151e-02 1.9418200765034108e+01 6.3241269360326646e-01
-2.7461095889211862e-02 1.7090276195889210e+01 0.0000000000000000e+00
ITEM: ATOMS id type x y z
1 1 8.68778 0.507748 3.71493
2 1 5.0104 9.16679 4.77461
3 1 7.08907 5.38798 0.470073
4 1 6.59929 4.28593 8.02089
5 2 7.69717 8.60302 3.13288
6 2 6.03446 1.09474 5.40512
7 2 8.10746 3.7004 1.08703
8 2 5.59799 5.94537 7.38655
9 2 6.46698 8.2264 3.53181
10 2 7.36968 1.47381 4.94397
11 2 0.416912 3.39012 0.72982
12 2 4.36151 6.26956 7.8406
13 2 7.09456 6.85419 1.94359
14 2 6.61604 2.79193 6.62547
15 2 8.72569 1.96394 2.33203
16 2 4.93528 7.67994 6.08448
17 5 1.07755 0.738387 5.22113
18 5 3.70206 8.9548 3.28655
19 5 1.57036 5.58736 7.54684
20 5 3.14364 4.09847 0.991331
21 5 3.20052 0.288874 5.73844
22 5 1.53803 9.39564 2.74983
23 5 8.47971 5.09998 7.08518
24 5 5.26393 4.53671 1.47979
25 3 8.0782 7.72925 2.19312
26 3 5.59714 1.89397 6.36594
27 3 7.69941 2.88087 2.07555
28 3 5.98278 6.7975 6.40961
29 3 6.13874 7.13325 2.7856
30 3 7.55296 2.46295 5.77796
31 3 0.748848 2.34008 1.4967
32 3 3.96215 7.39596 6.98747
33 6 2.2784 0.315881 5.0236
34 6 2.50456 9.3592 3.53158
35 6 0.410902 5.15754 7.7868
36 6 4.32448 4.50274 0.712551
37 4 0.181529 7.70837 1.78548
38 4 4.59732 1.80412 6.80993
39 4 6.68676 2.98488 2.42071
40 4 7.01854 6.85833 6.09803
41 4 5.12449 6.73488 2.77894
42 4 8.59877 2.77318 5.73428
43 4 1.69103 1.83187 1.45959
44 4 3.02117 7.95138 7.09495
45 1 4.5309 0.516552 12.291
46 1 0.88549 9.15126 13.317
47 1 2.96727 5.34346 9.03667
48 1 2.4434 4.28183 16.5656
49 2 3.54444 8.54264 11.7908
50 2 1.78935 1.06601 13.8527
51 2 3.94162 3.76798 9.6974
52 2 1.48572 5.96708 15.977
53 2 2.20724 8.21711 11.9871
54 2 3.14351 1.34821 13.6026
55 2 5.27526 3.36079 9.28417
56 2 9.13147 6.32861 16.3772
57 2 2.93619 6.81683 10.4589
58 2 2.44946 2.86543 15.2231
59 2 4.50132 1.90417 10.8747
60 2 0.848632 7.63828 14.6789
61 5 5.83447 0.679885 13.7666
62 5 8.47797 9.03614 11.9299
63 5 6.3503 5.59705 16.17
64 5 7.98632 4.05187 9.5003
65 5 7.95798 0.292782 14.2963
66 5 6.30634 9.41161 11.3062
67 5 4.25347 5.11842 15.6348
68 5 1.13591 4.54203 10.0373
69 3 4.06147 7.55652 10.9918
70 3 1.47259 1.91483 14.849
71 3 3.54257 2.8751 10.5854
72 3 1.85604 6.82618 15.0359
73 3 1.93481 7.14604 11.2997
74 3 3.41671 2.47905 14.3199
75 3 5.55712 2.34446 9.99745
76 3 8.78712 7.34984 15.5425
77 6 6.97605 0.300259 13.508
78 6 7.25898 9.33469 12.1515
79 6 5.20117 5.21484 16.3327
80 6 9.14501 4.51091 9.268
81 4 4.85852 7.69306 10.2266
82 4 9.4662 1.90671 15.3807
83 4 2.61979 2.98323 11.2091
84 4 2.7185 6.76107 14.3454
85 4 0.950018 6.65878 11.2665
86 4 4.4104 2.84468 14.3396
87 4 6.4712 1.72415 10.0486
88 4 7.83027 7.78138 15.6461
89 1 8.66217 10.2314 3.73739
90 1 5.03589 18.8739 4.76075
91 1 7.1047 15.0882 0.507045
92 1 6.6035 14.0058 8.02081
93 2 7.72127 18.3302 3.14477
94 2 5.93269 10.9661 5.2853
95 2 8.10347 13.4218 1.04422
96 2 5.5989 15.6767 7.35244
97 2 6.40586 18.0151 3.46864
98 2 7.31425 11.2137 4.96667
99 2 0.425347 13.077 0.71893
100 2 4.34495 16.1007 7.79001
101 2 7.11877 16.5749 1.8492
102 2 6.62042 12.5542 6.58028
103 2 8.62774 11.7126 2.36469
104 2 5.00343 17.3965 6.18638
105 5 1.12586 10.4489 5.19533
106 5 3.64817 18.7464 3.28454
107 5 1.58781 15.3122 7.57657
108 5 3.20516 13.8452 0.936245
109 5 3.18838 10.0232 5.81332
110 5 1.51436 19.0926 2.72028
111 5 8.38464 14.87 7.01534
112 5 5.28268 14.2616 1.48514
113 3 8.07906 17.4859 2.18321
114 3 5.65376 11.6548 6.32958
115 3 7.69845 12.6073 2.06644
116 3 5.97823 16.4779 6.45481
117 3 6.1088 16.8936 2.76288
118 3 7.64958 12.2337 5.76327
119 3 0.681234 12.0128 1.53547
120 3 4.00889 17.0965 6.95451
121 6 2.27234 10.048 4.97586
122 6 2.54919 19.125 3.48259
123 6 0.39667 14.8942 7.85268
124 6 4.31373 14.2593 0.710474
125 4 0.138336 17.3253 1.7416
126 4 4.62267 11.6684 6.60342
127 4 6.74316 12.4921 2.63609
128 4 6.93547 16.323 6.0745
129 4 5.23536 16.2431 2.65647
130 4 8.63083 12.8274 5.70209
131 4 1.63135 11.4225 1.43256
132 4 3.06543 17.6723 7.10859
133 1 4.48982 10.2244 12.2732
134 1 0.872569 18.859 13.3537
135 1 2.93159 15.0631 9.06758
136 1 2.42577 14.0168 16.5573
137 2 3.46204 18.3278 11.7328
138 2 1.88371 10.776 13.9232
139 2 3.94288 13.4075 9.64181
140 2 1.49508 15.6627 15.9281
141 2 2.1878 18.0052 12.0745
142 2 3.14764 11.1266 13.5697
143 2 5.16441 13.0787 9.28248
144 2 9.13973 16.0088 16.3647
145 2 2.97987 16.5495 10.4207
146 2 2.42687 12.5296 15.1445
147 2 4.57404 11.7698 10.9271
148 2 0.814952 17.4275 14.7573
149 5 5.91833 10.3956 13.7708
150 5 8.49404 18.7081 11.8377
151 5 6.33559 15.3386 16.1498
152 5 7.99996 13.8221 9.46829
153 5 8.01389 10.0257 14.2955
154 5 6.32057 19.0676 11.3104
155 5 4.30674 14.9166 15.615
156 5 1.18237 14.2139 10.0447
157 3 3.98822 17.4038 10.7606
158 3 1.5141 11.6295 14.9127
159 3 3.60944 12.6039 10.6173
160 3 1.78248 16.4764 15.0507
161 3 1.91835 16.9154 11.2519
162 3 3.43142 12.1996 14.3743
163 3 5.50154 12.0394 10.0289
164 3 8.84259 17.0545 15.6049
165 6 7.03919 9.94249 13.5176
166 6 7.29756 19.0651 12.113
167 6 5.24721 14.8757 16.3747
168 6 9.17193 14.3249 9.23437
169 4 4.91463 17.3476 10.1843
170 4 0.596661 11.7018 15.5307
171 4 2.7185 12.7682 11.3076
172 4 2.75417 16.5388 14.6134
173 4 0.992982 16.3579 11.4273
174 4 4.39318 12.7189 14.1716
175 4 6.40324 11.5467 9.99588
176 4 7.86448 17.6052 15.5642
177 7 3.04467 9.62218 9.86757
178 8 3.27027 8.86342 9.0015
179 8 2.59385 10.4184 10.6141
180 7 9.05773 11.6423 10.6211
181 8 8.32688 11.4064 11.478
182 8 0.780595 11.9576 9.69856
183 7 7.23235 6.71763 9.97918
184 8 7.33351 6.26451 8.99482
185 8 7.12738 7.2406 10.9612
186 7 1.8302 10.5585 7.94596
187 8 1.06138 9.81562 7.496
188 8 2.57082 11.2774 8.40994
189 7 6.30225 9.05835 7.22549
190 8 6.96886 9.1525 6.35355
191 8 5.68105 8.78215 8.1171
192 7 9.13561 7.74739 7.01326
193 8 0.958234 7.40741 6.19407
194 8 8.3125 7.97286 7.81415
195 7 0.967669 8.3225 9.52438
196 8 1.06838 7.21027 9.072
197 8 0.734698 9.35417 9.93467
198 7 7.75158 10.3584 8.52144
199 8 8.15837 11.0852 7.7942
200 8 7.45938 9.52165 9.25074
201 7 6.13904 14.5966 12.4582
202 8 6.04993 15.3945 13.2794
203 8 6.19364 13.9748 11.4763
204 7 7.01167 13.5205 14.6552
205 8 7.79521 13.9081 13.8602
206 8 6.39279 12.9698 15.4918
207 7 6.15272 4.4863 13.183
208 8 5.58897 4.81068 12.264
209 8 6.76045 4.06273 14.1011
210 7 8.90269 4.24183 12.7301
211 8 9.12769 4.82992 13.6652
212 8 8.69028 3.44566 11.9083
213 7 3.70737 4.70025 5.40011
214 8 3.03502 3.91022 5.91195
215 8 4.26251 5.52158 4.92251
216 7 4.2706 2.35107 2.82921
217 8 4.28797 1.87529 1.80749
218 8 4.25066 2.7143 3.87349
219 7 2.30427 13.5582 4.63015
220 8 2.03952 13.5922 5.7446
221 8 2.64387 13.552 3.55419
222 7 3.79076 15.6174 4.87998
223 8 4.81238 15.0473 4.90105
224 8 2.79595 16.2029 4.80943
ITEM: TIMESTEP
24
ITEM: NUMBER OF ATOMS
224
ITEM: BOX BOUNDS xy xz yz pp pp pp
-1.5515358852360883e-02 9.5618936499895124e+00 0.0000000000000000e+00
-3.3745006771276564e-02 1.9420744106771277e+01 6.3257809113715369e-01
-2.9699532563890685e-02 1.7092514632563891e+01 0.0000000000000000e+00
ITEM: ATOMS id type x y z
1 1 8.68981 0.504966 3.71313
2 1 5.00951 9.16759 4.77352
3 1 7.08878 5.38722 0.466835
4 1 6.60031 4.2846 8.02136
5 2 7.6987 8.60396 3.13165
6 2 6.03664 1.09259 5.40501
7 2 8.10869 3.69851 1.08483
8 2 5.59708 5.94385 7.38452
9 2 6.46907 8.22585 3.53238
10 2 7.37277 1.47279 4.94038
11 2 0.416286 3.38947 0.727341
12 2 4.36169 6.26837 7.84284
13 2 7.09523 6.85277 1.94326
14 2 6.61659 2.78965 6.62632
15 2 8.72821 1.96065 2.3309
16 2 4.93045 7.67861 6.07825
17 5 1.07737 0.736777 5.2206
18 5 3.70209 8.95519 3.28513
19 5 1.56822 5.58512 7.54527
20 5 3.14326 4.098 0.991579
21 5 3.19907 0.28653 5.73694
22 5 1.53822 9.3964 2.74909
23 5 8.48397 5.09643 7.08666
24 5 5.26201 4.53645 1.47756
25 3 8.07967 7.72828 2.19237
26 3 5.59674 1.89124 6.36681
27 3 7.70108 2.87899 2.07431
28 3 5.98163 6.79667 6.40727
29 3 6.14125 7.13107 2.78694
30 3 7.55223 2.46029 5.77683
31 3 0.747724 2.33911 1.49502
32 3 3.95951 7.39596 6.98619
33 6 2.27684 0.315215 5.02374
34 6 2.50525 9.35764 3.52985
35 6 0.411724 5.15644 7.78623
36 6 4.32284 4.50049 0.711136
37 4 0.17649 7.70168 1.78917
38 4 4.59738 1.80237 6.81049
39 4 6.6842 2.98064 2.41839
40 4 7.02241 6.86333 6.09958
41 4 5.12402 6.73579 2.77687
42 4 8.60047 2.76607 5.73736
43 4 1.69296 1.82978 1.45695
44 4 3.02406 7.9515 7.09281
45 1 4.53171 0.514112 12.2922
46 1 0.884794 9.15137 13.3175
47 1 2.96733 5.34076 9.036
48 1 2.44327 4.28039 16.5677
49 2 3.54565 8.53876 11.7979
50 2 1.7862 1.06298 13.8507
51 2 3.94265 3.76859 9.69913
52 2 1.48596 5.96675 15.9796
53 2 2.2044 8.21643 11.9864
54 2 3.1435 1.34239 13.6051
55 2 5.27758 3.3599 9.28349
56 2 9.13298 6.32907 16.3812
57 2 2.93734 6.81341 10.4615
58 2 2.44899 2.8656 15.2268
59 2 4.50077 1.89904 10.8742
60 2 0.846626 7.63685 14.678
61 5 5.83348 0.675948 13.7677
62 5 8.47891 9.03968 11.9353
63 5 6.34904 5.59706 16.1736
64 5 7.98972 4.04842 9.50081
65 5 7.95561 0.290656 14.2962
66 5 6.30636 9.41383 11.3087
67 5 4.2541 5.11604 15.6386
68 5 1.13424 4.54201 10.0371
69 3 4.0676 7.54464 11.0068
70 3 1.47226 1.91335 14.8493
71 3 3.54192 2.87235 10.5856
72 3 1.85595 6.82782 15.0383
73 3 1.93509 7.14291 11.3025
74 3 3.41406 2.47687 14.3211
75 3 5.55785 2.342 9.99708
76 3 8.7886 7.34884 15.5436
77 6 6.97419 0.298903 13.5091
78 6 7.25847 9.33184 12.1549
79 6 5.20152 5.21649 16.3346
80 6 9.14644 4.50819 9.26881
81 4 4.86229 7.68844 10.2289
82 4 9.46771 1.90658 15.382
83 4 2.62608 2.98261 11.2113
84 4 2.71308 6.76018 14.3418
85 4 0.947434 6.65817 11.2674
86 4 4.41633 2.83935 14.3443
87 4 6.47052 1.72298 10.0466
88 4 7.82372 7.78321 15.6479
89 1 8.66306 10.2311 3.73656
90 1 5.0361 18.8765 4.75909
91 1 7.1051 15.089 0.50536
92 1 6.60466 14.0069 8.02126
93 2 7.72337 18.3337 3.14418
94 2 5.92857 10.9758 5.2782
95 2 8.10449 13.4222 1.04038
96 2 5.59833 15.6781 7.35065
97 2 6.40573 18.0199 3.46669
98 2 7.31596 11.217 4.9631
99 2 0.424815 13.0772 0.716091
100 2 4.34516 16.1055 7.79077
101 2 7.12 16.5766 1.84595
102 2 6.62107 12.5569 6.57843
103 2 8.62679 11.7125 2.36486
104 2 5.00348 17.3995 6.18576
105 5 1.12714 10.4497 5.19293
106 5 3.64716 18.7518 3.28264
107 5 1.58562 15.314 7.57706
108 5 3.20668 13.8478 0.934278
109 5 3.18587 10.0237 5.8141
110 5 1.51403 19.0947 2.7185
111 5 8.38601 14.8711 7.01556
112 5 5.28126 14.2637 1.48299
113 3 8.0801 17.488 2.18147
114 3 5.65546 11.6563 6.32871
115 3 7.69905 12.6078 2.06556
116 3 5.97771 16.4798 6.45551
117 3 6.11096 16.8945 2.76169
118 3 7.65256 12.237 5.76068
119 3 0.67807 12.012 1.53506
120 3 4.00808 17.0999 6.95282
121 6 2.27208 10.0502 4.97536
122 6 2.54932 19.1286 3.47939
123 6 0.395684 14.8978 7.85256
124 6 4.31323 14.2611 0.709473
125 4 0.137262 17.3206 1.74456
126 4 4.6179 11.677 6.59776
127 4 6.74642 12.4887 2.63384
128 4 6.94192 16.3233 6.07126
129 4 5.23658 16.243 2.65428
130 4 8.62222 12.8252 5.70022
131 4 1.62167 11.4217 1.43072
132 4 3.07033 17.6772 7.10954
133 1 4.48892 10.2238 12.2736
134 1 0.871301 18.8609 13.3557
135 1 2.93012 15.0628 9.0682
136 1 2.42491 14.0183 16.559
137 2 3.45957 18.331 11.7349
138 2 1.88386 10.7747 13.9243
139 2 3.94262 13.4077 9.64165
140 2 1.49521 15.6631 15.9294
141 2 2.18383 18.0092 12.0765
142 2 3.14827 11.1257 13.5709
143 2 5.16345 13.079 9.28132
144 2 9.14183 16.0096 16.3684
145 2 2.98069 16.5499 10.4198
146 2 2.4257 12.5309 15.1458
147 2 4.57757 11.7728 10.93
148 2 0.812388 17.4307 14.7598
149 5 5.92102 10.3938 13.7719
150 5 8.49569 18.7122 11.8382
151 5 6.33403 15.3424 16.153
152 5 8.00399 13.8243 9.46717
153 5 8.01414 10.0263 14.2954
154 5 6.322 19.0686 11.3121
155 5 4.30981 14.9198 15.6186
156 5 1.18247 14.2152 10.0447
157 3 3.98977 17.4031 10.763
158 3 1.51502 11.6294 14.9154
159 3 3.61157 12.6058 10.6188
160 3 1.7789 16.4783 15.0532
161 3 1.91745 16.9182 11.2512
162 3 3.43079 12.1995 14.3768
163 3 5.49949 12.0395 10.0281
164 3 8.84452 17.0566 15.6081
165 6 7.0392 9.94052 13.5196
166 6 7.29896 19.0653 12.1138
167 6 5.24798 14.8789 16.3776
168 6 9.17348 14.3292 9.23517
169 4 4.91812 17.3448 10.1834
170 4 0.600753 11.7047 15.5354
171 4 2.73198 12.7733 11.3131
172 4 2.75492 16.5447 14.6171
173 4 0.99272 16.3566 11.4306
174 4 4.38515 12.7193 14.1704
175 4 6.40677 11.5457 9.99504
176 4 7.87176 17.603 15.5666
177 7 3.04473 9.62638 9.86565
178 8 3.26645 8.87169 8.99127
179 8 2.58838 10.4184 10.6137
180 7 9.06016 11.6422 10.6212
181 8 8.32754 11.4112 11.4791
182 8 0.779091 11.9554 9.69751
183 7 7.23281 6.71658 9.97977
184 8 7.33387 6.26491 8.9958
185 8 7.12735 7.23823 10.959
186 7 1.82984 10.5586 7.94596
187 8 1.06061 9.81543 7.49881
188 8 2.57194 11.2781 8.40879
189 7 6.30286 9.06219 7.22728
190 8 6.97265 9.14457 6.35526
191 8 5.68216 8.78668 8.11908
192 7 9.13858 7.74724 7.01249
193 8 0.957768 7.40433 6.1917
194 8 8.31398 7.97099 7.81308
195 7 0.968573 8.32153 9.52365
196 8 1.06404 7.21109 9.07065
197 8 0.734833 9.35485 9.93551
198 7 7.75101 10.3586 8.52284
199 8 8.16164 11.0845 7.79694
200 8 7.46087 9.52064 9.24853
201 7 6.14001 14.5961 12.4599
202 8 6.05167 15.3997 13.2785
203 8 6.19256 13.9774 11.4774
204 7 7.01166 13.5231 14.6545
205 8 7.79849 13.9092 13.86
206 8 6.39636 12.9663 15.4916
207 7 6.15331 4.48566 13.1866
208 8 5.58839 4.80968 12.265
209 8 6.76113 4.06025 14.1023
210 7 8.90359 4.24332 12.7291
211 8 9.12994 4.82911 13.6672
212 8 8.6906 3.44312 11.9118
213 7 3.70462 4.69582 5.40016
214 8 3.03206 3.90943 5.91184
215 8 4.25944 5.51982 4.91998
216 7 4.27183 2.34953 2.82609
217 8 4.28996 1.87226 1.80652
218 8 4.25112 2.71086 3.87268
219 7 2.30308 13.5569 4.6295
220 8 2.04052 13.5918 5.74382
221 8 2.64445 13.551 3.55304
222 7 3.78983 15.6183 4.87836
223 8 4.81014 15.045 4.89616
224 8 2.79534 16.2075 4.80824
ITEM: TIMESTEP
25
ITEM: NUMBER OF ATOMS
224
ITEM: BOX BOUNDS xy xz yz pp pp pp
-1.6721156337407450e-02 9.5632699953761140e+00 0.0000000000000000e+00
-3.6367546455011279e-02 1.9423366646455015e+01 6.3274863903870848e-01
-3.2007672647104357e-02 1.7094822772647102e+01 0.0000000000000000e+00
ITEM: ATOMS id type x y z
1 1 8.69187 0.502113 3.71128
2 1 5.00863 9.16839 4.77241
3 1 7.08852 5.38642 0.463538
4 1 6.60134 4.28322 8.02182
5 2 7.7003 8.60492 3.13038
6 2 6.03891 1.09031 5.4048
7 2 8.10989 3.69663 1.08257
8 2 5.59614 5.94222 7.38246
9 2 6.4711 8.22527 3.5329
10 2 7.37573 1.47164 4.93684
11 2 0.415688 3.38875 0.724793
12 2 4.36177 6.26726 7.84497
13 2 7.09596 6.85123 1.94281
14 2 6.61708 2.78736 6.62722
15 2 8.73068 1.95727 2.32976
16 2 4.92561 7.67723 6.07193
17 5 1.07726 0.735067 5.22006
18 5 3.70203 8.95561 3.28366
19 5 1.56604 5.58272 7.54365
20 5 3.14295 4.09752 0.991752
21 5 3.19765 0.28411 5.73546
22 5 1.53841 9.39716 2.74833
23 5 8.48817 5.09283 7.08802
24 5 5.26011 4.53617 1.47528
25 3 8.08118 7.72731 2.19157
26 3 5.59642 1.88849 6.36765
27 3 7.70286 2.87705 2.07298
28 3 5.98041 6.79576 6.40489
29 3 6.14374 7.12893 2.78828
30 3 7.55164 2.45758 5.7756
31 3 0.746572 2.33809 1.49327
32 3 3.95688 7.39576 6.98492
33 6 2.27509 0.314449 5.02366
34 6 2.506 9.35607 3.5281
35 6 0.412718 5.15522 7.78582
36 6 4.32111 4.49823 0.709571
37 4 0.171024 7.69484 1.79283
38 4 4.59765 1.80079 6.81115
39 4 6.68172 2.97589 2.41634
40 4 7.02617 6.86819 6.10086
41 4 5.12365 6.73659 2.77468
42 4 8.60204 2.75934 5.7408
43 4 1.69499 1.82761 1.45415
44 4 3.02709 7.95134 7.09027
45 1 4.53253 0.511593 12.2934
46 1 0.884065 9.15148 13.318
47 1 2.96739 5.33804 9.03534
48 1 2.44312 4.27891 16.5699
49 2 3.54691 8.53477 11.805
50 2 1.78309 1.05986 13.8487
51 2 3.94378 3.76916 9.7008
52 2 1.48613 5.96634 15.9823
53 2 2.20157 8.21578 11.9859
54 2 3.14344 1.33651 13.6076
55 2 5.27981 3.35905 9.28278
56 2 9.13454 6.3295 16.3853
57 2 2.93865 6.80991 10.4642
58 2 2.44848 2.86567 15.2305
59 2 4.50026 1.89391 10.8736
60 2 0.844577 7.63547 14.6771
61 5 5.83253 0.671934 13.7688
62 5 8.47979 9.04319 11.9408
63 5 6.34778 5.59706 16.1772
64 5 7.99323 4.0449 9.50133
65 5 7.95323 0.288459 14.2961
66 5 6.30639 9.41609 11.3114
67 5 4.25471 5.11364 15.6425
68 5 1.13257 4.54195 10.0369
69 3 4.07361 7.53267 11.0218
70 3 1.47193 1.91187 14.8497
71 3 3.54127 2.86947 10.5857
72 3 1.85584 6.82946 15.0408
73 3 1.9354 7.13968 11.3055
74 3 3.41139 2.47462 14.3223
75 3 5.55852 2.33932 9.99688
76 3 8.79017 7.34777 15.5447
77 6 6.97242 0.297445 13.5103
78 6 7.258 9.32898 12.1584
79 6 5.2019 5.21802 16.3369
80 6 9.14785 4.50539 9.26954
81 4 4.86595 7.68393 10.2318
82 4 9.46921 1.90635 15.3832
83 4 2.6326 2.98191 11.2133
84 4 2.7076 6.75903 14.3387
85 4 0.944908 6.65766 11.2686
86 4 4.42242 2.8341 14.3491
87 4 6.46988 1.72212 10.0442
88 4 7.81703 7.78534 15.6494
89 1 8.66399 10.2308 3.73569
90 1 5.03631 18.8791 4.75739
91 1 7.10551 15.0897 0.503608
92 1 6.60582 14.008 8.02171
93 2 7.72547 18.3375 3.14357
94 2 5.92454 10.9856 5.27097
95 2 8.10548 13.4226 1.0365
96 2 5.59773 15.6794 7.34896
97 2 6.40559 18.0248 3.4647
98 2 7.31764 11.2204 4.95949
99 2 0.424282 13.0775 0.713197
100 2 4.34537 16.1103 7.79151
101 2 7.12123 16.5784 1.8427
102 2 6.6217 12.5598 6.57657
103 2 8.62588 11.7124 2.36501
104 2 5.00361 17.4027 6.18506
105 5 1.12842 10.4505 5.19046
106 5 3.6462 18.7572 3.28066
107 5 1.58331 15.3158 7.57756
108 5 3.20818 13.8504 0.932262
109 5 3.18334 10.0243 5.81482
110 5 1.51376 19.0968 2.71672
111 5 8.38746 14.8723 7.01583
112 5 5.27983 14.2659 1.48077
113 3 8.08118 17.4902 2.1796
114 3 5.65714 11.6577 6.32783
115 3 7.69968 12.6083 2.06464
116 3 5.97723 16.4818 6.45623
117 3 6.1132 16.8955 2.76035
118 3 7.65556 12.2404 5.75799
119 3 0.674926 12.0113 1.53454
120 3 4.00722 17.1033 6.95122
121 6 2.27179 10.0525 4.97479
122 6 2.54925 19.1323 3.47626
123 6 0.394761 14.9016 7.85231
124 6 4.31281 14.2629 0.708364
125 4 0.136064 17.3162 1.74772
126 4 4.61308 11.6862 6.59236
127 4 6.74974 12.4858 2.63104
128 4 6.94864 16.3241 6.06748
129 4 5.23756 16.2436 2.65252
130 4 8.61312 12.8227 5.69829
131 4 1.61165 11.4211 1.42889
132 4 3.07553 17.6821 7.11038
133 1 4.48801 10.2232 12.2742
134 1 0.869999 18.8629 13.3578
135 1 2.92864 15.0625 9.06883
136 1 2.42403 14.0199 16.5608
137 2 3.45718 18.3342 11.737
138 2 1.88395 10.7733 13.9256
139 2 3.94229 13.408 9.6415
140 2 1.49524 15.6635 15.9309
141 2 2.17983 18.0132 12.0784
142 2 3.14891 11.1248 13.5721
143 2 5.16257 13.0793 9.2801
144 2 9.14399 16.0104 16.372
145 2 2.98148 16.5502 10.4191
146 2 2.42453 12.5324 15.1473
147 2 4.58116 11.7757 10.933
148 2 0.809874 17.4339 14.7623
149 5 5.92375 10.392 13.7732
150 5 8.49729 18.7164 11.8389
151 5 6.3325 15.3462 16.1563
152 5 8.00814 13.8266 9.46604
153 5 8.0144 10.027 14.2953
154 5 6.32349 19.0697 11.314
155 5 4.31286 14.923 15.6222
156 5 1.18253 14.2167 10.0447
157 3 3.9912 17.4025 10.7654
158 3 1.51588 11.6294 14.9181
159 3 3.61366 12.6079 10.6203
160 3 1.77531 16.4803 15.0556
161 3 1.91657 16.921 11.2506
162 3 3.4302 12.1995 14.3792
163 3 5.4974 12.0396 10.0272
164 3 8.8464 17.0588 15.6114
165 6 7.03922 9.93858 13.5218
166 6 7.30039 19.0656 12.1146
167 6 5.24866 14.8822 16.3806
168 6 9.17493 14.3336 9.23606
169 4 4.92169 17.3424 10.1827
170 4 0.604789 11.7072 15.5397
171 4 2.74584 12.7784 11.3181
172 4 2.75583 16.5506 14.6209
173 4 0.992575 16.3554 11.4336
174 4 4.37675 12.7199 14.1695
175 4 6.41076 11.5447 9.99417
176 4 7.87927 17.6006 15.5692
177 7 3.04471 9.63067 9.86368
178 8 3.26264 8.88004 8.98108
179 8 2.58289 10.4184 10.6133
180 7 9.06265 11.6421 10.6213
181 8 8.32825 11.4161 11.4801
182 8 0.777533 11.9532 9.69653
183 7 7.23329 6.71556 9.98045
184 8 7.33425 6.26528 8.99668
185 8 7.12734 7.23575 10.9569
186 7 1.8294 10.5586 7.94592
187 8 1.05984 9.81522 7.50164
188 8 2.57309 11.279 8.4076
189 7 6.30348 9.06604 7.22917
190 8 6.97662 9.13663 6.35685
191 8 5.68322 8.79125 8.12121
192 7 9.14157 7.74707 7.0117
193 8 0.957234 7.40129 6.18926
194 8 8.31552 7.96908 7.81193
195 7 0.969401 8.3204 9.52281
196 8 1.05959 7.21207 9.06934
197 8 0.73495 9.35555 9.93633
198 7 7.75047 10.3586 8.52435
199 8 8.16499 11.0839 7.79967
200 8 7.46239 9.51965 9.24633
201 7 6.14097 14.5957 12.4616
202 8 6.0534 15.405 13.2778
203 8 6.19152 13.9802 11.4785
204 7 7.01172 13.5255 14.654
205 8 7.80178 13.9103 13.86
206 8 6.39999 12.9627 15.4915
207 7 6.15398 4.48492 13.1904
208 8 5.58777 4.80867 12.2661
209 8 6.7618 4.05773 14.1035
210 7 8.90451 4.24467 12.7281
211 8 9.13225 4.82833 13.6693
212 8 8.69094 3.44052 11.9153
213 7 3.70173 4.69122 5.40026
214 8 3.02909 3.90857 5.91171
215 8 4.25643 5.5181 4.91729
216 7 4.27306 2.34788 2.82284
217 8 4.29195 1.86911 1.8054
218 8 4.25157 2.70742 3.87197
219 7 2.30185 13.5557 4.62887
220 8 2.04148 13.5913 5.74304
221 8 2.64504 13.55 3.55178
222 7 3.78893 15.6193 4.87669
223 8 4.80785 15.0426 4.89117
224 8 2.7947 16.2121 4.80699
ITEM: TIMESTEP
26
ITEM: NUMBER OF ATOMS
224
ITEM: BOX BOUNDS xy xz yz pp pp pp
-1.7962330762144596e-02 9.5646867214139775e+00 0.0000000000000000e+00
-3.9067028933352788e-02 1.9426066128933357e+01 6.3292419065183403e-01
-3.4383531342720985e-02 1.7097198631342721e+01 0.0000000000000000e+00
ITEM: ATOMS id type x y z
1 1 8.69396 0.499188 3.7094
2 1 5.00774 9.16918 4.77126
3 1 7.08829 5.38558 0.460182
4 1 6.60239 4.2818 8.02227
5 2 7.70196 8.60591 3.12909
6 2 6.04128 1.08789 5.40449
7 2 8.11106 3.69477 1.08024
8 2 5.59518 5.9405 7.38035
9 2 6.47308 8.22466 3.53336
10 2 7.37857 1.47036 4.93333
11 2 0.415119 3.38796 0.722177
12 2 4.36177 6.26623 7.847
13 2 7.09674 6.84958 1.94221
14 2 6.6175 2.78506 6.62819
15 2 8.7331 1.95381 2.32861
16 2 4.92075 7.67582 6.06553
17 5 1.07721 0.73326 5.21952
18 5 3.70187 8.95604 3.28214
19 5 1.56383 5.58016 7.542
20 5 3.14269 4.09703 0.991851
21 5 3.19627 0.281616 5.73402
22 5 1.53861 9.39792 2.74754
23 5 8.4923 5.08917 7.08925
24 5 5.25821 4.53585 1.47295
25 3 8.08274 7.72634 2.19072
26 3 5.59617 1.88571 6.36848
27 3 7.70475 2.87504 2.07156
28 3 5.97912 6.79479 6.40249
29 3 6.14622 7.12682 2.78963
30 3 7.55121 2.45483 5.7743
31 3 0.745394 2.337 1.49147
32 3 3.95428 7.39537 6.98368
33 6 2.27317 0.313582 5.02336
34 6 2.50681 9.35451 3.52634
35 6 0.413881 5.15387 7.78556
36 6 4.3193 4.49596 0.707855
37 4 0.165197 7.68785 1.79644
38 4 4.59811 1.79938 6.81191
39 4 6.67936 2.97065 2.41453
40 4 7.02977 6.87288 6.10187
41 4 5.1234 6.73729 2.77238
42 4 8.60346 2.75298 5.7446
43 4 1.69708 1.82538 1.4512
44 4 3.03019 7.95089 7.08734
45 1 4.53334 0.508999 12.2947
46 1 0.883304 9.15158 13.3185
47 1 2.96743 5.33527 9.03468
48 1 2.44296 4.27739 16.5722
49 2 3.54821 8.53066 11.8122
50 2 1.78003 1.05665 13.8468
51 2 3.945 3.76968 9.70243
52 2 1.48624 5.96585 15.9851
53 2 2.19874 8.21514 11.9854
54 2 3.14334 1.3306 13.6102
55 2 5.28196 3.35825 9.28206
56 2 9.13615 6.32989 16.3893
57 2 2.94013 6.80634 10.4671
58 2 2.44793 2.86563 15.2342
59 2 4.49978 1.88879 10.873
60 2 0.842486 7.63415 14.6762
61 5 5.8316 0.667845 13.7699
62 5 8.48063 9.04667 11.9463
63 5 6.34652 5.59705 16.1808
64 5 7.99683 4.04129 9.50188
65 5 7.95084 0.286193 14.2961
66 5 6.30644 9.4184 11.3142
67 5 4.25529 5.11122 15.6463
68 5 1.1309 4.54187 10.0368
69 3 4.07951 7.52063 11.0367
70 3 1.4716 1.91039 14.8502
71 3 3.54063 2.86647 10.586
72 3 1.85571 6.83112 15.0433
73 3 1.93573 7.13633 11.3085
74 3 3.4087 2.4723 14.3236
75 3 5.55913 2.33642 9.99687
76 3 8.79179 7.34664 15.5459
77 6 6.97076 0.295885 13.5116
78 6 7.25756 9.32612 12.1618
79 6 5.2023 5.21943 16.3394
80 6 9.14923 4.50252 9.2702
81 4 4.86944 7.67952 10.2354
82 4 9.47069 1.90602 15.3843
83 4 2.63928 2.98113 11.215
84 4 2.70208 6.75763 14.3359
85 4 0.942456 6.65728 11.27
86 4 4.4286 2.8289 14.3541
87 4 6.4693 1.72155 10.0414
88 4 7.81027 7.78774 15.6508
89 1 8.66495 10.2305 3.73478
90 1 5.03653 18.8819 4.75567
91 1 7.10595 15.0905 0.501791
92 1 6.607 14.0091 8.02214
93 2 7.72758 18.3413 3.14295
94 2 5.92059 10.9953 5.2636
95 2 8.10644 13.4232 1.0326
96 2 5.5971 15.6807 7.34737
97 2 6.40546 18.0298 3.46268
98 2 7.31928 11.2237 4.95585
99 2 0.423746 13.0778 0.71025
100 2 4.34558 16.115 7.79224
101 2 7.12247 16.5802 1.83945
102 2 6.6223 12.5629 6.5747
103 2 8.62502 11.7122 2.36514
104 2 5.00383 17.4061 6.18427
105 5 1.12969 10.4513 5.18794
106 5 3.64527 18.7627 3.27859
107 5 1.58089 15.3176 7.57807
108 5 3.20964 13.853 0.930199
109 5 3.1808 10.0248 5.81546
110 5 1.51353 19.0991 2.71494
111 5 8.38899 14.8734 7.01615
112 5 5.27839 14.2681 1.47849
113 3 8.08228 17.4924 2.17762
114 3 5.65881 11.6593 6.32693
115 3 7.70033 12.6088 2.06368
116 3 5.97678 16.484 6.45697
117 3 6.11553 16.8964 2.75885
118 3 7.65856 12.2439 5.75519
119 3 0.671797 12.0106 1.53392
120 3 4.00632 17.1067 6.94972
121 6 2.27148 10.0547 4.97416
122 6 2.54897 19.1362 3.47318
123 6 0.393901 14.9054 7.85194
124 6 4.31246 14.2648 0.707147
125 4 0.134753 17.3122 1.75108
126 4 4.6083 11.6958 6.5872
127 4 6.75309 12.4833 2.62771
128 4 6.95553 16.3255 6.06321
129 4 5.23832 16.2447 2.65117
130 4 8.60367 12.82 5.69629
131 4 1.60134 11.4206 1.42707
132 4 3.08101 17.6871 7.11112
133 1 4.48712 10.2226 12.2747
134 1 0.868663 18.865 13.3599
135 1 2.92716 15.0622 9.06947
136 1 2.42314 14.0215 16.5627
137 2 3.45489 18.3375 11.7391
138 2 1.88399 10.772 13.9268
139 2 3.94191 13.4085 9.64135
140 2 1.49515 15.6638 15.9325
141 2 2.1758 18.0172 12.0804
142 2 3.14956 11.124 13.5733
143 2 5.16179 13.0797 9.27883
144 2 9.14622 16.0113 16.3757
145 2 2.98223 16.5506 10.4183
146 2 2.42336 12.534 15.1488
147 2 4.58479 11.7786 10.936
148 2 0.807414 17.4373 14.7649
149 5 5.92649 10.3901 13.7744
150 5 8.49885 18.7208 11.8395
151 5 6.33101 15.3502 16.1596
152 5 8.0124 13.829 9.46491
153 5 8.01468 10.0276 14.2952
154 5 6.32504 19.0708 11.3158
155 5 4.31588 14.9263 15.6258
156 5 1.18255 14.2183 10.0447
157 3 3.99251 17.4019 10.7678
158 3 1.5167 11.6294 14.9208
159 3 3.61573 12.6101 10.6219
160 3 1.77172 16.4825 15.0579
161 3 1.91569 16.9239 11.25
162 3 3.42966 12.1993 14.3816
163 3 5.49529 12.0397 10.0263
164 3 8.84824 17.0612 15.6148
165 6 7.03926 9.93666 13.5241
166 6 7.30184 19.0659 12.1154
167 6 5.24927 14.8855 16.3838
168 6 9.17627 14.3379 9.23705
169 4 4.9253 17.3404 10.1824
170 4 0.60875 11.7094 15.5437
171 4 2.76001 12.7836 11.3229
172 4 2.75686 16.5566 14.6247
173 4 0.992567 16.3542 11.4365
174 4 4.36804 12.7208 14.1689
175 4 6.41513 11.5436 9.99327
176 4 7.88693 17.5979 15.5722
177 7 3.0446 9.63502 9.86166
178 8 3.25883 8.88847 8.97094
179 8 2.57736 10.4183 10.6129
180 7 9.06519 11.6421 10.6212
181 8 8.32902 11.4211 11.4812
182 8 0.775925 11.9508 9.69561
183 7 7.2338 6.71458 9.98122
184 8 7.33465 6.26561 8.99744
185 8 7.12733 7.23318 10.9549
186 7 1.82889 10.5587 7.94584
187 8 1.05907 9.81501 7.50449
188 8 2.57427 11.2798 8.40636
189 7 6.3041 9.06991 7.23115
190 8 6.98077 9.12869 6.35831
191 8 5.68423 8.79587 8.12349
192 7 9.1446 7.74688 7.01088
193 8 0.956632 7.3983 6.18678
194 8 8.31711 7.96715 7.81071
195 7 0.970151 8.31912 9.52185
196 8 1.05506 7.21322 9.06805
197 8 0.735049 9.35626 9.93715
198 7 7.74996 10.3586 8.52596
199 8 8.16844 11.0834 7.80239
200 8 7.46392 9.51866 9.24413
201 7 6.14193 14.5954 12.4632
202 8 6.05512 15.4104 13.2771
203 8 6.19053 13.9829 11.4798
204 7 7.01187 13.528 14.6535
205 8 7.80508 13.9114 13.8601
206 8 6.4037 12.9591 15.4913
207 7 6.15473 4.48407 13.1943
208 8 5.58712 4.80766 12.2671
209 8 6.76246 4.05518 14.1047
210 7 8.90547 4.24588 12.7271
211 8 9.13463 4.82756 13.6715
212 8 8.69131 3.43786 11.9189
213 7 3.69872 4.68647 5.40043
214 8 3.0261 3.90762 5.91158
215 8 4.25349 5.51642 4.91446
216 7 4.27428 2.34614 2.81949
217 8 4.29395 1.86585 1.80412
218 8 4.25202 2.704 3.87136
219 7 2.3006 13.5544 4.62826
220 8 2.04242 13.5909 5.74227
221 8 2.64562 13.5491 3.55039
222 7 3.78805 15.6203 4.87496
223 8 4.80551 15.0402 4.88609
224 8 2.79404 16.2168 4.8057
ITEM: TIMESTEP
27
ITEM: NUMBER OF ATOMS
224
ITEM: BOX BOUNDS xy xz yz pp pp pp
-1.9237845404214582e-02 9.5661426447468152e+00 0.0000000000000000e+00
-4.1841199395221906e-02 1.9428840299395226e+01 6.3310459934260110e-01
-3.6825124154615807e-02 1.7099640224154616e+01 0.0000000000000000e+00
ITEM: ATOMS id type x y z
1 1 8.6961 0.496196 3.70748
2 1 5.00687 9.16998 4.77008
3 1 7.08807 5.38471 0.456771
4 1 6.60347 4.28033 8.02272
5 2 7.70369 8.60693 3.12777
6 2 6.04374 1.08535 5.40406
7 2 8.11221 3.69293 1.07785
8 2 5.5942 5.93867 7.3782
9 2 6.47499 8.22404 3.53378
10 2 7.38127 1.46895 4.92986
11 2 0.414579 3.38712 0.719497
12 2 4.36167 6.2653 7.84892
13 2 7.09759 6.84782 1.94149
14 2 6.61785 2.78273 6.6292
15 2 8.73547 1.95028 2.32746
16 2 4.91589 7.67436 6.05906
17 5 1.07723 0.731359 5.21897
18 5 3.70161 8.9565 3.28058
19 5 1.56158 5.57744 7.54031
20 5 3.14249 4.09653 0.991879
21 5 3.19493 0.279051 5.73262
22 5 1.53881 9.39867 2.74671
23 5 8.49636 5.08546 7.09034
24 5 5.25634 4.5355 1.47056
25 3 8.08433 7.72538 2.18983
26 3 5.59599 1.88292 6.36929
27 3 7.70674 2.87297 2.07006
28 3 5.97775 6.79374 6.40006
29 3 6.14869 7.12476 2.79098
30 3 7.55092 2.45203 5.77291
31 3 0.744197 2.33584 1.48962
32 3 3.95172 7.39478 6.98245
33 6 2.27107 0.312614 5.02282
34 6 2.50768 9.35295 3.52458
35 6 0.415206 5.15239 7.78545
36 6 4.31741 4.49369 0.705989
37 4 0.159078 7.68073 1.79999
38 4 4.59876 1.79813 6.81277
39 4 6.67716 2.9649 2.41297
40 4 7.03316 6.87739 6.10261
41 4 5.12329 6.7379 2.76997
42 4 8.60471 2.74699 5.74875
43 4 1.6992 1.8231 1.44808
44 4 3.03331 7.95017 7.08402
45 1 4.53415 0.506331 12.296
46 1 0.88251 9.15168 13.319
47 1 2.96747 5.33248 9.03404
48 1 2.44278 4.27583 16.5745
49 2 3.54954 8.52644 11.8195
50 2 1.777 1.05336 13.845
51 2 3.94632 3.77015 9.70401
52 2 1.4863 5.96528 15.988
53 2 2.19593 8.21452 11.9852
54 2 3.14319 1.32464 13.6128
55 2 5.28401 3.3575 9.28132
56 2 9.1378 6.33025 16.3934
57 2 2.94177 6.80268 10.4701
58 2 2.44734 2.86549 15.2379
59 2 4.49933 1.88367 10.8724
60 2 0.840355 7.63288 14.6753
61 5 5.8307 0.663683 13.7711
62 5 8.4814 9.05013 11.9519
63 5 6.34527 5.59703 16.1844
64 5 8.00054 4.03762 9.50243
65 5 7.94844 0.283861 14.2961
66 5 6.30651 9.42075 11.3171
67 5 4.25584 5.10877 15.6501
68 5 1.12922 4.54174 10.0367
69 3 4.0853 7.50854 11.0515
70 3 1.47127 1.90893 14.8509
71 3 3.53999 2.86335 10.5864
72 3 1.85557 6.8328 15.0458
73 3 1.93608 7.13288 11.3117
74 3 3.40601 2.46992 14.3249
75 3 5.55969 2.33331 9.99702
76 3 8.79348 7.34545 15.5473
77 6 6.96921 0.294222 13.5129
78 6 7.25715 9.32325 12.1653
79 6 5.20272 5.22071 16.3422
80 6 9.15059 4.49957 9.27078
81 4 4.8727 7.6752 10.2397
82 4 9.47217 1.90559 15.3852
83 4 2.64608 2.98028 11.2166
84 4 2.69653 6.75596 14.3336
85 4 0.940094 6.65703 11.2716
86 4 4.43479 2.82373 14.3593
87 4 6.4688 1.72126 10.0382
88 4 7.80355 7.79035 15.652
89 1 8.66594 10.2303 3.73383
90 1 5.03674 18.8847 4.75392
91 1 7.10641 15.0914 0.49991
92 1 6.6082 14.0102 8.02257
93 2 7.72969 18.3452 3.14231
94 2 5.91674 11.0049 5.25611
95 2 8.10737 13.4238 1.02867
96 2 5.59644 15.682 7.34589
97 2 6.40533 18.0348 3.46063
98 2 7.32089 11.2272 4.95219
99 2 0.423209 13.078 0.707254
100 2 4.34578 16.1198 7.79294
101 2 7.1237 16.5821 1.8362
102 2 6.62287 12.5661 6.57282
103 2 8.62421 11.7119 2.36525
104 2 5.00413 17.4096 6.1834
105 5 1.13095 10.4521 5.18537
106 5 3.64439 18.7682 3.27643
107 5 1.57835 15.3194 7.5786
108 5 3.21108 13.8557 0.928093
109 5 3.17824 10.0253 5.81604
110 5 1.51337 19.1014 2.71315
111 5 8.3906 14.8746 7.01652
112 5 5.27694 14.2704 1.47614
113 3 8.0834 17.4945 2.17553
114 3 5.66045 11.6609 6.32602
115 3 7.70102 12.6093 2.06269
116 3 5.97638 16.4864 6.45771
117 3 6.11795 16.8974 2.75721
118 3 7.66157 12.2475 5.75231
119 3 0.668682 12.01 1.5332
120 3 4.00537 17.1103 6.94832
121 6 2.27115 10.0569 4.97345
122 6 2.5485 19.1403 3.47018
123 6 0.393099 14.9093 7.85146
124 6 4.3122 14.2667 0.705819
125 4 0.133343 17.3086 1.75465
126 4 4.60359 11.7058 6.58226
127 4 6.75641 12.4813 2.62387
128 4 6.9625 16.3273 6.0585
129 4 5.23887 16.2465 2.65025
130 4 8.59402 12.8171 5.69421
131 4 1.59081 11.4203 1.42526
132 4 3.08671 17.6922 7.11177
133 1 4.48623 10.222 12.2753
134 1 0.867295 18.8672 13.362
135 1 2.92566 15.062 9.0701
136 1 2.42224 14.0231 16.5646
137 2 3.45269 18.3409 11.7411
138 2 1.88397 10.7706 13.9282
139 2 3.94147 13.4091 9.6412
140 2 1.49495 15.6641 15.9344
141 2 2.17174 18.0212 12.0823
142 2 3.15022 11.1232 13.5747
143 2 5.16109 13.08 9.2775
144 2 9.14851 16.0122 16.3794
145 2 2.98294 16.551 10.4176
146 2 2.42219 12.5357 15.1505
147 2 4.58846 11.7815 10.9392
148 2 0.805007 17.4407 14.7675
149 5 5.92925 10.3883 13.7757
150 5 8.50036 18.7252 11.8402
151 5 6.32955 15.3542 16.163
152 5 8.01677 13.8314 9.46379
153 5 8.01496 10.0282 14.2951
154 5 6.32665 19.0721 11.3178
155 5 4.31887 14.9297 15.6295
156 5 1.18254 14.22 10.0446
157 3 3.9937 17.4015 10.7704
158 3 1.51748 11.6295 14.9237
159 3 3.61776 12.6123 10.6235
160 3 1.76812 16.4849 15.0601
161 3 1.91483 16.927 11.2494
162 3 3.42915 12.1992 14.3839
163 3 5.49317 12.0397 10.0253
164 3 8.85003 17.0636 15.6182
165 6 7.03931 9.93478 13.5266
166 6 7.30331 19.0663 12.1161
167 6 5.2498 14.8889 16.3871
168 6 9.17752 14.3422 9.23814
169 4 4.92894 17.3389 10.1825
170 4 0.612611 11.7113 15.5473
171 4 2.77442 12.7888 11.3273
172 4 2.75798 16.5626 14.6285
173 4 0.992714 16.3529 11.4392
174 4 4.3591 12.7219 14.1686
175 4 6.41984 11.5425 9.99235
176 4 7.89467 17.5951 15.5756
177 7 3.04441 9.63943 9.85959
178 8 3.25504 8.89696 8.96086
179 8 2.57182 10.4181 10.6124
180 7 9.06779 11.6421 10.6212
181 8 8.32985 11.4262 11.4823
182 8 0.774267 11.9484 9.69476
183 7 7.23433 6.71363 9.98207
184 8 7.33507 6.26589 8.99807
185 8 7.12732 7.23051 10.9531
186 7 1.82832 10.5587 7.94572
187 8 1.0583 9.81478 7.50735
188 8 2.57548 11.2808 8.40509
189 7 6.30474 9.0738 7.23322
190 8 6.98509 9.12077 6.35965
191 8 5.68518 8.80053 8.12592
192 7 9.14766 7.74666 7.01004
193 8 0.955961 7.39536 6.18423
194 8 8.31876 7.9652 7.80943
195 7 0.97082 8.3177 9.5208
196 8 1.05044 7.21452 9.0668
197 8 0.735132 9.35699 9.93795
198 7 7.74949 10.3584 8.52767
199 8 8.17197 11.0829 7.8051
200 8 7.46547 9.51768 9.24195
201 7 6.14289 14.5952 12.4648
202 8 6.05682 15.4158 13.2764
203 8 6.18958 13.9858 11.4811
204 7 7.01211 13.5304 14.653
205 8 7.80838 13.9126 13.8602
206 8 6.40747 12.9554 15.4911
207 7 6.15556 4.48312 13.1983
208 8 5.58644 4.80664 12.268
209 8 6.76312 4.05258 14.106
210 7 8.90647 4.24694 12.7261
211 8 9.13706 4.82681 13.6738
212 8 8.69169 3.43516 11.9225
213 7 3.6956 4.68159 5.40064
214 8 3.02309 3.9066 5.91145
215 8 4.25062 5.51475 4.91148
216 7 4.2755 2.34429 2.81604
217 8 4.29596 1.86247 1.8027
218 8 4.25247 2.70059 3.87085
219 7 2.29933 13.5532 4.62766
220 8 2.04332 13.5906 5.74151
221 8 2.6462 13.5482 3.5489
222 7 3.7872 15.6213 4.87317
223 8 4.80312 15.0378 4.88093
224 8 2.79334 16.2215 4.80437
ITEM: TIMESTEP
28
ITEM: NUMBER OF ATOMS
224
ITEM: BOX BOUNDS xy xz yz pp pp pp
-2.0546662681558914e-02 9.5676365810370427e+00 0.0000000000000000e+00
-4.4687801159746243e-02 1.9431686901159750e+01 6.3328971835548509e-01
-3.9330464941029319e-02 1.7102145564941026e+01 0.0000000000000000e+00
ITEM: ATOMS id type x y z
1 1 8.69826 0.493138 3.70552
2 1 5.00599 9.17077 4.76887
3 1 7.08788 5.3838 0.453307
4 1 6.60456 4.27882 8.02317
5 2 7.70547 8.60797 3.12642
6 2 6.04629 1.08269 5.40353
7 2 8.11333 3.69111 1.0754
8 2 5.59321 5.93675 7.37601
9 2 6.47686 8.22338 3.53415
10 2 7.38384 1.46742 4.92643
11 2 0.414067 3.38622 0.716755
12 2 4.36148 6.26445 7.85072
13 2 7.09849 6.84595 1.94064
14 2 6.61814 2.78039 6.63027
15 2 8.73778 1.94667 2.3263
16 2 4.91103 7.67287 6.05254
17 5 1.07731 0.729368 5.21841
18 5 3.70126 8.95696 3.27897
19 5 1.55931 5.57457 7.53858
20 5 3.14234 4.09603 0.991837
21 5 3.19364 0.276417 5.73125
22 5 1.53902 9.39941 2.74586
23 5 8.50035 5.08169 7.0913
24 5 5.25448 4.53512 1.46813
25 3 8.08594 7.72441 2.18889
26 3 5.59589 1.88012 6.37007
27 3 7.70882 2.87084 2.06848
28 3 5.97632 6.79264 6.39759
29 3 6.15114 7.12273 2.79234
30 3 7.55079 2.4492 5.77144
31 3 0.742984 2.33462 1.4877
32 3 3.94919 7.39399 6.98124
33 6 2.26881 0.311544 5.02205
34 6 2.5086 9.3514 3.52281
35 6 0.416689 5.15079 7.7855
36 6 4.31544 4.49141 0.703973
37 4 0.15274 7.67348 1.80345
38 4 4.59957 1.79703 6.81372
39 4 6.67517 2.95868 2.41162
40 4 7.03629 6.88168 6.10311
41 4 5.12332 6.73843 2.76746
42 4 8.6058 2.74136 5.75325
43 4 1.70132 1.8208 1.44482
44 4 3.03639 7.94921 7.08033
45 1 4.53496 0.503591 12.2973
46 1 0.881686 9.15177 13.3196
47 1 2.96749 5.32965 9.0334
48 1 2.44258 4.27424 16.5769
49 2 3.5509 8.52212 11.8269
50 2 1.77403 1.05 13.8432
51 2 3.94772 3.77059 9.70553
52 2 1.48629 5.96464 15.9909
53 2 2.19313 8.21392 11.985
54 2 3.14298 1.31864 13.6155
55 2 5.28596 3.3568 9.28056
56 2 9.1395 6.33059 16.3975
57 2 2.94358 6.79896 10.4733
58 2 2.44671 2.86524 15.2416
59 2 4.49892 1.87856 10.8717
60 2 0.838186 7.63167 14.6745
61 5 5.82983 0.659452 13.7724
62 5 8.48213 9.05357 11.9575
63 5 6.34402 5.59701 16.188
64 5 8.00433 4.03388 9.503
65 5 7.94604 0.281466 14.2961
66 5 6.3066 9.42313 11.3201
67 5 4.25636 5.1063 15.6539
68 5 1.12755 4.54159 10.0366
69 3 4.09097 7.4964 11.0662
70 3 1.47095 1.90748 14.8516
71 3 3.53936 2.86011 10.5868
72 3 1.85541 6.83448 15.0483
73 3 1.93646 7.12932 11.315
74 3 3.40331 2.46749 14.3263
75 3 5.56018 2.32999 9.99735
76 3 8.79522 7.34421 15.5487
77 6 6.96776 0.292456 13.5142
78 6 7.25678 9.32039 12.1688
79 6 5.20316 5.22186 16.3454
80 6 9.15194 4.49655 9.27128
81 4 4.87567 7.67094 10.2447
82 4 9.47365 1.90505 15.3861
83 4 2.65294 2.97936 11.2181
84 4 2.69095 6.75403 14.3316
85 4 0.937838 6.6569 11.2734
86 4 4.44091 2.81855 14.3646
87 4 6.4684 1.72122 10.0347
88 4 7.79696 7.79312 15.653
89 1 8.66697 10.23 3.73285
90 1 5.03696 18.8875 4.75214
91 1 7.10689 15.0923 0.497967
92 1 6.60941 14.0114 8.02299
93 2 7.73179 18.3492 3.14166
94 2 5.91299 11.0146 5.2485
95 2 8.10827 13.4244 1.02472
96 2 5.59574 15.6833 7.34451
97 2 6.4052 18.0399 3.45854
98 2 7.32244 11.2306 4.94851
99 2 0.422668 13.0783 0.704212
100 2 4.34597 16.1246 7.79362
101 2 7.12494 16.584 1.83295
102 2 6.62342 12.5694 6.57094
103 2 8.62344 11.7116 2.36534
104 2 5.00452 17.4133 6.18244
105 5 1.1322 10.453 5.18276
106 5 3.64355 18.7737 3.27419
107 5 1.5757 15.3213 7.57913
108 5 3.21247 13.8583 0.925944
109 5 3.17567 10.0258 5.81654
110 5 1.51325 19.1038 2.71136
111 5 8.39228 14.8758 7.01694
112 5 5.27548 14.2726 1.47373
113 3 8.08455 17.4967 2.17333
114 3 5.66205 11.6625 6.32511
115 3 7.70174 12.6099 2.06166
116 3 5.97602 16.4888 6.45845
117 3 6.12045 16.8984 2.75542
118 3 7.66454 12.2511 5.74934
119 3 0.665575 12.0093 1.53239
120 3 4.00439 17.1138 6.94701
121 6 2.27082 10.059 4.97267
122 6 2.54782 19.1444 3.46726
123 6 0.392353 14.9133 7.85086
124 6 4.31202 14.2688 0.704378
125 4 0.131849 17.3052 1.75841
126 4 4.59904 11.7163 6.57752
127 4 6.75969 12.4797 2.61952
128 4 6.96944 16.3296 6.05338
129 4 5.23923 16.249 2.64974
130 4 8.58431 12.8141 5.69204
131 4 1.58013 11.42 1.42345
132 4 3.0926 17.6974 7.11233
133 1 4.48534 10.2214 12.2759
134 1 0.865894 18.8694 13.3642
135 1 2.92416 15.0618 9.07074
136 1 2.42133 14.0247 16.5666
137 2 3.45058 18.3443 11.7431
138 2 1.8839 10.7692 13.9296
139 2 3.94098 13.4098 9.64106
140 2 1.49463 15.6643 15.9364
141 2 2.16766 18.0252 12.0843
142 2 3.15089 11.1225 13.576
143 2 5.16048 13.0804 9.27612
144 2 9.15086 16.013 16.3832
145 2 2.98361 16.5514 10.4169
146 2 2.42102 12.5376 15.1523
147 2 4.59217 11.7843 10.9424
148 2 0.802655 17.4441 14.7701
149 5 5.93203 10.3865 13.7771
150 5 8.50182 18.7297 11.8409
151 5 6.32813 15.3583 16.1665
152 5 8.02123 13.834 9.46266
153 5 8.01526 10.0289 14.295
154 5 6.32831 19.0733 11.3198
155 5 4.32183 14.933 15.6332
156 5 1.18248 14.2218 10.0445
157 3 3.99477 17.4011 10.7729
158 3 1.51821 11.6295 14.9266
159 3 3.61977 12.6146 10.6253
160 3 1.76453 16.4875 15.0622
161 3 1.91398 16.9301 11.2489
162 3 3.42868 12.1989 14.3862
163 3 5.49103 12.0397 10.0244
164 3 8.85178 17.0661 15.6216
165 6 7.03938 9.93292 13.5291
166 6 7.30479 19.0668 12.1169
167 6 5.25026 14.8925 16.3906
168 6 9.17867 14.3465 9.23932
169 4 4.93255 17.3379 10.1829
170 4 0.61635 11.7128 15.5505
171 4 2.789 12.7941 11.3315
172 4 2.75914 16.5686 14.6323
173 4 0.993034 16.3517 11.4417
174 4 4.34999 12.7233 14.1685
175 4 6.4248 11.5415 9.99141
176 4 7.90239 17.5921 15.5792
177 7 3.04414 9.64389 9.85748
178 8 3.25126 8.90553 8.95085
179 8 2.56626 10.4179 10.6119
180 7 9.07043 11.6422 10.621
181 8 8.33073 11.4314 11.4834
182 8 0.772562 11.9459 9.69396
183 7 7.23489 6.71271 9.98299
184 8 7.33552 6.26613 8.99858
185 8 7.12732 7.22776 10.9514
186 7 1.82768 10.5587 7.94557
187 8 1.05752 9.81454 7.51023
188 8 2.57672 11.2818 8.40377
189 7 6.3054 9.0777 7.23536
190 8 6.98956 9.11288 6.36086
191 8 5.68606 8.80523 8.12849
192 7 9.15074 7.74641 7.00917
193 8 0.955222 7.39247 6.18164
194 8 8.32046 7.96322 7.80808
195 7 0.971409 8.31616 9.51964
196 8 1.04573 7.21598 9.06558
197 8 0.735198 9.35772 9.93874
198 7 7.74906 10.3582 8.52948
199 8 8.17558 11.0826 7.80779
200 8 7.46704 9.5167 9.2398
201 7 6.14385 14.5951 12.4663
202 8 6.05852 15.4213 13.2758
203 8 6.18867 13.9887 11.4826
204 7 7.01244 13.5328 14.6527
205 8 7.81168 13.9137 13.8604
206 8 6.4113 12.9518 15.4909
207 7 6.15646 4.48208 13.2025
208 8 5.58574 4.8056 12.269
209 8 6.76377 4.04995 14.1073
210 7 8.9075 4.24787 12.7251
211 8 9.13954 4.82607 13.6761
212 8 8.6921 3.43241 11.9261
213 7 3.69239 4.6766 5.40089
214 8 3.02005 3.9055 5.91132
215 8 4.24779 5.51311 4.90837
216 7 4.27671 2.34237 2.81252
217 8 4.29797 1.85898 1.80111
218 8 4.2529 2.69719 3.87043
219 7 2.29804 13.552 4.62707
220 8 2.04419 13.5902 5.74076
221 8 2.64678 13.5473 3.54731
222 7 3.78636 15.6223 4.87133
223 8 4.80067 15.0354 4.87569
224 8 2.79262 16.2263 4.80298
ITEM: TIMESTEP
29
ITEM: NUMBER OF ATOMS
224
ITEM: BOX BOUNDS xy xz yz pp pp pp
-2.1887744178183510e-02 9.5691673449951917e+00 0.0000000000000000e+00
-4.7604575732290044e-02 1.9434603675732298e+01 6.3347940081700937e-01
-4.1897565963884276e-02 1.7104712665963881e+01 0.0000000000000000e+00
ITEM: ATOMS id type x y z
1 1 8.70046 0.490017 3.70353
2 1 5.00513 9.17155 4.76763
3 1 7.0877 5.38286 0.44979
4 1 6.60568 4.27727 8.02361
5 2 7.70731 8.60904 3.12505
6 2 6.04894 1.0799 5.40289
7 2 8.11442 3.68931 1.07289
8 2 5.59219 5.93473 7.37379
9 2 6.47867 8.2227 3.53447
10 2 7.38626 1.46576 4.92305
11 2 0.413582 3.38525 0.713955
12 2 4.36119 6.26371 7.8524
13 2 7.09946 6.84398 1.93967
14 2 6.61836 2.77804 6.63139
15 2 8.74004 1.94299 2.32513
16 2 4.90619 7.67135 6.04596
17 5 1.07744 0.727288 5.21785
18 5 3.70082 8.95745 3.27732
19 5 1.55703 5.57155 7.53682
20 5 3.14225 4.09551 0.991726
21 5 3.19238 0.273716 5.72992
22 5 1.53923 9.40015 2.74498
23 5 8.50427 5.07787 7.09213
24 5 5.25263 4.53471 1.46564
25 3 8.08757 7.72345 2.18792
26 3 5.59587 1.8773 6.37084
27 3 7.711 2.86865 2.06682
28 3 5.97481 6.79147 6.3951
29 3 6.15356 7.12074 2.7937
30 3 7.55081 2.44634 5.76989
31 3 0.74176 2.33334 1.48574
32 3 3.94672 7.39299 6.98005
33 6 2.2664 0.310373 5.02104
34 6 2.50956 9.34985 3.52105
35 6 0.418321 5.14906 7.78572
36 6 4.31341 4.48914 0.701807
37 4 0.146254 7.66611 1.80681
38 4 4.60054 1.79608 6.81477
39 4 6.67341 2.95197 2.41046
40 4 7.03912 6.88572 6.10336
41 4 5.12353 6.73888 2.76486
42 4 8.60671 2.7361 5.7581
43 4 1.70339 1.81849 1.44141
44 4 3.03937 7.94802 7.07627
45 1 4.53576 0.500781 12.2986
46 1 0.880831 9.15186 13.3203
47 1 2.9675 5.32679 9.03278
48 1 2.44237 4.27261 16.5793
49 2 3.55229 8.51769 11.8343
50 2 1.77111 1.04657 13.8415
51 2 3.94923 3.77097 9.707
52 2 1.48623 5.96394 15.994
53 2 2.19035 8.21334 11.9849
54 2 3.14272 1.31261 13.6182
55 2 5.28782 3.35614 9.2798
56 2 9.14124 6.33089 16.4016
57 2 2.94555 6.79517 10.4766
58 2 2.44605 2.86488 15.2453
59 2 4.49855 1.87346 10.871
60 2 0.835979 7.63051 14.6737
61 5 5.82897 0.655154 13.7737
62 5 8.48279 9.05697 11.9632
63 5 6.34279 5.59699 16.1917
64 5 8.00822 4.03006 9.50359
65 5 7.94364 0.27901 14.2961
66 5 6.3067 9.42556 11.3233
67 5 4.25686 5.10381 15.6577
68 5 1.12587 4.5414 10.0364
69 3 4.09652 7.48422 11.0807
70 3 1.47062 1.90604 14.8524
71 3 3.53875 2.85675 10.5873
72 3 1.85524 6.83618 15.0508
73 3 1.93686 7.12566 11.3184
74 3 3.40063 2.46499 14.3278
75 3 5.56061 2.32647 9.99785
76 3 8.797 7.34293 15.5503
77 6 6.96641 0.290588 13.5156
78 6 7.25643 9.31754 12.1723
79 6 5.2036 5.22288 16.3488
80 6 9.15327 4.49347 9.2717
81 4 4.8783 7.66673 10.2506
82 4 9.47513 1.90442 15.3868
83 4 2.65983 2.9784 11.2194
84 4 2.68536 6.75183 14.33
85 4 0.9357 6.65692 11.2754
86 4 4.44687 2.81335 14.3701
87 4 6.46811 1.7214 10.0308
88 4 7.79059 7.79601 15.6539
89 1 8.66802 10.2298 3.73183
90 1 5.03718 18.8905 4.75034
91 1 7.1074 15.0932 0.495964
92 1 6.61063 14.0126 8.02341
93 2 7.7339 18.3532 3.14099
94 2 5.90937 11.0241 5.24077
95 2 8.10913 13.4252 1.02076
96 2 5.595 15.6845 7.34324
97 2 6.40507 18.0449 3.45642
98 2 7.32394 11.234 4.94481
99 2 0.422123 13.0786 0.701126
100 2 4.34616 16.1294 7.79428
101 2 7.12618 16.5859 1.82971
102 2 6.62395 12.5728 6.56905
103 2 8.62271 11.7113 2.36541
104 2 5.00499 17.4171 6.1814
105 5 1.13344 10.4539 5.18009
106 5 3.64276 18.7793 3.27186
107 5 1.57295 15.3232 7.57968
108 5 3.21383 13.861 0.923757
109 5 3.17309 10.0263 5.81699
110 5 1.51319 19.1062 2.70957
111 5 8.39403 14.877 7.01742
112 5 5.27401 14.2749 1.47126
113 3 8.08572 17.4988 2.17102
114 3 5.66362 11.6642 6.32418
115 3 7.7025 12.6104 2.06059
116 3 5.97572 16.4915 6.45919
117 3 6.12304 16.8995 2.7535
118 3 7.66749 12.2548 5.74628
119 3 0.662473 12.0088 1.53147
120 3 4.00338 17.1174 6.9458
121 6 2.27048 10.0612 4.97181
122 6 2.54693 19.1488 3.46441
123 6 0.391658 14.9174 7.85014
124 6 4.31192 14.2709 0.702822
125 4 0.130288 17.3022 1.76237
126 4 4.59469 11.7272 6.57298
127 4 6.76287 12.4786 2.61469
128 4 6.97628 16.3325 6.0479
129 4 5.23939 16.252 2.64964
130 4 8.57467 12.8111 5.68978
131 4 1.56934 11.4198 1.42164
132 4 3.09863 17.7028 7.11281
133 1 4.48447 10.2209 12.2766
134 1 0.864462 18.8717 13.3664
135 1 2.92265 15.0617 9.07137
136 1 2.42042 14.0264 16.5686
137 2 3.44857 18.3477 11.7451
138 2 1.88377 10.7677 13.931
139 2 3.94042 13.4107 9.64092
140 2 1.49421 15.6645 15.9387
141 2 2.16356 18.0293 12.0862
142 2 3.15157 11.1218 13.5775
143 2 5.15997 13.0808 9.27468
144 2 9.15327 16.014 16.387
145 2 2.98424 16.5518 10.4163
146 2 2.41985 12.5395 15.1542
147 2 4.5959 11.7871 10.9456
148 2 0.800358 17.4476 14.7727
149 5 5.93482 10.3847 13.7785
150 5 8.50325 18.7343 11.8416
151 5 6.32675 15.3625 16.17
152 5 8.0258 13.8366 9.46154
153 5 8.01556 10.0295 14.295
154 5 6.33004 19.0747 11.3218
155 5 4.32475 14.9364 15.637
156 5 1.18238 14.2238 10.0443
157 3 3.99571 17.4008 10.7755
158 3 1.5189 11.6295 14.9295
159 3 3.62177 12.617 10.6271
160 3 1.76095 16.4903 15.0643
161 3 1.91314 16.9333 11.2484
162 3 3.42823 12.1986 14.3885
163 3 5.4889 12.0397 10.0235
164 3 8.85349 17.0687 15.6251
165 6 7.03947 9.93108 13.5317
166 6 7.30628 19.0673 12.1176
167 6 5.25064 14.896 16.3943
168 6 9.17974 14.3508 9.24059
169 4 4.93611 17.3372 10.1838
170 4 0.619941 11.714 15.5535
171 4 2.80367 12.7995 11.3356
172 4 2.76031 16.5746 14.6362
173 4 0.993545 16.3505 11.444
174 4 4.34076 12.725 14.1687
175 4 6.42994 11.5405 9.99046
176 4 7.91003 17.589 15.5832
177 7 3.04378 9.64839 9.85531
178 8 3.24749 8.91416 8.94094
179 8 2.5607 10.4177 10.6113
180 7 9.07311 11.6422 10.6208
181 8 8.33168 11.4367 11.4846
182 8 0.770812 11.9433 9.69323
183 7 7.23547 6.71181 9.98396
184 8 7.33598 6.26632 8.99896
185 8 7.12732 7.22494 10.9498
186 7 1.82698 10.5587 7.94539
187 8 1.05674 9.81429 7.51311
188 8 2.57799 11.2828 8.40241
189 7 6.30607 9.0816 7.23756
190 8 6.99418 9.10501 6.36195
191 8 5.68689 8.80997 8.13119
192 7 9.15385 7.74613 7.00828
193 8 0.954414 7.38963 6.17899
194 8 8.32222 7.96121 7.80666
195 7 0.971913 8.31452 9.5184
196 8 1.04096 7.21759 9.0644
197 8 0.735249 9.35845 9.93951
198 7 7.74867 10.3579 8.53136
199 8 8.17927 11.0823 7.81046
200 8 7.46861 9.51572 9.23767
201 7 6.1448 14.5951 12.4678
202 8 6.06021 15.4268 13.2752
203 8 6.1878 13.9916 11.4841
204 7 7.01285 13.5351 14.6524
205 8 7.81498 13.9148 13.8607
206 8 6.41519 12.9482 15.4907
207 7 6.1574 4.48094 13.2067
208 8 5.58502 4.80456 12.2699
209 8 6.76442 4.04729 14.1085
210 7 8.90857 4.24868 12.7242
211 8 9.14208 4.82535 13.6785
212 8 8.69252 3.42961 11.9297
213 7 3.68909 4.67152 5.40116
214 8 3.01699 3.9043 5.9112
215 8 4.24502 5.51147 4.90514
216 7 4.27792 2.34036 2.80893
217 8 4.29999 1.85537 1.79938
218 8 4.25333 2.6938 3.8701
219 7 2.29673 13.5509 4.62647
220 8 2.04503 13.5898 5.74003
221 8 2.64735 13.5464 3.54561
222 7 3.78553 15.6234 4.86942
223 8 4.79817 15.033 4.87036
224 8 2.79189 16.231 4.80155
ITEM: TIMESTEP
30
ITEM: NUMBER OF ATOMS
224
ITEM: BOX BOUNDS xy xz yz pp pp pp
-2.3260050739602356e-02 9.5707337504888468e+00 0.0000000000000000e+00
-5.0589263012035701e-02 1.9437588363012043e+01 6.3367349974924492e-01
-4.4524438071473327e-02 1.7107339538071468e+01 0.0000000000000000e+00
ITEM: ATOMS id type x y z
1 1 8.70269 0.486834 3.70151
2 1 5.00426 9.17234 4.76637
3 1 7.08755 5.38189 0.446224
4 1 6.60681 4.27568 8.02404
5 2 7.70921 8.61013 3.12366
6 2 6.05169 1.07699 5.40215
7 2 8.11549 3.68752 1.07032
8 2 5.59116 5.93262 7.37154
9 2 6.48042 8.222 3.53473
10 2 7.38855 1.46398 4.91972
11 2 0.413125 3.38423 0.7111
12 2 4.36082 6.26305 7.85397
13 2 7.10048 6.84191 1.93857
14 2 6.61851 2.77567 6.63256
15 2 8.74224 1.93925 2.32395
16 2 4.90136 7.6698 6.03935
17 5 1.07763 0.725124 5.21728
18 5 3.7003 8.95794 3.27563
19 5 1.55472 5.56839 7.53502
20 5 3.14221 4.09499 0.991547
21 5 3.19116 0.270952 5.72862
22 5 1.53945 9.40088 2.74407
23 5 8.50811 5.07399 7.09283
24 5 5.2508 4.53428 1.46311
25 3 8.08922 7.72249 2.18692
26 3 5.59593 1.87446 6.37158
27 3 7.71327 2.86639 2.06509
28 3 5.97323 6.79026 6.39257
29 3 6.15597 7.1188 2.79507
30 3 7.55099 2.44344 5.76826
31 3 0.74053 2.33199 1.48373
32 3 3.9443 7.3918 6.97888
33 6 2.26382 0.309099 5.0198
34 6 2.51056 9.34833 3.51929
35 6 0.420095 5.14719 7.7861
36 6 4.31131 4.48687 0.699495
37 4 0.139694 7.65864 1.81005
38 4 4.60166 1.79526 6.81592
39 4 6.67192 2.94479 2.40948
40 4 7.04161 6.8895 6.10338
41 4 5.12391 6.73927 2.76217
42 4 8.60745 2.73121 5.76328
43 4 1.70539 1.8162 1.43787
44 4 3.0422 7.94661 7.07185
45 1 4.53656 0.497903 12.3
46 1 0.879947 9.15194 13.3209
47 1 2.9675 5.3239 9.03216
48 1 2.44215 4.27094 16.5819
49 2 3.5537 8.51315 11.8418
50 2 1.76824 1.04307 13.8398
51 2 3.95083 3.77131 9.70842
52 2 1.4861 5.96316 15.9971
53 2 2.1876 8.21278 11.985
54 2 3.1424 1.30656 13.6209
55 2 5.28958 3.35552 9.27902
56 2 9.14304 6.33116 16.4057
57 2 2.94767 6.79132 10.48
58 2 2.44534 2.86442 15.2489
59 2 4.49821 1.86839 10.8702
60 2 0.833736 7.62941 14.673
61 5 5.82814 0.650792 13.775
62 5 8.48341 9.06035 11.969
63 5 6.34157 5.59696 16.1953
64 5 8.01219 4.02618 9.50418
65 5 7.94122 0.276496 14.2962
66 5 6.30683 9.42801 11.3266
67 5 4.25732 5.10131 15.6614
68 5 1.1242 4.54118 10.0364
69 3 4.10195 7.47201 11.0951
70 3 1.47029 1.90461 14.8534
71 3 3.53817 2.85328 10.5878
72 3 1.85505 6.83789 15.0533
73 3 1.93727 7.12189 11.3219
74 3 3.39796 2.46245 14.3293
75 3 5.56097 2.32274 9.99852
76 3 8.79881 7.3416 15.5519
77 6 6.96518 0.288617 13.517
78 6 7.25612 9.3147 12.1759
79 6 5.20405 5.22378 16.3525
80 6 9.15459 4.49033 9.27204
81 4 4.88056 7.66256 10.2574
82 4 9.47661 1.90369 15.3874
83 4 2.66668 2.97739 11.2207
84 4 2.67978 6.74936 14.3288
85 4 0.933694 6.65707 11.2775
86 4 4.45258 2.80809 14.3757
87 4 6.46795 1.72179 10.0265
88 4 7.78454 7.79897 15.6545
89 1 8.66911 10.2295 3.73077
90 1 5.03741 18.8935 4.74851
91 1 7.10792 15.0942 0.493903
92 1 6.61186 14.0139 8.02382
93 2 7.73599 18.3574 3.1403
94 2 5.90587 11.0336 5.23294
95 2 8.10997 13.426 1.01678
96 2 5.59422 15.6858 7.34207
97 2 6.40495 18.0501 3.45427
98 2 7.32539 11.2375 4.9411
99 2 0.421573 13.0789 0.698002
100 2 4.34634 16.1342 7.79492
101 2 7.12743 16.5879 1.82648
102 2 6.62447 12.5763 6.56716
103 2 8.62203 11.7108 2.36547
104 2 5.00555 17.4211 6.18028
105 5 1.13467 10.4548 5.17739
106 5 3.64201 18.7849 3.26944
107 5 1.5701 15.3251 7.58023
108 5 3.21516 13.8637 0.921532
109 5 3.17051 10.0267 5.81736
110 5 1.51318 19.1087 2.70778
111 5 8.39586 14.8783 7.01794
112 5 5.27253 14.2772 1.46874
113 3 8.08691 17.501 2.1686
114 3 5.66514 11.666 6.32325
115 3 7.7033 12.6109 2.05948
116 3 5.97548 16.4942 6.45991
117 3 6.1257 16.9005 2.75143
118 3 7.67038 12.2586 5.74316
119 3 0.659371 12.0083 1.53046
120 3 4.00235 17.1211 6.94469
121 6 2.27013 10.0632 4.97087
122 6 2.54584 19.1533 3.46165
123 6 0.391012 14.9216 7.84932
124 6 4.31191 14.2731 0.701152
125 4 0.128676 17.2995 1.76651
126 4 4.59061 11.7385 6.56861
127 4 6.76591 12.4778 2.6094
128 4 6.98291 16.3359 6.04212
129 4 5.23938 16.2557 2.64994
130 4 8.56526 12.8082 5.68742
131 4 1.55853 11.4196 1.41982
132 4 3.10475 17.7084 7.11323
133 1 4.48359 10.2203 12.2773
134 1 0.862998 18.8741 13.3686
135 1 2.92113 15.0616 9.07201
136 1 2.41949 14.0281 16.5707
137 2 3.44666 18.3512 11.747
138 2 1.8836 10.7662 13.9325
139 2 3.93982 13.4117 9.64078
140 2 1.49366 15.6646 15.9411
141 2 2.15945 18.0333 12.0881
142 2 3.15226 11.1211 13.5789
143 2 5.15954 13.0812 9.27318
144 2 9.15575 16.0149 16.3908
145 2 2.98483 16.5523 10.4157
146 2 2.41869 12.5416 15.1562
147 2 4.59966 11.7898 10.949
148 2 0.798117 17.4511 14.7753
149 5 5.93762 10.3829 13.78
150 5 8.50462 18.739 11.8424
151 5 6.32541 15.3668 16.1735
152 5 8.03045 13.8393 9.46042
153 5 8.01589 10.0301 14.2949
154 5 6.33181 19.0761 11.3239
155 5 4.32763 14.9399 15.6408
156 5 1.18224 14.2258 10.0442
157 3 3.99654 17.4006 10.7782
158 3 1.51955 11.6296 14.9324
159 3 3.62376 12.6195 10.6289
160 3 1.75739 16.4933 15.0662
161 3 1.91232 16.9366 11.248
162 3 3.4278 12.1983 14.3907
163 3 5.48678 12.0397 10.0225
164 3 8.85518 17.0714 15.6287
165 6 7.03958 9.92926 13.5344
166 6 7.30778 19.0679 12.1183
167 6 5.25096 14.8997 16.3981
168 6 9.18073 14.3551 9.24195
169 4 4.9396 17.3371 10.1851
170 4 0.623358 11.7148 15.5561
171 4 2.81835 12.8051 11.3394
172 4 2.76142 16.5807 14.6402
173 4 0.99426 16.3493 11.4461
174 4 4.33148 12.727 14.1691
175 4 6.4352 11.5396 9.9895
176 4 7.91749 17.5858 15.5875
177 7 3.04334 9.65293 9.8531
178 8 3.24373 8.92286 8.93111
179 8 2.55513 10.4174 10.6108
180 7 9.07582 11.6424 10.6206
181 8 8.33268 11.4422 11.4858
182 8 0.769019 11.9406 9.69256
183 7 7.23609 6.71092 9.98498
184 8 7.33646 6.26646 8.9992
185 8 7.12732 7.22207 10.9485
186 7 1.82623 10.5587 7.94518
187 8 1.05595 9.81403 7.51601
188 8 2.57927 11.284 8.401
189 7 6.30677 9.08551 7.23981
190 8 6.99893 9.09719 6.36292
191 8 5.68765 8.81473 8.13403
192 7 9.15699 7.74583 7.00735
193 8 0.953537 7.38685 6.1763
194 8 8.32404 7.95918 7.80517
195 7 0.972333 8.31279 9.51707
196 8 1.03612 7.21933 9.06326
197 8 0.735285 9.35916 9.94026
198 7 7.74833 10.3576 8.53333
199 8 8.18302 11.0821 7.81311
200 8 7.47019 9.51473 9.23558
201 7 6.14574 14.5952 12.4693
202 8 6.06189 15.4323 13.2747
203 8 6.18698 13.9946 11.4856
204 7 7.01336 13.5374 14.6521
205 8 7.81828 13.9159 13.8611
206 8 6.41914 12.9445 15.4904
207 7 6.1584 4.47972 13.2111
208 8 5.58429 4.80351 12.2709
209 8 6.76507 4.04458 14.1098
210 7 8.90967 4.24935 12.7232
211 8 9.14466 4.82465 13.681
212 8 8.69297 3.42676 11.9334
213 7 3.68574 4.66638 5.40144
214 8 3.01389 3.90301 5.91109
215 8 4.24229 5.50982 4.90178
216 7 4.27912 2.33827 2.80529
217 8 4.30202 1.85165 1.79748
218 8 4.25376 2.69042 3.86984
219 7 2.2954 13.5497 4.62587
220 8 2.04585 13.5894 5.73932
221 8 2.64791 13.5456 3.54382
222 7 3.78472 15.6245 4.86746
223 8 4.79562 15.0306 4.86496
224 8 2.79114 16.2358 4.80008
ITEM: TIMESTEP
31
ITEM: NUMBER OF ATOMS
224
ITEM: BOX BOUNDS xy xz yz pp pp pp
-2.4662542848855828e-02 9.5723346109718506e+00 0.0000000000000000e+00
-5.3639602109816664e-02 1.9440638702109823e+01 6.3387186812299501e-01
-4.7209091418247695e-02 1.7110024191418240e+01 0.0000000000000000e+00
ITEM: ATOMS id type x y z
1 1 8.70495 0.483591 3.69945
2 1 5.0034 9.17313 4.76507
3 1 7.08742 5.38089 0.44261
4 1 6.60796 4.27405 8.02447
5 2 7.71117 8.61124 3.12225
6 2 6.05452 1.07397 5.40131
7 2 8.11654 3.68576 1.0677
8 2 5.59011 5.93042 7.36925
9 2 6.48212 8.22128 3.53495
10 2 7.39069 1.46208 4.91644
11 2 0.412693 3.38314 0.708191
12 2 4.36035 6.2625 7.85541
13 2 7.10156 6.83973 1.93735
14 2 6.61859 2.77328 6.63378
15 2 8.74439 1.93544 2.32276
16 2 4.89655 7.66822 6.03271
17 5 1.07788 0.722878 5.21672
18 5 3.69969 8.95845 3.27389
19 5 1.55241 5.56509 7.5332
20 5 3.14222 4.09446 0.991303
21 5 3.18998 0.268126 5.72737
22 5 1.53967 9.4016 2.74314
23 5 8.51188 5.07007 7.09339
24 5 5.24899 4.53381 1.46054
25 3 8.09086 7.72154 2.18588
26 3 5.59607 1.87162 6.37229
27 3 7.71563 2.86408 2.06328
28 3 5.97158 6.78899 6.39001
29 3 6.15835 7.11689 2.79645
30 3 7.55131 2.44052 5.76657
31 3 0.739298 2.33057 1.48166
32 3 3.94195 7.3904 6.97772
33 6 2.26111 0.307723 5.01833
34 6 2.51161 9.34681 3.51755
35 6 0.422002 5.1452 7.78664
36 6 4.30916 4.48461 0.697036
37 4 0.133134 7.65107 1.81316
38 4 4.60291 1.79457 6.81717
39 4 6.67075 2.93715 2.40866
40 4 7.04371 6.89297 6.10316
41 4 5.12448 6.73959 2.7594
42 4 8.60801 2.72667 5.76878
43 4 1.70728 1.81394 1.43419
44 4 3.04483 7.94499 7.06708
45 1 4.53736 0.49496 12.3014
46 1 0.879034 9.15202 13.3216
47 1 2.96749 5.32099 9.03155
48 1 2.44192 4.26925 16.5844
49 2 3.55512 8.50851 11.8493
50 2 1.76543 1.0395 13.8382
51 2 3.95252 3.77159 9.70979
52 2 1.4859 5.96232 16.0003
53 2 2.18488 8.21223 11.9852
54 2 3.14203 1.30048 13.6237
55 2 5.29124 3.35495 9.27823
56 2 9.14488 6.3314 16.4098
57 2 2.94995 6.7874 10.4836
58 2 2.44459 2.86384 15.2526
59 2 4.4979 1.86333 10.8694
60 2 0.831458 7.62836 14.6723
61 5 5.82733 0.646369 13.7764
62 5 8.48397 9.0637 11.9748
63 5 6.34036 5.59694 16.199
64 5 8.01624 4.02224 9.50479
65 5 7.93881 0.273925 14.2963
66 5 6.30698 9.4305 11.3299
67 5 4.25775 5.09879 15.6651
68 5 1.12253 4.54094 10.0363
69 3 4.10725 7.45979 11.1094
70 3 1.46996 1.9032 14.8544
71 3 3.53762 2.84969 10.5884
72 3 1.85483 6.83961 15.0558
73 3 1.9377 7.11803 11.3255
74 3 3.39532 2.45985 14.3309
75 3 5.56127 2.31883 9.99935
76 3 8.80064 7.34024 15.5536
77 6 6.96406 0.286542 13.5185
78 6 7.25583 9.31188 12.1795
79 6 5.20449 5.22454 16.3566
80 6 9.1559 4.48713 9.27228
81 4 4.88241 7.6584 10.265
82 4 9.47811 1.90286 15.3878
83 4 2.67345 2.97635 11.2219
84 4 2.67422 6.74661 14.328
85 4 0.931829 6.65736 11.2798
86 4 4.45796 2.80277 14.3815
87 4 6.46794 1.72235 10.022
88 4 7.7789 7.80195 15.6549
89 1 8.67022 10.2293 3.72968
90 1 5.03763 18.8966 4.74666
91 1 7.10846 15.0952 0.491785
92 1 6.6131 14.0152 8.02422
93 2 7.73808 18.3617 3.1396
94 2 5.90249 11.0431 5.22501
95 2 8.11077 13.4268 1.01279
96 2 5.5934 15.6869 7.341
97 2 6.40485 18.0552 3.45207
98 2 7.32677 11.241 4.93738
99 2 0.421017 13.0792 0.69484
100 2 4.34652 16.1389 7.79554
101 2 7.12867 16.5899 1.82326
102 2 6.62497 12.58 6.56525
103 2 8.6214 11.7104 2.3655
104 2 5.00619 17.4252 6.17908
105 5 1.13587 10.4557 5.17465
106 5 3.64132 18.7905 3.26694
107 5 1.56715 15.327 7.58079
108 5 3.21644 13.8664 0.919272
109 5 3.16791 10.0272 5.81767
110 5 1.51323 19.1113 2.70598
111 5 8.39777 14.8795 7.01851
112 5 5.27105 14.2795 1.46616
113 3 8.08812 17.5031 2.16609
114 3 5.66661 11.6679 6.32231
115 3 7.70414 12.6115 2.05832
116 3 5.97531 16.4971 6.4606
117 3 6.12843 16.9016 2.74924
118 3 7.67321 12.2624 5.73996
119 3 0.656265 12.0078 1.52936
120 3 4.00129 17.1247 6.94367
121 6 2.26978 10.0653 4.96985
122 6 2.54455 19.1579 3.45898
123 6 0.390409 14.9259 7.8484
124 6 4.31199 14.2754 0.699366
125 4 0.127032 17.2972 1.77083
126 4 4.58685 11.7502 6.56441
127 4 6.76878 12.4775 2.60367
128 4 6.98924 16.3398 6.03607
129 4 5.23921 16.26 2.65062
130 4 8.55621 12.8055 5.68494
131 4 1.54775 11.4194 1.41798
132 4 3.11093 17.7141 7.1136
133 1 4.48273 10.2197 12.278
134 1 0.861504 18.8765 13.3708
135 1 2.9196 15.0616 9.07265
136 1 2.41855 14.0298 16.5729
137 2 3.44483 18.3547 11.7488
138 2 1.88338 10.7648 13.9341
139 2 3.93916 13.4128 9.64064
140 2 1.49301 15.6647 15.9437
141 2 2.15533 18.0373 12.09
142 2 3.15294 11.1204 13.5805
143 2 5.15919 13.0816 9.27164
144 2 9.15828 16.0159 16.3946
145 2 2.98537 16.5528 10.4152
146 2 2.41753 12.5438 15.1584
147 2 4.60343 11.7925 10.9524
148 2 0.795932 17.4547 14.778
149 5 5.94042 10.3811 13.7814
150 5 8.50596 18.7437 11.8432
151 5 6.32411 15.3712 16.1772
152 5 8.0352 13.8421 9.4593
153 5 8.01622 10.0307 14.2949
154 5 6.33364 19.0775 11.326
155 5 4.33047 14.9433 15.6446
156 5 1.18207 14.228 10.044
157 3 3.99725 17.4005 10.7809
158 3 1.52016 11.6297 14.9354
159 3 3.62574 12.622 10.6309
160 3 1.75386 16.4964 15.0681
161 3 1.9115 16.94 11.2476
162 3 3.4274 12.1979 14.3929
163 3 5.48467 12.0397 10.0215
164 3 8.85685 17.0742 15.6322
165 6 7.03971 9.92746 13.5372
166 6 7.30929 19.0687 12.119
167 6 5.25121 14.9033 16.4021
168 6 9.18164 14.3595 9.24339
169 4 4.94297 17.3374 10.1868
170 4 0.626577 11.7152 15.5583
171 4 2.83299 12.8107 11.3432
172 4 2.76246 16.5868 14.6443
173 4 0.995194 16.3482 11.448
174 4 4.32223 12.7295 14.1697
175 4 6.44049 11.5389 9.98854
176 4 7.92471 17.5827 15.5921
177 7 3.04282 9.6575 9.85083
178 8 3.23999 8.93162 8.92139
179 8 2.54958 10.417 10.6102
180 7 9.07857 11.6425 10.6203
181 8 8.33373 11.4477 11.487
182 8 0.767187 11.9378 9.69194
183 7 7.23673 6.71004 9.98604
184 8 7.33695 6.26655 8.99932
185 8 7.12732 7.21914 10.9473
186 7 1.82544 10.5586 7.94495
187 8 1.05516 9.81375 7.51891
188 8 2.58057 11.2851 8.39954
189 7 6.30749 9.08941 7.24209
190 8 7.00381 9.08942 6.36378
191 8 5.68834 8.81953 8.13699
192 7 9.16015 7.74549 7.00639
193 8 0.952592 7.38412 6.17357
194 8 8.32592 7.95713 7.80362
195 7 0.972666 8.31098 9.51567
196 8 1.03122 7.2212 9.06216
197 8 0.735308 9.35986 9.94099
198 7 7.74805 10.3572 8.53536
199 8 8.18685 11.082 7.81574
200 8 7.47178 9.51373 9.23353
201 7 6.14667 14.5954 12.4708
202 8 6.06355 15.4379 13.2742
203 8 6.1862 13.9977 11.4873
204 7 7.01395 13.5396 14.652
205 8 7.82156 13.9171 13.8616
206 8 6.42315 12.9409 15.4901
207 7 6.15944 4.47842 13.2155
208 8 5.58355 4.80244 12.2718
209 8 6.76572 4.04184 14.1111
210 7 8.91081 4.24991 12.7222
211 8 9.14729 4.82396 13.6835
212 8 8.69343 3.42386 11.9371
213 7 3.68233 4.66119 5.40173
214 8 3.01076 3.90163 5.91099
215 8 4.23959 5.50817 4.89831
216 7 4.28032 2.33612 2.80163
217 8 4.30404 1.84782 1.79543
218 8 4.25417 2.68705 3.86965
219 7 2.29407 13.5486 4.62525
220 8 2.04662 13.5891 5.73862
221 8 2.64847 13.5448 3.54195
222 7 3.78391 15.6257 4.86543
223 8 4.79301 15.0282 4.85949
224 8 2.79038 16.2407 4.79857
ITEM: TIMESTEP
32
ITEM: NUMBER OF ATOMS
224
ITEM: BOX BOUNDS xy xz yz pp pp pp
-2.6094180918472709e-02 9.5739687398175608e+00 0.0000000000000000e+00
-5.6753331983097510e-02 1.9443752431983103e+01 6.3407435889908892e-01
-4.9949536023680352e-02 1.7112764636023670e+01 0.0000000000000000e+00
ITEM: ATOMS id type x y z
1 1 8.70723 0.480293 3.69736
2 1 5.00255 9.17391 4.76375
3 1 7.08731 5.37985 0.438951
4 1 6.60913 4.27239 8.0249
5 2 7.71318 8.61236 3.12082
6 2 6.05744 1.07083 5.40036
7 2 8.11755 3.68403 1.06503
8 2 5.58904 5.92813 7.36694
9 2 6.48376 8.22053 3.53512
10 2 7.39268 1.46005 4.91321
11 2 0.412287 3.382 0.705233
12 2 4.35979 6.26205 7.85673
13 2 7.1027 6.83745 1.93602
14 2 6.61861 2.77087 6.63504
15 2 8.74647 1.93157 2.32157
16 2 4.89177 7.66661 6.02605
17 5 1.07817 0.720553 5.21615
18 5 3.699 8.95898 3.2721
19 5 1.55009 5.56165 7.53134
20 5 3.14228 4.09392 0.990993
21 5 3.18884 0.265241 5.72615
22 5 1.53991 9.40232 2.74218
23 5 8.51557 5.0661 7.09383
24 5 5.24719 4.53332 1.45792
25 3 8.0925 7.72058 2.18481
26 3 5.5963 1.86877 6.37298
27 3 7.71807 2.8617 2.06141
28 3 5.96986 6.78767 6.38741
29 3 6.1607 7.11502 2.79784
30 3 7.55179 2.43757 5.76481
31 3 0.738068 2.32909 1.47955
32 3 3.93968 7.3888 6.97658
33 6 2.25826 0.306245 5.01662
34 6 2.51268 9.34532 3.51582
35 6 0.424033 5.14307 7.78735
36 6 4.30695 4.48237 0.694434
37 4 0.126645 7.64341 1.8161
38 4 4.60428 1.79401 6.81851
39 4 6.66991 2.92907 2.40798
40 4 7.04538 6.89612 6.10272
41 4 5.12525 6.73986 2.75656
42 4 8.60841 2.72249 5.77461
43 4 1.70901 1.81173 1.43038
44 4 3.0472 7.9432 7.062
45 1 4.53815 0.491953 12.3028
46 1 0.878092 9.1521 13.3224
47 1 2.96747 5.31804 9.03095
48 1 2.44167 4.26752 16.5871
49 2 3.55656 8.50377 11.8569
50 2 1.76268 1.03588 13.8367
51 2 3.95431 3.77183 9.71111
52 2 1.48565 5.96142 16.0036
53 2 2.1822 8.21171 11.9855
54 2 3.1416 1.29438 13.6265
55 2 5.2928 3.35443 9.27745
56 2 9.14678 6.33161 16.4139
57 2 2.95239 6.78344 10.4873
58 2 2.4438 2.86316 15.2562
59 2 4.49763 1.8583 10.8686
60 2 0.829148 7.62737 14.6716
61 5 5.82653 0.641886 13.7779
62 5 8.48447 9.06702 11.9806
63 5 6.33917 5.59692 16.2026
64 5 8.02037 4.01823 9.50542
65 5 7.9364 0.271301 14.2964
66 5 6.30716 9.43301 11.3334
67 5 4.25816 5.09625 15.6688
68 5 1.12086 4.54066 10.0362
69 3 4.11243 7.44756 11.1235
70 3 1.46963 1.9018 14.8556
71 3 3.53711 2.84599 10.589
72 3 1.8546 6.84134 15.0583
73 3 1.93814 7.11406 11.3291
74 3 3.39272 2.45721 14.3325
75 3 5.5615 2.31474 10.0003
76 3 8.80249 7.33884 15.5555
77 6 6.96304 0.284366 13.5199
78 6 7.25558 9.30907 12.1831
79 6 5.20493 5.22516 16.3609
80 6 9.1572 4.48388 9.27244
81 4 4.88383 7.65423 10.2736
82 4 9.47963 1.90195 15.3881
83 4 2.68009 2.97527 11.2231
84 4 2.66869 6.7436 14.3275
85 4 0.930115 6.65778 11.2822
86 4 4.46295 2.79735 14.3874
87 4 6.4681 1.72305 10.0171
88 4 7.77375 7.8049 15.6551
89 1 8.67136 10.229 3.72856
90 1 5.03786 18.8997 4.74478
91 1 7.10902 15.0963 0.489613
92 1 6.61436 14.0165 8.02461
93 2 7.74016 18.366 3.13888
94 2 5.89926 11.0524 5.21698
95 2 8.11154 13.4277 1.0088
96 2 5.59254 15.6881 7.34004
97 2 6.40475 18.0604 3.44985
98 2 7.3281 11.2445 4.93365
99 2 0.420453 13.0795 0.691646
100 2 4.34669 16.1437 7.79614
101 2 7.12991 16.592 1.82005
102 2 6.62547 12.5837 6.56334
103 2 8.6208 11.7099 2.36551
104 2 5.00691 17.4294 6.17781
105 5 1.13706 10.4567 5.17188
106 5 3.64067 18.7962 3.26436
107 5 1.56411 15.329 7.58136
108 5 3.21768 13.8692 0.91698
109 5 3.16531 10.0277 5.81791
110 5 1.51332 19.114 2.70418
111 5 8.39974 14.8808 7.01913
112 5 5.26957 14.2819 1.46354
113 3 8.08934 17.5053 2.16348
114 3 5.66802 11.6698 6.32137
115 3 7.70503 12.612 2.05712
116 3 5.97521 16.5001 6.46127
117 3 6.13124 16.9027 2.74692
118 3 7.67597 12.2662 5.7367
119 3 0.653151 12.0075 1.52816
120 3 4.00022 17.1284 6.94274
121 6 2.26944 10.0673 4.96875
122 6 2.54306 19.1627 3.45639
123 6 0.389846 14.9303 7.84738
124 6 4.31214 14.2777 0.697462
125 4 0.125372 17.2952 1.77532
126 4 4.58347 11.7622 6.56034
127 4 6.77143 12.4777 2.59753
128 4 6.99518 16.3442 6.0298
129 4 5.23889 16.265 2.65167
130 4 8.54767 12.8031 5.68233
131 4 1.53707 11.419 1.41613
132 4 3.11712 17.7201 7.11394
133 1 4.48187 10.2192 12.2788
134 1 0.85998 18.879 13.3731
135 1 2.91807 15.0616 9.07329
136 1 2.41761 14.0316 16.5751
137 2 3.4431 18.3583 11.7507
138 2 1.88311 10.7633 13.9358
139 2 3.93845 13.414 9.64051
140 2 1.49223 15.6647 15.9465
141 2 2.1512 18.0413 12.0918
142 2 3.15364 11.1198 13.582
143 2 5.15893 13.0821 9.27005
144 2 9.16088 16.0168 16.3985
145 2 2.98588 16.5533 10.4147
146 2 2.41639 12.5461 15.1606
147 2 4.60722 11.7951 10.9559
148 2 0.793802 17.4584 14.7807
149 5 5.94322 10.3793 13.783
150 5 8.50725 18.7485 11.844
151 5 6.32285 15.3756 16.1808
152 5 8.04003 13.8449 9.45819
153 5 8.01657 10.0314 14.2949
154 5 6.33552 19.0791 11.3282
155 5 4.33326 14.9468 15.6484
156 5 1.18185 14.2303 10.0437
157 3 3.99784 17.4005 10.7837
158 3 1.52074 11.6297 14.9385
159 3 3.62772 12.6246 10.6328
160 3 1.75035 16.4998 15.0698
161 3 1.91069 16.9434 11.2473
162 3 3.427 12.1974 14.395
163 3 5.4826 12.0396 10.0205
164 3 8.8585 17.077 15.6359
165 6 7.03987 9.92568 13.5401
166 6 7.3108 19.0694 12.1198
167 6 5.25139 14.9071 16.4062
168 6 9.18249 14.3638 9.24492
169 4 4.94621 17.3381 10.1889
170 4 0.629572 11.7153 15.5603
171 4 2.84749 12.8166 11.3469
172 4 2.76337 16.5929 14.6485
173 4 0.996356 16.3472 11.4497
174 4 4.31304 12.7323 14.1706
175 4 6.44575 11.5384 9.98758
176 4 7.9316 17.5796 15.597
177 7 3.04222 9.66209 9.8485
178 8 3.23626 8.94044 8.91178
179 8 2.54404 10.4166 10.6096
180 7 9.08134 11.6427 10.62
181 8 8.33484 11.4533 11.4882
182 8 0.765316 11.9349 9.69138
183 7 7.2374 6.70916 9.98711
184 8 7.33747 6.26659 8.9993
185 8 7.12731 7.21616 10.9463
186 7 1.82461 10.5586 7.94469
187 8 1.05436 9.81345 7.52181
188 8 2.58189 11.2863 8.39804
189 7 6.30825 9.09331 7.24439
190 8 7.00881 9.0817 6.36453
191 8 5.68895 8.82436 8.14008
192 7 9.16334 7.74512 7.00539
193 8 0.951577 7.38145 6.17079
194 8 8.32786 7.95505 7.80199
195 7 0.972909 8.30912 9.5142
196 8 1.02626 7.2232 9.0611
197 8 0.735317 9.36054 9.9417
198 7 7.74782 10.3568 8.53744
199 8 8.19074 11.082 7.81835
200 8 7.47337 9.5127 9.23152
201 7 6.14759 14.5957 12.4723
202 8 6.06521 15.4435 13.2737
203 8 6.18546 14.0007 11.489
204 7 7.01464 13.5418 14.6519
205 8 7.82484 13.9182 13.8622
206 8 6.42722 12.9372 15.4898
207 7 6.1605 4.47705 13.2199
208 8 5.58281 4.80136 12.2728
209 8 6.76637 4.03907 14.1125
210 7 8.91199 4.25036 12.7213
211 8 9.14997 4.82327 13.6861
212 8 8.69391 3.42093 11.9409
213 7 3.67888 4.65597 5.402
214 8 3.00759 3.90015 5.91091
215 8 4.23692 5.5065 4.89473
216 7 4.28151 2.3339 2.79794
217 8 4.30608 1.84388 1.79322
218 8 4.25459 2.68368 3.86952
219 7 2.29273 13.5475 4.62461
220 8 2.04737 13.5888 5.73795
221 8 2.64903 13.544 3.53999
222 7 3.78311 15.6269 4.86335
223 8 4.79036 15.0258 4.85395
224 8 2.78962 16.2455 4.79702
ITEM: TIMESTEP
33
ITEM: NUMBER OF ATOMS
224
ITEM: BOX BOUNDS xy xz yz pp pp pp
-2.7553926346256752e-02 9.5756349515239698e+00 0.0000000000000000e+00
-5.9928193732261548e-02 1.9446927293732266e+01 6.3428082517771378e-01
-5.2743783793260945e-02 1.7115558883793248e+01 0.0000000000000000e+00
ITEM: ATOMS id type x y z
1 1 8.70955 0.476939 3.69524
2 1 5.00169 9.17469 4.76241
3 1 7.08721 5.37879 0.435248
4 1 6.61031 4.27068 8.02533
5 2 7.71524 8.61351 3.11937
6 2 6.06045 1.06758 5.39931
7 2 8.11855 3.68231 1.06231
8 2 5.58795 5.92575 7.3646
9 2 6.48536 8.21976 3.53524
10 2 7.39453 1.45791 4.91004
11 2 0.411905 3.38081 0.702229
12 2 4.35913 6.2617 7.85793
13 2 7.10391 6.83508 1.93458
14 2 6.61856 2.76845 6.63635
15 2 8.7485 1.92765 2.32036
16 2 4.88702 7.66499 6.01937
17 5 1.07851 0.718154 5.21558
18 5 3.69823 8.95951 3.27028
19 5 1.54776 5.55808 7.52946
20 5 3.14238 4.09338 0.990621
21 5 3.18774 0.262299 5.72497
22 5 1.54015 9.40302 2.74119
23 5 8.51919 5.06209 7.09413
24 5 5.2454 4.53281 1.45527
25 3 8.09413 7.71962 2.18372
26 3 5.59662 1.86592 6.37364
27 3 7.72059 2.85926 2.05948
28 3 5.96807 6.78632 6.38478
29 3 6.16303 7.11318 2.79922
30 3 7.55241 2.43461 5.76298
31 3 0.736844 2.32755 1.47739
32 3 3.93748 7.38699 6.97546
33 6 2.25528 0.304665 5.01468
34 6 2.51379 9.34385 3.51411
35 6 0.426178 5.14081 7.78822
36 6 4.30469 4.48014 0.691692
37 4 0.120295 7.63567 1.81888
38 4 4.60575 1.79355 6.81994
39 4 6.66945 2.92056 2.4074
40 4 7.04659 6.8989 6.10206
41 4 5.12623 6.74008 2.75365
42 4 8.60863 2.71866 5.78074
43 4 1.71058 1.80959 1.42645
44 4 3.04927 7.94123 7.0566
45 1 4.53894 0.488885 12.3042
46 1 0.877122 9.15217 13.3231
47 1 2.96744 5.31507 9.03036
48 1 2.44141 4.26576 16.5898
49 2 3.55801 8.49892 11.8645
50 2 1.75999 1.03221 13.8352
51 2 3.9562 3.77201 9.71238
52 2 1.48533 5.96046 16.007
53 2 2.17955 8.21121 11.986
54 2 3.1411 1.28826 13.6293
55 2 5.29425 3.35394 9.27666
56 2 9.14872 6.3318 16.418
57 2 2.95498 6.77941 10.4912
58 2 2.44298 2.86237 15.2598
59 2 4.49739 1.85329 10.8677
60 2 0.826805 7.62642 14.6709
61 5 5.82575 0.637347 13.7794
62 5 8.48492 9.07031 11.9864
63 5 6.33799 5.5969 16.2062
64 5 8.02457 4.01416 9.50605
65 5 7.93398 0.268626 14.2966
66 5 6.30737 9.43556 11.337
67 5 4.25854 5.0937 15.6725
68 5 1.1192 4.54035 10.0362
69 3 4.11747 7.43534 11.1374
70 3 1.46929 1.90041 14.8568
71 3 3.53665 2.84219 10.5897
72 3 1.85434 6.84307 15.0608
73 3 1.93859 7.11 11.3328
74 3 3.39015 2.45452 14.3342
75 3 5.56166 2.31048 10.0015
76 3 8.80434 7.33743 15.5574
77 6 6.96213 0.282087 13.5214
78 6 7.25535 9.30629 12.1867
79 6 5.20535 5.22566 16.3655
80 6 9.15851 4.48058 9.27251
81 4 4.8848 7.65003 10.2832
82 4 9.48117 1.90094 15.3882
83 4 2.68654 2.97418 11.2244
84 4 2.66321 6.74031 14.3274
85 4 0.928557 6.65833 11.2848
86 4 4.46745 2.79183 14.3934
87 4 6.46845 1.72386 10.0119
88 4 7.76917 7.80778 15.6551
89 1 8.67253 10.2288 3.7274
90 1 5.03809 18.9029 4.74289
91 1 7.1096 15.0974 0.487387
92 1 6.61563 14.0178 8.025
93 2 7.74222 18.3704 3.13815
94 2 5.89617 11.0617 5.20886
95 2 8.11228 13.4287 1.0048
96 2 5.59164 15.6892 7.33919
97 2 6.40467 18.0656 3.44758
98 2 7.32935 11.248 4.92992
99 2 0.41988 13.0798 0.68842
100 2 4.34686 16.1485 7.79672
101 2 7.13116 16.594 1.81685
102 2 6.62595 12.5876 6.56142
103 2 8.62026 11.7093 2.3655
104 2 5.00771 17.4338 6.17646
105 5 1.13822 10.4577 5.16907
106 5 3.64006 18.8018 3.2617
107 5 1.56098 15.331 7.58193
108 5 3.21888 13.8719 0.914657
109 5 3.1627 10.0281 5.8181
110 5 1.51346 19.1167 2.70238
111 5 8.40179 14.8821 7.0198
112 5 5.26808 14.2843 1.46088
113 3 8.09057 17.5075 2.16078
114 3 5.66938 11.6718 6.32042
115 3 7.70596 12.6126 2.05586
116 3 5.97519 16.5033 6.46191
117 3 6.13412 16.9039 2.74447
118 3 7.67863 12.27 5.73338
119 3 0.650026 12.0071 1.52687
120 3 3.99914 17.1322 6.9419
121 6 2.2691 10.0693 4.96757
122 6 2.54137 19.1677 3.45391
123 6 0.389317 14.9347 7.84627
124 6 4.31239 14.2802 0.695441
125 4 0.123715 17.2935 1.77996
126 4 4.58053 11.7746 6.55641
127 4 6.77384 12.4782 2.59099
128 4 7.00065 16.3491 6.02337
129 4 5.23843 16.2705 2.65308
130 4 8.53975 12.801 5.6796
131 4 1.52654 11.4186 1.41425
132 4 3.12327 17.7263 7.11425
133 1 4.48102 10.2186 12.2795
134 1 0.858426 18.8816 13.3754
135 1 2.91653 15.0616 9.07394
136 1 2.41666 14.0334 16.5774
137 2 3.44146 18.3619 11.7524
138 2 1.8828 10.7617 13.9374
139 2 3.9377 13.4154 9.64038
140 2 1.49135 15.6646 15.9494
141 2 2.14708 18.0452 12.0937
142 2 3.15433 11.1192 13.5837
143 2 5.15876 13.0825 9.26841
144 2 9.16353 16.0178 16.4024
145 2 2.98634 16.5538 10.4142
146 2 2.41525 12.5485 15.1629
147 2 4.61101 11.7977 10.9595
148 2 0.791728 17.4621 14.7834
149 5 5.94602 10.3775 13.7846
150 5 8.5085 18.7534 11.8449
151 5 6.32164 15.3801 16.1845
152 5 8.04493 13.8478 9.45709
153 5 8.01693 10.032 14.295
154 5 6.33746 19.0806 11.3304
155 5 4.33601 14.9503 15.6522
156 5 1.18159 14.2327 10.0435
157 3 3.99831 17.4006 10.7865
158 3 1.52129 11.6298 14.9415
159 3 3.62971 12.6272 10.6349
160 3 1.74688 16.5032 15.0715
161 3 1.9099 16.947 11.247
162 3 3.42662 12.1969 14.3971
163 3 5.48056 12.0395 10.0194
164 3 8.86014 17.0799 15.6395
165 6 7.04005 9.92391 13.5431
166 6 7.31231 19.0703 12.1205
167 6 5.25152 14.9109 16.4105
168 6 9.18327 14.3681 9.24653
169 4 4.94928 17.3393 10.1915
170 4 0.632316 11.715 15.562
171 4 2.8618 12.8226 11.3506
172 4 2.76413 16.599 14.6528
173 4 0.997755 16.3462 11.4512
174 4 4.30399 12.7356 14.1716
175 4 6.45091 11.5381 9.98663
176 4 7.93808 17.5766 15.6022
177 7 3.04154 9.6667 9.84612
178 8 3.23256 8.94933 8.90229
179 8 2.53852 10.4161 10.609
180 7 9.08412 11.6429 10.6196
181 8 8.33601 11.459 11.4895
182 8 0.763411 11.932 9.69087
183 7 7.2381 6.70827 9.98818
184 8 7.338 6.26658 8.99915
185 8 7.12731 7.21315 10.9455
186 7 1.82374 10.5586 7.94442
187 8 1.05355 9.81314 7.52471
188 8 2.58323 11.2876 8.39648
189 7 6.30905 9.09721 7.24669
190 8 7.01391 9.07404 6.36518
191 8 5.6895 8.82922 8.14328
192 7 9.16655 7.74472 7.00436
193 8 0.950493 7.37885 6.16797
194 8 8.32985 7.95296 7.8003
195 7 0.973063 8.30721 9.51268
196 8 1.02126 7.2253 9.06008
197 8 0.735313 9.36118 9.94239
198 7 7.74766 10.3563 8.53957
199 8 8.19469 11.082 7.82094
200 8 7.47496 9.51165 9.22957
201 7 6.14851 14.5962 12.4738
202 8 6.06686 15.4492 13.2733
203 8 6.18476 14.0038 11.4907
204 7 7.01542 13.5439 14.6519
205 8 7.8281 13.9194 13.8628
206 8 6.43133 12.9336 15.4895
207 7 6.16159 4.47561 13.2244
208 8 5.58206 4.80026 12.2738
209 8 6.76702 4.03626 14.1139
210 7 8.91321 4.25069 12.7205
211 8 9.15269 4.8226 13.6887
212 8 8.69441 3.41794 11.9446
213 7 3.67542 4.65076 5.40225
214 8 3.00438 3.89856 5.91085
215 8 4.23428 5.50479 4.89105
216 7 4.28269 2.33163 2.79426
217 8 4.30812 1.83983 1.79085
218 8 4.25499 2.68031 3.86944
219 7 2.29138 13.5464 4.62395
220 8 2.04809 13.5884 5.7373
221 8 2.64957 13.5432 3.53795
222 7 3.78231 15.6281 4.86121
223 8 4.78767 15.0235 4.84835
224 8 2.78885 16.2503 4.79543
ITEM: TIMESTEP
34
ITEM: NUMBER OF ATOMS
224
ITEM: BOX BOUNDS xy xz yz pp pp pp
-2.9040742593138269e-02 9.5773320629440040e+00 0.0000000000000000e+00
-6.3161932944877819e-02 1.9450161032944884e+01 6.3449112035086508e-01
-5.5589850581723610e-02 1.7118404950581713e+01 0.0000000000000000e+00
ITEM: ATOMS id type x y z
1 1 8.7119 0.473533 3.69309
2 1 5.00085 9.17548 4.76104
3 1 7.08714 5.3777 0.431504
4 1 6.61151 4.26894 8.02575
5 2 7.71735 8.61466 3.1179
6 2 6.06354 1.06423 5.39817
7 2 8.11951 3.68063 1.05953
8 2 5.58685 5.92329 7.36223
9 2 6.4869 8.21898 3.53531
10 2 7.39624 1.45565 4.90692
11 2 0.411545 3.37956 0.69918
12 2 4.35839 6.26145 7.859
13 2 7.10516 6.83262 1.93302
14 2 6.61845 2.76601 6.63771
15 2 8.75047 1.92368 2.31915
16 2 4.88232 7.66334 6.0127
17 5 1.07889 0.715683 5.21501
18 5 3.69738 8.96006 3.26841
19 5 1.54545 5.55439 7.52755
20 5 3.14252 4.09283 0.990187
21 5 3.18667 0.259304 5.72382
22 5 1.5404 9.40371 2.74018
23 5 8.52273 5.05803 7.09431
24 5 5.24363 4.53227 1.45257
25 3 8.09574 7.71867 2.1826
26 3 5.59703 1.86306 6.37428
27 3 7.72318 2.85676 2.05749
28 3 5.96621 6.78492 6.38211
29 3 6.16533 7.11139 2.80062
30 3 7.55317 2.43163 5.76109
31 3 0.735628 2.32594 1.47519
32 3 3.93537 7.38499 6.97434
33 6 2.25218 0.302983 5.01251
34 6 2.51492 9.3424 3.51242
35 6 0.428426 5.13841 7.78926
36 6 4.30239 4.47793 0.688812
37 4 0.114152 7.62786 1.82148
38 4 4.60732 1.79319 6.82146
39 4 6.6694 2.91164 2.40693
40 4 7.04731 6.90129 6.10118
41 4 5.12742 6.74026 2.75069
42 4 8.60869 2.71516 5.78715
43 4 1.71193 1.80752 1.42241
44 4 3.05099 7.93911 7.05092
45 1 4.53973 0.485757 12.3057
46 1 0.876126 9.15224 13.3239
47 1 2.96741 5.31207 9.02977
48 1 2.44114 4.26397 16.5925
49 2 3.55947 8.49397 11.8721
50 2 1.75736 1.02848 13.8338
51 2 3.95818 3.77215 9.7136
52 2 1.48494 5.95944 16.0104
53 2 2.17695 8.21072 11.9865
54 2 3.14054 1.28213 13.6322
55 2 5.29559 3.35349 9.27587
56 2 9.15071 6.33195 16.4222
57 2 2.95771 6.77534 10.4952
58 2 2.44211 2.86146 15.2634
59 2 4.49719 1.84831 10.8668
60 2 0.824433 7.62553 14.6703
61 5 5.82499 0.632754 13.7809
62 5 8.48531 9.07357 11.9923
63 5 6.33683 5.59688 16.2098
64 5 8.02884 4.01003 9.5067
65 5 7.93157 0.265902 14.2968
66 5 6.3076 9.43812 11.3408
67 5 4.2589 5.09114 15.6761
68 5 1.11754 4.54002 10.0362
69 3 4.12237 7.42313 11.1511
70 3 1.46896 1.89903 14.8582
71 3 3.53623 2.83828 10.5905
72 3 1.85406 6.84482 15.0633
73 3 1.93906 7.10584 11.3366
74 3 3.38764 2.45179 14.3359
75 3 5.56175 2.30605 10.0027
76 3 8.80619 7.33599 15.5594
77 6 6.96133 0.279706 13.5228
78 6 7.25514 9.30353 12.1904
79 6 5.20576 5.22602 16.3705
80 6 9.15982 4.47724 9.2725
81 4 4.88531 7.64579 10.2937
82 4 9.48273 1.89985 15.3882
83 4 2.69277 2.97307 11.2257
84 4 2.6578 6.73675 14.3276
85 4 0.92716 6.65901 11.2875
86 4 4.47142 2.78618 14.3995
87 4 6.46899 1.72476 10.0064
88 4 7.76524 7.81054 15.6549
89 1 8.67373 10.2286 3.72621
90 1 5.03833 18.9061 4.74097
91 1 7.1102 15.0985 0.485111
92 1 6.6169 14.0192 8.02538
93 2 7.74427 18.3749 3.13739
94 2 5.89323 11.0709 5.20065
95 2 8.11299 13.4297 1.0008
96 2 5.5907 15.6903 7.33843
97 2 6.4046 18.0708 3.44527
98 2 7.33053 11.2516 4.92619
99 2 0.419297 13.0801 0.685167
100 2 4.34703 16.1532 7.79727
101 2 7.13241 16.5962 1.81367
102 2 6.62644 12.5916 6.55949
103 2 8.61976 11.7087 2.36547
104 2 5.00858 17.4384 6.17504
105 5 1.13936 10.4587 5.16623
106 5 3.6395 18.8076 3.25896
107 5 1.55777 15.333 7.5825
108 5 3.22003 13.8747 0.912304
109 5 3.16009 10.0286 5.81822
110 5 1.51365 19.1194 2.70057
111 5 8.4039 14.8835 7.02051
112 5 5.2666 14.2867 1.45817
113 3 8.09181 17.5096 2.15799
114 3 5.67066 11.6738 6.31946
115 3 7.70694 12.6132 2.05456
116 3 5.97525 16.5066 6.4625
117 3 6.13706 16.9051 2.74191
118 3 7.68118 12.2739 5.73001
119 3 0.646884 12.0069 1.5255
120 3 3.99805 17.1359 6.94115
121 6 2.26877 10.0712 4.96629
122 6 2.53949 19.1727 3.45152
123 6 0.388816 14.9392 7.84508
124 6 4.31271 14.2827 0.693302
125 4 0.122079 17.2921 1.78475
126 4 4.57807 11.7873 6.5526
127 4 6.77594 12.4792 2.58409
128 4 7.00558 16.3545 6.01683
129 4 5.23785 16.2766 2.65482
130 4 8.53258 12.7993 5.67672
131 4 1.51623 11.418 1.41234
132 4 3.12934 17.7328 7.11454
133 1 4.48017 10.2181 12.2804
134 1 0.856844 18.8842 13.3777
135 1 2.91499 15.0617 9.07458
136 1 2.41571 14.0352 16.5797
137 2 3.43991 18.3656 11.7542
138 2 1.88244 10.7602 13.9392
139 2 3.93689 13.4169 9.64025
140 2 1.49035 15.6645 15.9525
141 2 2.14295 18.0492 12.0955
142 2 3.15502 11.1186 13.5853
143 2 5.15866 13.083 9.26672
144 2 9.16623 16.0189 16.4062
145 2 2.98676 16.5544 10.4138
146 2 2.41412 12.551 15.1654
147 2 4.6148 11.8003 10.9631
148 2 0.789709 17.4658 14.7861
149 5 5.94881 10.3758 13.7862
150 5 8.50971 18.7584 11.8457
151 5 6.32047 15.3847 16.1883
152 5 8.04991 13.8508 9.456
153 5 8.01731 10.0326 14.295
154 5 6.33944 19.0823 11.3327
155 5 4.33872 14.9539 15.6561
156 5 1.18129 14.2352 10.0432
157 3 3.99867 17.4007 10.7893
158 3 1.52181 11.6299 14.9446
159 3 3.63171 12.6299 10.6369
160 3 1.74345 16.5069 15.0731
161 3 1.90911 16.9506 11.2468
162 3 3.42624 12.1963 14.3991
163 3 5.47857 12.0393 10.0184
164 3 8.86177 17.0829 15.6433
165 6 7.04027 9.92215 13.5462
166 6 7.31381 19.0713 12.1212
167 6 5.25158 14.9147 16.415
168 6 9.18399 14.3724 9.24822
169 4 4.95216 17.341 10.1946
170 4 0.634786 11.7143 15.5634
171 4 2.87585 12.8288 11.3543
172 4 2.76469 16.6051 14.6573
173 4 0.999399 16.3453 11.4525
174 4 4.29512 12.7393 14.1727
175 4 6.45588 11.5381 9.98569
176 4 7.9441 17.5737 15.6076
177 7 3.04077 9.67133 9.84367
178 8 3.22887 8.95828 8.89292
179 8 2.53303 10.4156 10.6084
180 7 9.08692 11.6432 10.6192
181 8 8.33723 11.4648 11.4908
182 8 0.761474 11.929 9.6904
183 7 7.23884 6.70738 9.98924
184 8 7.33855 6.26652 8.99886
185 8 7.1273 7.21012 10.9449
186 7 1.82285 10.5586 7.94413
187 8 1.05274 9.81281 7.52761
188 8 2.58457 11.2889 8.39487
189 7 6.30988 9.10109 7.249
190 8 7.0191 9.06646 6.36573
191 8 5.68997 8.83411 8.1466
192 7 9.16979 7.74428 7.0033
193 8 0.94934 7.3763 6.16512
194 8 8.3319 7.95083 7.79854
195 7 0.973125 8.30528 9.5111
196 8 1.01622 7.22751 9.0591
197 8 0.735298 9.36179 9.94305
198 7 7.74756 10.3559 8.54174
199 8 8.19869 11.0822 7.8235
200 8 7.47654 9.51056 9.22767
201 7 6.14941 14.5968 12.4753
202 8 6.0685 15.4548 13.2729
203 8 6.1841 14.0069 11.4925
204 7 7.01629 13.546 14.6519
205 8 7.83134 13.9205 13.8635
206 8 6.4355 12.93 15.4891
207 7 6.16268 4.47412 13.229
208 8 5.58132 4.79914 12.2748
209 8 6.76767 4.03342 14.1153
210 7 8.91447 4.25092 12.7197
211 8 9.15544 4.82193 13.6913
212 8 8.69492 3.41492 11.9484
213 7 3.67194 4.64556 5.40247
214 8 3.00113 3.89687 5.91082
215 8 4.23165 5.50305 4.88728
216 7 4.28387 2.32931 2.79058
217 8 4.31017 1.83567 1.78832
218 8 4.25539 2.67695 3.86942
219 7 2.29004 13.5453 4.62325
220 8 2.04877 13.5881 5.73667
221 8 2.6501 13.5424 3.53585
222 7 3.7815 15.6294 4.85902
223 8 4.78492 15.0211 4.84269
224 8 2.78808 16.2552 4.7938
ITEM: TIMESTEP
35
ITEM: NUMBER OF ATOMS
224
ITEM: BOX BOUNDS xy xz yz pp pp pp
-3.0553595666909850e-02 9.5790588938376757e+00 0.0000000000000000e+00
-6.6452300747787518e-02 1.9453451400747795e+01 6.3470509817076626e-01
-5.8485757119008497e-02 1.7121300857119000e+01 0.0000000000000000e+00
ITEM: ATOMS id type x y z
1 1 8.71427 0.470077 3.69091
2 1 5 9.17626 4.75965
3 1 7.08708 5.37657 0.427721
4 1 6.61273 4.26717 8.02616
5 2 7.71951 8.61583 3.11641
6 2 6.06671 1.06077 5.39692
7 2 8.12046 3.67896 1.05671
8 2 5.58572 5.92074 7.35984
9 2 6.48839 8.21817 3.53534
10 2 7.39779 1.45328 4.90386
11 2 0.411207 3.37826 0.696091
12 2 4.35756 6.26129 7.85994
13 2 7.10648 6.83007 1.93136
14 2 6.61827 2.76356 6.6391
15 2 8.75237 1.91967 2.31792
16 2 4.87765 7.66167 6.00604
17 5 1.07931 0.713143 5.21444
18 5 3.69646 8.96061 3.26651
19 5 1.54314 5.55057 7.52561
20 5 3.1427 4.09227 0.989692
21 5 3.18563 0.256256 5.72271
22 5 1.54067 9.4044 2.73915
23 5 8.5262 5.05392 7.09437
24 5 5.24187 4.5317 1.44984
25 3 8.09733 7.71771 2.18146
26 3 5.59753 1.8602 6.37488
27 3 7.72585 2.85419 2.05545
28 3 5.96427 6.78348 6.37941
29 3 6.16761 7.10963 2.80201
30 3 7.55408 2.42864 5.75915
31 3 0.734425 2.32427 1.47294
32 3 3.93335 7.38279 6.97324
33 6 2.24898 0.301199 5.01012
34 6 2.51607 9.34099 3.51076
35 6 0.430767 5.13588 7.79045
36 6 4.30006 4.47574 0.685798
37 4 0.108278 7.61998 1.82388
38 4 4.60898 1.79291 6.82306
39 4 6.66976 2.90232 2.40652
40 4 7.04751 6.90327 6.10008
41 4 5.12884 6.74041 2.74768
42 4 8.60859 2.712 5.79384
43 4 1.71305 1.80555 1.41826
44 4 3.05232 7.93685 7.04498
45 1 4.54052 0.482571 12.3071
46 1 0.875103 9.1523 13.3247
47 1 2.96736 5.30905 9.0292
48 1 2.44085 4.26216 16.5953
49 2 3.56093 8.48892 11.8798
50 2 1.75481 1.02471 13.8324
51 2 3.96025 3.77222 9.71478
52 2 1.48449 5.95837 16.0139
53 2 2.1744 8.21025 11.9872
54 2 3.13992 1.27599 13.6351
55 2 5.29683 3.35308 9.27509
56 2 9.15275 6.33207 16.4263
57 2 2.9606 6.77122 10.4993
58 2 2.44121 2.86044 15.2669
59 2 4.49701 1.84336 10.8659
60 2 0.822032 7.62468 14.6697
61 5 5.82424 0.628109 13.7825
62 5 8.48566 9.0768 11.9982
63 5 6.3357 5.59688 16.2135
64 5 8.03317 4.00584 9.50736
65 5 7.92916 0.263132 14.297
66 5 6.30786 9.44071 11.3446
67 5 4.25923 5.08857 15.6797
68 5 1.11589 4.53966 10.0361
69 3 4.12713 7.41094 11.1647
70 3 1.46862 1.89766 14.8596
71 3 3.53587 2.83427 10.5912
72 3 1.85375 6.84657 15.0658
73 3 1.93954 7.1016 11.3405
74 3 3.38518 2.44902 14.3377
75 3 5.56176 2.30147 10.0042
76 3 8.80803 7.33454 15.5615
77 6 6.96064 0.277223 13.5243
78 6 7.25496 9.3008 12.1941
79 6 5.20614 5.22624 16.3757
80 6 9.16114 4.47385 9.27239
81 4 4.88536 7.64148 10.3051
82 4 9.48431 1.89868 15.388
83 4 2.69874 2.97195 11.2272
84 4 2.65247 6.73292 14.3282
85 4 0.925929 6.65981 11.2902
86 4 4.47478 2.78038 14.4058
87 4 6.46974 1.72571 10.0007
88 4 7.76203 7.81315 15.6544
89 1 8.67495 10.2284 3.72499
90 1 5.03856 18.9094 4.73903
91 1 7.11081 15.0996 0.482785
92 1 6.61819 14.0205 8.02575
93 2 7.7463 18.3794 3.13662
94 2 5.89045 11.08 5.19237
95 2 8.11367 13.4308 0.99681
96 2 5.58971 15.6914 7.33778
97 2 6.40455 18.076 3.44293
98 2 7.33163 11.2551 4.92246
99 2 0.418703 13.0804 0.68189
100 2 4.34719 16.158 7.79781
101 2 7.13366 16.5983 1.81051
102 2 6.62692 12.5957 6.55755
103 2 8.6193 11.708 2.36542
104 2 5.00953 17.443 6.17355
105 5 1.14048 10.4597 5.16336
106 5 3.63899 18.8133 3.25614
107 5 1.55449 15.335 7.58307
108 5 3.22113 13.8774 0.909925
109 5 3.15747 10.029 5.81827
110 5 1.51389 19.1222 2.69877
111 5 8.40608 14.8848 7.02127
112 5 5.26512 14.2891 1.45543
113 3 8.09306 17.5118 2.15512
114 3 5.67187 11.676 6.31849
115 3 7.70797 12.6138 2.05321
116 3 5.9754 16.51 6.46305
117 3 6.14007 16.9063 2.73924
118 3 7.68362 12.2777 5.7266
119 3 0.643724 12.0067 1.52404
120 3 3.99697 17.1397 6.94048
121 6 2.26845 10.0731 4.96493
122 6 2.53742 19.178 3.44923
123 6 0.388339 14.9438 7.8438
124 6 4.31312 14.2852 0.691045
125 4 0.120482 17.291 1.78968
126 4 4.57612 11.8003 6.5489
127 4 6.77773 12.4806 2.57684
128 4 7.0099 16.3603 6.01021
129 4 5.23714 16.2833 2.65688
130 4 8.52628 12.7981 5.6737
131 4 1.50619 11.4172 1.41038
132 4 3.1353 17.7395 7.11484
133 1 4.47933 10.2175 12.2812
134 1 0.855235 18.8868 13.38
135 1 2.91344 15.0618 9.07522
136 1 2.41475 14.037 16.582
137 2 3.43845 18.3692 11.7558
138 2 1.88205 10.7587 13.941
139 2 3.93604 13.4186 9.64012
140 2 1.48924 15.6644 15.9558
141 2 2.13884 18.0531 12.0973
142 2 3.15571 11.1181 13.5871
143 2 5.15864 13.0834 9.26498
144 2 9.16899 16.0199 16.4101
145 2 2.98713 16.5549 10.4135
146 2 2.413 12.5537 15.1679
147 2 4.61858 11.8028 10.9668
148 2 0.787745 17.4695 14.7888
149 5 5.95159 10.374 13.7879
150 5 8.51087 18.7634 11.8466
151 5 6.31935 15.3893 16.1921
152 5 8.05495 13.8538 9.45491
153 5 8.01771 10.0332 14.2951
154 5 6.34146 19.084 11.335
155 5 4.34137 14.9574 15.66
156 5 1.18094 14.2379 10.0429
157 3 3.99892 17.4009 10.7922
158 3 1.5223 11.63 14.9477
159 3 3.63372 12.6326 10.6391
160 3 1.74007 16.5107 15.0746
161 3 1.90834 16.9542 11.2466
162 3 3.42586 12.1956 14.4012
163 3 5.47663 12.0391 10.0173
164 3 8.8634 17.0859 15.647
165 6 7.04052 9.92041 13.5493
166 6 7.31532 19.0723 12.122
167 6 5.25159 14.9185 16.4196
168 6 9.18467 14.3766 9.24997
169 4 4.95482 17.3431 10.1982
170 4 0.636957 11.7133 15.5645
171 4 2.88957 12.8352 11.3582
172 4 2.76503 16.6113 14.6618
173 4 1.00129 16.3445 11.4535
174 4 4.28649 12.7435 14.174
175 4 6.46061 11.5383 9.98478
176 4 7.94957 17.571 15.6134
177 7 3.03993 9.67596 9.84117
178 8 3.2252 8.96728 8.88368
179 8 2.52757 10.4151 10.6078
180 7 9.08972 11.6434 10.6188
181 8 8.33851 11.4706 11.492
182 8 0.759509 11.9259 9.68999
183 7 7.2396 6.70646 9.99028
184 8 7.33912 6.2664 8.99844
185 8 7.12728 7.20707 10.9445
186 7 1.82195 10.5586 7.94384
187 8 1.05192 9.81247 7.53051
188 8 2.58592 11.2903 8.3932
189 7 6.31077 9.10495 7.25128
190 8 7.02437 9.05894 6.3662
191 8 5.69037 8.83902 8.15002
192 7 9.17305 7.74381 7.0022
193 8 0.948119 7.37381 6.16223
194 8 8.334 7.94869 7.79671
195 7 0.973093 8.30335 9.50948
196 8 1.01115 7.22981 9.05816
197 8 0.735271 9.36235 9.94368
198 7 7.74754 10.3554 8.54393
199 8 8.20273 11.0824 7.82605
200 8 7.47812 9.50945 9.22585
201 7 6.1503 14.5976 12.4768
202 8 6.07012 15.4605 13.2725
203 8 6.18348 14.0101 11.4944
204 7 7.01725 13.5479 14.652
205 8 7.83456 13.9217 13.8643
206 8 6.43972 12.9264 15.4887
207 7 6.16378 4.47256 13.2335
208 8 5.58059 4.798 12.2758
209 8 6.76833 4.03054 14.1167
210 7 8.91578 4.25106 12.7189
211 8 9.15823 4.82126 13.6939
212 8 8.69544 3.41186 11.9521
213 7 3.66847 4.64039 5.40264
214 8 2.99782 3.89506 5.91081
215 8 4.22903 5.50125 4.88342
216 7 4.28503 2.32695 2.78693
217 8 4.31222 1.83141 1.78564
218 8 4.25578 2.6736 3.86943
219 7 2.2887 13.5442 4.62251
220 8 2.04943 13.5878 5.73607
221 8 2.65061 13.5417 3.53368
222 7 3.78069 15.6306 4.85676
223 8 4.78212 15.0187 4.83698
224 8 2.78732 16.2601 4.79214
ITEM: TIMESTEP
36
ITEM: NUMBER OF ATOMS
224
ITEM: BOX BOUNDS xy xz yz pp pp pp
-3.2091455243926426e-02 9.5808142681524480e+00 0.0000000000000000e+00
-6.9797056246745370e-02 1.9456796156246753e+01 6.3492261290852192e-01
-6.1429531157425998e-02 1.7124244631157417e+01 0.0000000000000000e+00
ITEM: ATOMS id type x y z
1 1 8.71666 0.466573 3.6887
2 1 4.99916 9.17704 4.75823
3 1 7.08704 5.37543 0.4239
4 1 6.61397 4.26536 8.02657
5 2 7.72172 8.61702 3.11492
6 2 6.06996 1.05721 5.39559
7 2 8.12138 3.67732 1.05384
8 2 5.58458 5.91812 7.35743
9 2 6.48983 8.21735 3.53532
10 2 7.39921 1.4508 4.90086
11 2 0.410888 3.3769 0.692964
12 2 4.35665 6.26124 7.86075
13 2 7.10785 6.82743 1.9296
14 2 6.61804 2.76108 6.64053
15 2 8.75422 1.91561 2.31669
16 2 4.87304 7.65998 5.99939
17 5 1.07977 0.710538 5.21387
18 5 3.69547 8.96117 3.26456
19 5 1.54085 5.54664 7.52366
20 5 3.14292 4.09171 0.989138
21 5 3.18462 0.253159 5.72163
22 5 1.54094 9.40507 2.73809
23 5 8.5296 5.04977 7.0943
24 5 5.24013 4.53111 1.44707
25 3 8.09888 7.71675 2.18029
26 3 5.59812 1.85734 6.37546
27 3 7.72859 2.85157 2.05335
28 3 5.96225 6.78202 6.37667
29 3 6.16986 7.10791 2.80341
30 3 7.55513 2.42565 5.75716
31 3 0.733238 2.32253 1.47065
32 3 3.93142 7.3804 6.97215
33 6 2.24568 0.299314 5.0075
34 6 2.51722 9.3396 3.50912
35 6 0.433187 5.13322 7.7918
36 6 4.29771 4.47357 0.682653
37 4 0.102729 7.61205 1.82609
38 4 4.6107 1.79272 6.82475
39 4 6.67058 2.89263 2.40617
40 4 7.04717 6.9048 6.09878
41 4 5.13047 6.74053 2.74464
42 4 8.60835 2.70916 5.80079
43 4 1.71392 1.80368 1.41401
44 4 3.05324 7.93446 7.03879
45 1 4.5413 0.47933 12.3086
46 1 0.874054 9.15237 13.3256
47 1 2.96731 5.30601 9.02863
48 1 2.44056 4.26032 16.5981
49 2 3.56239 8.48376 11.8875
50 2 1.75232 1.0209 13.8311
51 2 3.96242 3.77224 9.71591
52 2 1.48397 5.95725 16.0175
53 2 2.1719 8.2098 11.988
54 2 3.13923 1.26985 13.6381
55 2 5.29797 3.3527 9.27431
56 2 9.15483 6.33217 16.4304
57 2 2.96363 6.76706 10.5036
58 2 2.44027 2.85932 15.2704
59 2 4.49687 1.83844 10.8649
60 2 0.819604 7.62389 14.6691
61 5 5.8235 0.623414 13.7841
62 5 8.48594 9.08 12.0041
63 5 6.33458 5.59687 16.2171
64 5 8.03757 4.0016 9.50803
65 5 7.92675 0.260317 14.2973
66 5 6.30815 9.44332 11.3485
67 5 4.25954 5.08598 15.6832
68 5 1.11424 4.53927 10.0362
69 3 4.13175 7.39878 11.178
70 3 1.46828 1.8963 14.8611
71 3 3.53557 2.83017 10.592
72 3 1.85341 6.84832 15.0683
73 3 1.94002 7.09727 11.3445
74 3 3.38279 2.44621 14.3395
75 3 5.56171 2.29674 10.0057
76 3 8.80987 7.33307 15.5637
77 6 6.96005 0.274639 13.5258
78 6 7.2548 9.29809 12.1978
79 6 5.20649 5.22633 16.3812
80 6 9.16248 4.47043 9.2722
81 4 4.88496 7.63709 10.3176
82 4 9.48593 1.89744 15.3877
83 4 2.7044 2.97084 11.2288
84 4 2.64723 6.72883 14.329
85 4 0.924862 6.66073 11.293
86 4 4.47748 2.77444 14.4122
87 4 6.4707 1.72668 9.99469
88 4 7.7596 7.81556 15.6538
89 1 8.67619 10.2281 3.72374
90 1 5.0388 18.9128 4.73707
91 1 7.11144 15.1008 0.480412
92 1 6.61948 14.022 8.02612
93 2 7.7483 18.384 3.13584
94 2 5.88782 11.089 5.18401
95 2 8.11433 13.4319 0.992826
96 2 5.58868 15.6924 7.33724
97 2 6.40453 18.0812 3.44054
98 2 7.33265 11.2587 4.91873
99 2 0.418094 13.0807 0.67859
100 2 4.34734 16.1627 7.79832
101 2 7.13491 16.6005 1.80736
102 2 6.62741 12.5999 6.55561
103 2 8.61889 11.7073 2.36535
104 2 5.01055 17.4478 6.17199
105 5 1.14157 10.4608 5.16047
106 5 3.63852 18.8191 3.25325
107 5 1.55114 15.3371 7.58364
108 5 3.22219 13.8802 0.907521
109 5 3.15486 10.0295 5.81827
110 5 1.51417 19.1251 2.69696
111 5 8.40833 14.8862 7.02207
112 5 5.26365 14.2915 1.45265
113 3 8.09431 17.514 2.15217
114 3 5.67301 11.6782 6.31752
115 3 7.70906 12.6144 2.0518
116 3 5.97564 16.5136 6.46355
117 3 6.14314 16.9076 2.73647
118 3 7.68593 12.2816 5.72314
119 3 0.64054 12.0066 1.5225
120 3 3.9959 17.1435 6.93989
121 6 2.26815 10.0749 4.96348
122 6 2.53518 19.1833 3.44705
123 6 0.38788 14.9484 7.84246
124 6 4.31361 14.2879 0.688671
125 4 0.118942 17.2903 1.79473
126 4 4.57474 11.8135 6.54529
127 4 6.77915 12.4823 2.56927
128 4 7.01355 16.3667 6.00357
129 4 5.23634 16.2906 2.65923
130 4 8.52093 12.7975 5.67053
131 4 1.49647 11.4162 1.40837
132 4 3.1411 17.7466 7.11516
133 1 4.4785 10.217 12.2821
134 1 0.853597 18.8896 13.3824
135 1 2.91188 15.0619 9.07586
136 1 2.41378 14.0388 16.5844
137 2 3.43708 18.3729 11.7574
138 2 1.88161 10.7571 13.9429
139 2 3.93515 13.4203 9.64
140 2 1.48801 15.6642 15.9593
141 2 2.13474 18.057 12.099
142 2 3.1564 11.1176 13.5888
143 2 5.15869 13.0839 9.26321
144 2 9.17181 16.021 16.414
145 2 2.98746 16.5555 10.4132
146 2 2.4119 12.5564 15.1705
147 2 4.62236 11.8052 10.9705
148 2 0.785834 17.4734 14.7916
149 5 5.95436 10.3723 13.7896
150 5 8.512 18.7685 11.8476
151 5 6.31828 15.394 16.1959
152 5 8.06005 13.8569 9.45384
153 5 8.01812 10.0338 14.2952
154 5 6.34354 19.0857 11.3373
155 5 4.34397 14.961 15.6639
156 5 1.18055 14.2406 10.0425
157 3 3.99905 17.4013 10.7952
158 3 1.52277 11.63 14.9509
159 3 3.63575 12.6353 10.6412
160 3 1.73673 16.5147 15.076
161 3 1.90758 16.958 11.2464
162 3 3.42547 12.1949 14.4031
163 3 5.47476 12.0389 10.0162
164 3 8.86504 17.0889 15.6508
165 6 7.04079 9.91867 13.5526
166 6 7.31682 19.0734 12.1227
167 6 5.25155 14.9224 16.4244
168 6 9.18531 14.3809 9.2518
169 4 4.95726 17.3456 10.2022
170 4 0.638807 11.7119 15.5654
171 4 2.90292 12.8418 11.3621
172 4 2.76511 16.6174 14.6665
173 4 1.00343 16.3439 11.4543
174 4 4.27813 12.7482 14.1754
175 4 6.46504 11.5389 9.98389
176 4 7.95444 17.5685 15.6194
177 7 3.03901 9.68059 9.8386
178 8 3.22156 8.97635 8.87458
179 8 2.52215 10.4145 10.6072
180 7 9.09252 11.6437 10.6184
181 8 8.33985 11.4766 11.4933
182 8 0.757517 11.9227 9.68962
183 7 7.24039 6.70552 9.99128
184 8 7.33971 6.26624 8.9979
185 8 7.12725 7.204 10.9444
186 7 1.82103 10.5586 7.94353
187 8 1.05109 9.8121 7.5334
188 8 2.58727 11.2917 8.39148
189 7 6.31171 9.10879 7.25354
190 8 7.02971 9.05151 6.3666
191 8 5.69069 8.84395 8.15355
192 7 9.17632 7.7433 7.00105
193 8 0.94683 7.37139 6.15932
194 8 8.33617 7.94653 7.79482
195 7 0.972968 8.30143 9.50784
196 8 1.00605 7.23218 9.05726
197 8 0.735233 9.36286 9.94429
198 7 7.74759 10.3549 8.54613
199 8 8.20683 11.0827 7.82858
200 8 7.47968 9.50828 9.22409
201 7 6.15118 14.5986 12.4784
202 8 6.07174 15.4662 13.2721
203 8 6.1829 14.0133 11.4963
204 7 7.01832 13.5499 14.6521
205 8 7.83777 13.9228 13.8652
206 8 6.44399 12.9228 15.4883
207 7 6.16487 4.47097 13.238
208 8 5.57987 4.79685 12.2769
209 8 6.769 4.02762 14.1181
210 7 8.91712 4.2511 12.7182
211 8 9.16106 4.8206 13.6966
212 8 8.69598 3.40876 11.9559
213 7 3.66502 4.63529 5.40275
214 8 2.99446 3.89315 5.91084
215 8 4.22642 5.49941 4.87948
216 7 4.2862 2.32454 2.78332
217 8 4.31428 1.82705 1.78281
218 8 4.25617 2.67024 3.86947
219 7 2.28736 13.5432 4.62172
220 8 2.05005 13.5874 5.7355
221 8 2.65112 13.541 3.53145
222 7 3.77987 15.632 4.85445
223 8 4.77928 15.0164 4.83121
224 8 2.78657 16.265 4.79044
ITEM: TIMESTEP
37
ITEM: NUMBER OF ATOMS
224
ITEM: BOX BOUNDS xy xz yz pp pp pp
-3.3653295594047172e-02 9.5825970150789885e+00 0.0000000000000000e+00
-7.3193968538108223e-02 1.9460193068538118e+01 6.3514351948494130e-01
-6.4419209242181807e-02 1.7127234309242169e+01 0.0000000000000000e+00
ITEM: ATOMS id type x y z
1 1 8.71908 0.463023 3.68647
2 1 4.99832 9.17782 4.75679
3 1 7.08702 5.37425 0.420043
4 1 6.61522 4.26353 8.02698
5 2 7.72396 8.61821 3.1134
6 2 6.07329 1.05356 5.39416
7 2 8.12228 3.67571 1.05092
8 2 5.58341 5.91542 7.355
9 2 6.49123 8.21652 3.53525
10 2 7.40048 1.4482 4.89792
11 2 0.410588 3.3755 0.689802
12 2 4.35564 6.26129 7.86144
13 2 7.10928 6.82471 1.92775
14 2 6.61774 2.75859 6.64199
15 2 8.756 1.91151 2.31544
16 2 4.86848 7.65827 5.99277
17 5 1.08026 0.707871 5.21331
18 5 3.69442 8.96174 3.26257
19 5 1.53858 5.5426 7.52169
20 5 3.14317 4.09114 0.988526
21 5 3.18365 0.250014 5.72059
22 5 1.54123 9.40573 2.73702
23 5 8.53293 5.04559 7.09411
24 5 5.2384 4.5305 1.44426
25 3 8.1004 7.71579 2.17911
26 3 5.59881 1.85448 6.376
27 3 7.73139 2.84888 2.05121
28 3 5.96017 6.78052 6.37389
29 3 6.17207 7.10622 2.8048
30 3 7.5563 2.42265 5.75512
31 3 0.732068 2.32073 1.46832
32 3 3.9296 7.37782 6.97106
33 6 2.24229 0.297328 5.00466
34 6 2.51839 9.33825 3.50752
35 6 0.435675 5.13041 7.7933
36 6 4.29533 4.47143 0.679383
37 4 0.0975588 7.60407 1.82808
38 4 4.61247 1.79259 6.82652
39 4 6.67187 2.88259 2.40584
40 4 7.04626 6.90586 6.09726
41 4 5.13231 6.74062 2.74157
42 4 8.60797 2.70664 5.80797
43 4 1.7145 1.80193 1.40967
44 4 3.0537 7.93195 7.0324
45 1 4.54208 0.476036 12.3102
46 1 0.872981 9.15242 13.3264
47 1 2.96724 5.30295 9.02808
48 1 2.44026 4.25846 16.601
49 2 3.56384 8.47851 11.8952
50 2 1.74991 1.01705 13.8299
51 2 3.96467 3.7722 9.71699
52 2 1.48339 5.95609 16.0211
53 2 2.16946 8.20936 11.9889
54 2 3.13847 1.26371 13.6411
55 2 5.299 3.35235 9.27355
56 2 9.15697 6.33224 16.4344
57 2 2.9668 6.76285 10.508
58 2 2.43929 2.85808 15.2738
59 2 4.49676 1.83355 10.8639
60 2 0.817151 7.62315 14.6686
61 5 5.82278 0.618672 13.7857
62 5 8.48618 9.08317 12.01
63 5 6.33349 5.59688 16.2207
64 5 8.04202 3.9973 9.50871
65 5 7.92436 0.257461 14.2975
66 5 6.30848 9.44595 11.3525
67 5 4.25983 5.08339 15.6867
68 5 1.1126 4.53886 10.0362
69 3 4.13622 7.38667 11.1912
70 3 1.46793 1.89496 14.8628
71 3 3.53533 2.82598 10.5928
72 3 1.85304 6.85008 15.0709
73 3 1.94052 7.09286 11.3485
74 3 3.38046 2.44335 14.3414
75 3 5.56158 2.29188 10.0074
76 3 8.81168 7.33161 15.5659
77 6 6.95956 0.271956 13.5273
78 6 7.25467 9.29543 12.2015
79 6 5.2068 5.22629 16.3869
80 6 9.16384 4.46698 9.27192
81 4 4.88412 7.6326 10.331
82 4 9.48757 1.89613 15.3872
83 4 2.70972 2.96972 11.2305
84 4 2.64211 6.72447 14.3302
85 4 0.92396 6.66175 11.2959
86 4 4.47947 2.76833 14.4186
87 4 6.4719 1.72765 9.98847
88 4 7.758 7.81775 15.653
89 1 8.67746 10.2279 3.72247
90 1 5.03904 18.9162 4.73509
91 1 7.11209 15.102 0.477993
92 1 6.62079 14.0234 8.02648
93 2 7.75029 18.3886 3.13503
94 2 5.88535 11.0979 5.17559
95 2 8.11496 13.433 0.988852
96 2 5.58761 15.6935 7.33679
97 2 6.40452 18.0864 3.43811
98 2 7.33359 11.2623 4.91501
99 2 0.41747 13.081 0.675272
100 2 4.3475 16.1674 7.79881
101 2 7.13616 16.6027 1.80424
102 2 6.6279 12.6042 6.55365
103 2 8.61852 11.7065 2.36525
104 2 5.01165 17.4527 6.17038
105 5 1.14263 10.4619 5.15756
106 5 3.63809 18.8249 3.25029
107 5 1.54772 15.3392 7.58421
108 5 3.22321 13.8829 0.905094
109 5 3.15224 10.0299 5.81821
110 5 1.51449 19.128 2.69515
111 5 8.41064 14.8876 7.02291
112 5 5.26218 14.294 1.44984
113 3 8.09556 17.5162 2.14915
114 3 5.67407 11.6805 6.31653
115 3 7.71019 12.615 2.05033
116 3 5.97597 16.5172 6.46399
117 3 6.14626 16.9089 2.7336
118 3 7.6881 12.2854 5.71964
119 3 0.637332 12.0065 1.52088
120 3 3.99484 17.1474 6.93939
121 6 2.26787 10.0767 4.96194
122 6 2.53275 19.1888 3.44497
123 6 0.387434 14.953 7.84105
124 6 4.31417 14.2906 0.686179
125 4 0.117475 17.2898 1.7999
126 4 4.57394 11.8269 6.54177
127 4 6.78019 12.4845 2.56141
128 4 7.01647 16.3735 5.99695
129 4 5.23543 16.2983 2.66186
130 4 8.51663 12.7974 5.6672
131 4 1.48712 11.4149 1.40631
132 4 3.14672 17.754 7.11551
133 1 4.47768 10.2164 12.283
134 1 0.851933 18.8924 13.3848
135 1 2.91032 15.0621 9.0765
136 1 2.41281 14.0407 16.5869
137 2 3.43579 18.3766 11.759
138 2 1.88114 10.7555 13.9448
139 2 3.93422 13.4222 9.63987
140 2 1.48668 15.664 15.9629
141 2 2.13066 18.0609 12.1008
142 2 3.15708 11.1171 13.5906
143 2 5.15882 13.0844 9.26139
144 2 9.17467 16.022 16.4179
145 2 2.98775 16.5561 10.4129
146 2 2.41081 12.5592 15.1732
147 2 4.62612 11.8076 10.9744
148 2 0.783977 17.4772 14.7943
149 5 5.95711 10.3706 13.7913
150 5 8.51309 18.7737 11.8485
151 5 6.31725 15.3988 16.1998
152 5 8.06521 13.8601 9.45279
153 5 8.01855 10.0344 14.2953
154 5 6.34565 19.0875 11.3396
155 5 4.34651 14.9646 15.6677
156 5 1.18013 14.2434 10.0422
157 3 3.99907 17.4017 10.7981
158 3 1.52322 11.6301 14.954
159 3 3.6378 12.6381 10.6434
160 3 1.73346 16.5188 15.0773
161 3 1.90683 16.9618 11.2463
162 3 3.42508 12.1941 14.4051
163 3 5.47295 12.0386 10.015
164 3 8.86668 17.092 15.6547
165 6 7.04111 9.91694 13.5559
166 6 7.31831 19.0746 12.1235
167 6 5.25146 14.9264 16.4293
168 6 9.18592 14.3852 9.25369
169 4 4.95944 17.3486 10.2068
170 4 0.640313 11.7102 15.5661
171 4 2.91583 12.8487 11.3662
172 4 2.76492 16.6235 14.6713
173 4 1.00582 16.3433 11.455
174 4 4.27008 12.7534 14.1769
175 4 6.46911 11.5398 9.98303
176 4 7.95865 17.5662 15.6257
177 7 3.03801 9.68521 9.83597
178 8 3.21793 8.98546 8.86562
179 8 2.51677 10.4139 10.6065
180 7 9.09531 11.6441 10.6179
181 8 8.34124 11.4826 11.4947
182 8 0.755502 11.9196 9.68928
183 7 7.24122 6.70455 9.99222
184 8 7.34031 6.26602 8.99722
185 8 7.12722 7.20094 10.9445
186 7 1.8201 10.5587 7.94322
187 8 1.05024 9.81172 7.53627
188 8 2.58862 11.2931 8.3897
189 7 6.31271 9.1126 7.25575
190 8 7.03511 9.04417 6.36693
191 8 5.69093 8.84891 8.15716
192 7 9.17962 7.74275 6.99987
193 8 0.945473 7.36902 6.15637
194 8 8.33838 7.94435 7.79286
195 7 0.972746 8.29954 9.50616
196 8 1.00092 7.23463 9.0564
197 8 0.735184 9.36331 9.94487
198 7 7.74773 10.3545 8.54834
199 8 8.21096 11.083 7.8311
200 8 7.48124 9.50707 9.22241
201 7 6.15204 14.5997 12.4799
202 8 6.07336 15.4718 13.2717
203 8 6.18235 14.0164 11.4982
204 7 7.01947 13.5517 14.6524
205 8 7.84095 13.924 13.8662
206 8 6.4483 12.9192 15.4879
207 7 6.16594 4.46932 13.2425
208 8 5.57917 4.79567 12.278
209 8 6.76967 4.02468 14.1196
210 7 8.91851 4.25106 12.7176
211 8 9.16392 4.81995 13.6993
212 8 8.69653 3.40562 11.9597
213 7 3.66161 4.63026 5.4028
214 8 2.99105 3.89112 5.9109
215 8 4.22381 5.49749 4.87547
216 7 4.28735 2.32209 2.77976
217 8 4.31634 1.8226 1.77983
218 8 4.25656 2.66689 3.86953
219 7 2.28604 13.5422 4.62089
220 8 2.05064 13.5871 5.73495
221 8 2.6516 13.5402 3.52916
222 7 3.77904 15.6334 4.85209
223 8 4.7764 15.014 4.82539
224 8 2.78583 16.2698 4.78871
ITEM: TIMESTEP
38
ITEM: NUMBER OF ATOMS
224
ITEM: BOX BOUNDS xy xz yz pp pp pp
-3.5238096112353290e-02 9.5844059696580981e+00 0.0000000000000000e+00
-7.6640817865296640e-02 1.9463639917865308e+01 6.3536767354574508e-01
-6.7452837729192083e-02 1.7130267937729180e+01 0.0000000000000000e+00
ITEM: ATOMS id type x y z
1 1 8.72152 0.459429 3.68421
2 1 4.99749 9.1786 4.75533
3 1 7.08701 5.37306 0.416153
4 1 6.61649 4.26166 8.02739
5 2 7.72625 8.61941 3.11188
6 2 6.07669 1.04981 5.39264
7 2 8.12316 3.67412 1.04796
8 2 5.58223 5.91265 7.35255
9 2 6.49257 8.21567 3.53514
10 2 7.4016 1.4455 4.89504
11 2 0.410303 3.37404 0.686609
12 2 4.35456 6.26143 7.86199
13 2 7.11076 6.82191 1.9258
14 2 6.61739 2.75608 6.64349
15 2 8.75773 1.90737 2.31417
16 2 4.86398 7.65654 5.98619
17 5 1.08078 0.705145 5.21275
18 5 3.69331 8.96232 3.26054
19 5 1.53633 5.53845 7.5197
20 5 3.14345 4.09056 0.987857
21 5 3.18269 0.246825 5.71957
22 5 1.54154 9.40638 2.73592
23 5 8.53619 5.04136 7.09381
24 5 5.23668 4.52987 1.44142
25 3 8.10187 7.71483 2.17791
26 3 5.5996 1.85162 6.37651
27 3 7.73426 2.84613 2.04902
28 3 5.958 6.779 6.37108
29 3 6.17427 7.10456 2.80619
30 3 7.55761 2.41965 5.75305
31 3 0.730917 2.31887 1.46595
32 3 3.92788 7.37505 6.96997
33 6 2.23883 0.295241 5.00162
34 6 2.51956 9.33694 3.50596
35 6 0.438219 5.12747 7.79496
36 6 4.29293 4.46932 0.675992
37 4 0.0928123 7.59605 1.82986
38 4 4.6143 1.79251 6.82836
39 4 6.67364 2.87221 2.40554
40 4 7.04478 6.90641 6.09552
41 4 5.13438 6.7407 2.73848
42 4 8.60747 2.70443 5.81538
43 4 1.7148 1.80029 1.40524
44 4 3.05368 7.92933 7.02581
45 1 4.54285 0.47269 12.3117
46 1 0.871883 9.15248 13.3273
47 1 2.96717 5.29986 9.02753
48 1 2.43994 4.25657 16.604
49 2 3.56529 8.47315 11.9029
50 2 1.74756 1.01318 13.8288
51 2 3.96701 3.77211 9.71804
52 2 1.48274 5.95489 16.0248
53 2 2.16708 8.20894 11.9899
54 2 3.13765 1.25757 13.6441
55 2 5.29992 3.35203 9.2728
56 2 9.15915 6.33227 16.4385
57 2 2.9701 6.75859 10.5126
58 2 2.43827 2.85673 15.2772
59 2 4.49668 1.8287 10.8628
60 2 0.814674 7.62245 14.6681
61 5 5.82207 0.613886 13.7874
62 5 8.48636 9.08631 12.016
63 5 6.33243 5.5969 16.2242
64 5 8.04652 3.99295 9.50939
65 5 7.92197 0.254566 14.2979
66 5 6.30884 9.4486 11.3566
67 5 4.2601 5.08078 15.6902
68 5 1.11096 4.53842 10.0362
69 3 4.14053 7.3746 11.2042
70 3 1.46759 1.89362 14.8645
71 3 3.53516 2.8217 10.5936
72 3 1.85265 6.85183 15.0734
73 3 1.94103 7.08837 11.3525
74 3 3.3782 2.44047 14.3433
75 3 5.56138 2.28689 10.0092
76 3 8.81347 7.33014 15.5682
77 6 6.95918 0.269173 13.5287
78 6 7.25455 9.2928 12.2052
79 6 5.20707 5.22611 16.393
80 6 9.16522 4.46349 9.27156
81 4 4.88287 7.628 10.3454
82 4 9.48924 1.89476 15.3865
83 4 2.71467 2.96861 11.2324
84 4 2.63712 6.71986 14.3316
85 4 0.923218 6.66286 11.2988
86 4 4.48071 2.76205 14.4252
87 4 6.47332 1.72857 9.98206
88 4 7.75726 7.81968 15.6519
89 1 8.67875 10.2278 3.72117
90 1 5.03928 18.9197 4.7331
91 1 7.11275 15.1033 0.47553
92 1 6.6221 14.0249 8.02684
93 2 7.75225 18.3933 3.1342
94 2 5.88305 11.1066 5.16711
95 2 8.11556 13.4342 0.984893
96 2 5.5865 15.6944 7.33644
97 2 6.40454 18.0917 3.43564
98 2 7.33445 11.2658 4.91129
99 2 0.416828 13.0813 0.671937
100 2 4.34765 16.172 7.79929
101 2 7.13742 16.6049 1.80113
102 2 6.6284 12.6086 6.55168
103 2 8.61819 11.7057 2.36513
104 2 5.01281 17.4577 6.1687
105 5 1.14366 10.463 5.15463
106 5 3.6377 18.8307 3.24725
107 5 1.54424 15.3413 7.58477
108 5 3.22417 13.8857 0.902645
109 5 3.14963 10.0303 5.81809
110 5 1.51485 19.131 2.69334
111 5 8.41301 14.889 7.02378
112 5 5.26072 14.2965 1.447
113 3 8.09682 17.5183 2.14606
114 3 5.67505 11.6829 6.31553
115 3 7.71138 12.6156 2.0488
116 3 5.9764 16.521 6.46436
117 3 6.14943 16.9103 2.73063
118 3 7.69013 12.2892 5.71612
119 3 0.634095 12.0066 1.51919
120 3 3.9938 17.1512 6.93895
121 6 2.26761 10.0785 4.96031
122 6 2.53016 19.1944 3.44299
123 6 0.386993 14.9578 7.83958
124 6 4.31481 14.2934 0.683571
125 4 0.116095 17.2895 1.80516
126 4 4.57376 11.8405 6.53833
127 4 6.78081 12.487 2.55328
128 4 7.01862 16.3808 5.99039
129 4 5.23444 16.3066 2.66473
130 4 8.51345 12.798 5.6637
131 4 1.47819 11.4133 1.40419
132 4 3.15211 17.7617 7.11591
133 1 4.47687 10.2159 12.284
134 1 0.850243 18.8952 13.3872
135 1 2.90876 15.0623 9.07714
136 1 2.41184 14.0426 16.5894
137 2 3.43458 18.3802 11.7605
138 2 1.88063 10.754 13.9468
139 2 3.93325 13.4242 9.63975
140 2 1.48524 15.6637 15.9666
141 2 2.1266 18.0648 12.1024
142 2 3.15776 11.1166 13.5925
143 2 5.15902 13.0849 9.25954
144 2 9.17757 16.0231 16.4218
145 2 2.98798 16.5568 10.4127
146 2 2.40974 12.5621 15.1759
147 2 4.62986 11.81 10.9782
148 2 0.782171 17.4811 14.7971
149 5 5.95983 10.3689 13.7931
150 5 8.51414 18.7789 11.8495
151 5 6.31627 15.4036 16.2037
152 5 8.07042 13.8632 9.45174
153 5 8.019 10.035 14.2955
154 5 6.34781 19.0893 11.342
155 5 4.349 14.9683 15.6716
156 5 1.17965 14.2462 10.0418
157 3 3.99897 17.4022 10.8012
158 3 1.52364 11.6302 14.9572
159 3 3.63988 12.6409 10.6457
160 3 1.73023 16.5231 15.0785
161 3 1.90609 16.9656 11.2462
162 3 3.42468 12.1933 14.407
163 3 5.47122 12.0383 10.0138
164 3 8.86834 17.0951 15.6586
165 6 7.04145 9.91521 13.5592
166 6 7.31978 19.0759 12.1243
167 6 5.25133 14.9303 16.4343
168 6 9.1865 14.3895 9.25563
169 4 4.96136 17.352 10.2118
170 4 0.641458 11.7081 15.5665
171 4 2.92827 12.8559 11.3706
172 4 2.76443 16.6297 14.6762
173 4 1.00845 16.3429 11.4554
174 4 4.26238 12.759 14.1784
175 4 6.47276 11.5411 9.9822
176 4 7.96217 17.5642 15.6323
177 7 3.03694 9.68983 9.83326
178 8 3.21433 8.99463 8.8568
179 8 2.51144 10.4132 10.6059
180 7 9.09809 11.6444 10.6175
181 8 8.34269 11.4887 11.496
182 8 0.753468 11.9163 9.68899
183 7 7.24208 6.70354 9.9931
184 8 7.34092 6.26575 8.99642
185 8 7.12718 7.19787 10.9448
186 7 1.81918 10.5588 7.94291
187 8 1.04939 9.81131 7.53914
188 8 2.58997 11.2946 8.38787
189 7 6.31378 9.11638 7.25791
190 8 7.04056 9.03692 6.36719
191 8 5.69111 8.85389 8.16087
192 7 9.18294 7.74216 6.99864
193 8 0.944049 7.36673 6.15339
194 8 8.34066 7.94214 7.79083
195 7 0.972429 8.29771 9.50448
196 8 0.995781 7.23714 9.05558
197 8 0.735125 9.3637 9.94542
198 7 7.74797 10.354 8.55054
199 8 8.21512 11.0835 7.83359
200 8 7.48278 9.50581 9.22081
201 7 6.15289 14.601 12.4815
202 8 6.07496 15.4775 13.2714
203 8 6.18185 14.0196 11.5002
204 7 7.02073 13.5535 14.6526
205 8 7.8441 13.9251 13.8673
206 8 6.45266 12.9157 15.4874
207 7 6.16699 4.46765 13.247
208 8 5.57849 4.79447 12.2792
209 8 6.77036 4.02169 14.1212
210 7 8.91995 4.25094 12.7171
211 8 9.16681 4.81929 13.7019
212 8 8.69709 3.40244 11.9635
213 7 3.65823 4.62532 5.40277
214 8 2.98758 3.88897 5.911
215 8 4.22119 5.49551 4.8714
216 7 4.28849 2.31962 2.77625
217 8 4.31841 1.81805 1.77669
218 8 4.25693 2.66353 3.86961
219 7 2.28473 13.5411 4.62
220 8 2.0512 13.5868 5.73444
221 8 2.65207 13.5395 3.52683
222 7 3.77819 15.6348 4.84966
223 8 4.77347 15.0117 4.81952
224 8 2.78511 16.2747 4.78695
ITEM: TIMESTEP
39
ITEM: NUMBER OF ATOMS
224
ITEM: BOX BOUNDS xy xz yz pp pp pp
-3.6844841472912115e-02 9.5862399729562231e+00 0.0000000000000000e+00
-8.0135395953224275e-02 1.9467134495953239e+01 6.3559493148331314e-01
-7.0528473079422227e-02 1.7133343573079408e+01 0.0000000000000000e+00
ITEM: ATOMS id type x y z
1 1 8.72399 0.455794 3.68193
2 1 4.99666 9.17938 4.75385
3 1 7.08702 5.37183 0.412232
4 1 6.61777 4.25976 8.02779
5 2 7.72858 8.62061 3.11035
6 2 6.08015 1.04597 5.39104
7 2 8.12402 3.67256 1.04495
8 2 5.58102 5.90981 7.35008
9 2 6.49388 8.21481 3.53498
10 2 7.40259 1.44269 4.89222
11 2 0.410034 3.37254 0.683386
12 2 4.3534 6.26167 7.86242
13 2 7.1123 6.81903 1.92376
14 2 6.61698 2.75356 6.64501
15 2 8.7594 1.9032 2.3129
16 2 4.85954 7.65479 5.97964
17 5 1.08132 0.702363 5.21219
18 5 3.69214 8.96291 3.25848
19 5 1.53411 5.5342 7.51769
20 5 3.14376 4.08998 0.987134
21 5 3.18177 0.243593 5.71858
22 5 1.54186 9.40702 2.7348
23 5 8.53938 5.0371 7.09339
24 5 5.23497 4.52921 1.43854
25 3 8.1033 7.71387 2.1767
26 3 5.60049 1.84877 6.37699
27 3 7.73718 2.84331 2.04679
28 3 5.95576 6.77746 6.36823
29 3 6.17643 7.10294 2.80758
30 3 7.55904 2.41666 5.75094
31 3 0.729788 2.31695 1.46355
32 3 3.92627 7.3721 6.96888
33 6 2.2353 0.293055 4.99836
34 6 2.52072 9.33566 3.50443
35 6 0.440805 5.12439 7.79676
36 6 4.29053 4.46724 0.672486
37 4 0.0885292 7.588 1.83142
38 4 4.61616 1.79248 6.83028
39 4 6.6759 2.86153 2.40523
40 4 7.04273 6.90645 6.09357
41 4 5.13666 6.74076 2.73539
42 4 8.60687 2.7025 5.82298
43 4 1.71478 1.79878 1.40073
44 4 3.05316 7.92659 7.01907
45 1 4.54362 0.469295 12.3133
46 1 0.870761 9.15253 13.3283
47 1 2.9671 5.29676 9.02699
48 1 2.43962 4.25466 16.6069
49 2 3.56672 8.46769 11.9106
50 2 1.7453 1.00928 13.8277
51 2 3.96943 3.77195 9.71904
52 2 1.48203 5.95364 16.0285
53 2 2.16476 8.20853 11.9911
54 2 3.13676 1.25145 13.6472
55 2 5.30074 3.35174 9.27207
56 2 9.16138 6.33228 16.4426
57 2 2.97354 6.7543 10.5172
58 2 2.43722 2.85527 15.2806
59 2 4.49663 1.82388 10.8618
60 2 0.812174 7.6218 14.6676
61 5 5.82136 0.609056 13.7892
62 5 8.4865 9.08941 12.0219
63 5 6.33139 5.59692 16.2278
64 5 8.05106 3.98854 9.51009
65 5 7.91959 0.251633 14.2982
66 5 6.30923 9.45126 11.3608
67 5 4.26035 5.07818 15.6937
68 5 1.10932 4.53796 10.0363
69 3 4.14468 7.3626 11.217
70 3 1.46723 1.89228 14.8662
71 3 3.53507 2.81733 10.5945
72 3 1.85222 6.85358 15.0759
73 3 1.94155 7.08381 11.3567
74 3 3.37602 2.43754 14.3453
75 3 5.56111 2.28179 10.0111
76 3 8.81523 7.32867 15.5706
77 6 6.95889 0.266291 13.5302
78 6 7.25445 9.29021 12.209
79 6 5.2073 5.2258 16.3993
80 6 9.16663 4.45998 9.27112
81 4 4.88123 7.62328 10.3607
82 4 9.49094 1.89333 15.3857
83 4 2.71923 2.96751 11.2345
84 4 2.63227 6.71499 14.3332
85 4 0.922634 6.66406 11.3017
86 4 4.48118 2.7556 14.4318
87 4 6.47497 1.72943 9.97545
88 4 7.75743 7.82132 15.6507
89 1 8.68006 10.2276 3.71984
90 1 5.03952 18.9232 4.73108
91 1 7.11342 15.1045 0.473024
92 1 6.62342 14.0263 8.02718
93 2 7.75418 18.398 3.13336
94 2 5.88092 11.1153 5.15857
95 2 8.11614 13.4354 0.980951
96 2 5.58534 15.6954 7.33618
97 2 6.40459 18.0969 3.43313
98 2 7.33521 11.2694 4.90759
99 2 0.416167 13.0816 0.668589
100 2 4.34779 16.1767 7.79974
101 2 7.13868 16.6071 1.79804
102 2 6.62891 12.613 6.5497
103 2 8.61791 11.7048 2.36499
104 2 5.01403 17.4628 6.16696
105 5 1.14466 10.4641 5.15168
106 5 3.63734 18.8365 3.24414
107 5 1.54071 15.3435 7.58533
108 5 3.22509 13.8885 0.900175
109 5 3.14702 10.0307 5.81791
110 5 1.51525 19.134 2.69152
111 5 8.41544 14.8905 7.0247
112 5 5.25927 14.299 1.44413
113 3 8.09808 17.5205 2.14291
114 3 5.67595 11.6854 6.31452
115 3 7.71263 12.6163 2.04722
116 3 5.97692 16.5249 6.46468
117 3 6.15265 16.9117 2.72758
118 3 7.692 12.293 5.71257
119 3 0.630829 12.0067 1.51742
120 3 3.99278 17.1551 6.93859
121 6 2.26737 10.0801 4.95859
122 6 2.52741 19.2002 3.44112
123 6 0.386552 14.9625 7.83807
124 6 4.31553 14.2963 0.680847
125 4 0.114819 17.2896 1.81052
126 4 4.57421 11.8543 6.53497
127 4 6.78099 12.4898 2.5449
128 4 7.01996 16.3884 5.98393
129 4 5.23338 16.3153 2.66782
130 4 8.51146 12.7993 5.66003
131 4 1.4697 11.4115 1.40199
132 4 3.15726 17.7697 7.11637
133 1 4.47606 10.2153 12.285
134 1 0.848528 18.8981 13.3896
135 1 2.90719 15.0625 9.07778
136 1 2.41086 14.0445 16.5919
137 2 3.43345 18.3839 11.762
138 2 1.8801 10.7524 13.9488
139 2 3.93225 13.4263 9.63964
140 2 1.48369 15.6634 15.9705
141 2 2.12257 18.0686 12.1041
142 2 3.15842 11.1162 13.5944
143 2 5.15929 13.0854 9.25764
144 2 9.18052 16.0242 16.4257
145 2 2.98818 16.5575 10.4126
146 2 2.40868 12.5651 15.1788
147 2 4.63358 11.8123 10.9822
148 2 0.780415 17.485 14.7999
149 5 5.96253 10.3672 13.795
150 5 8.51515 18.7842 11.8504
151 5 6.31534 15.4085 16.2077
152 5 8.07567 13.8665 9.45072
153 5 8.01947 10.0356 14.2956
154 5 6.35 19.0911 11.3444
155 5 4.35143 14.9719 15.6755
156 5 1.17914 14.2492 10.0413
157 3 3.99877 17.4027 10.8042
158 3 1.52405 11.6302 14.9604
159 3 3.64199 12.6437 10.6479
160 3 1.72707 16.5274 15.0796
161 3 1.90537 16.9695 11.2462
162 3 3.42427 12.1924 14.4089
163 3 5.46957 12.0379 10.0126
164 3 8.87002 17.0982 15.6625
165 6 7.04184 9.91348 13.5626
166 6 7.32125 19.0772 12.1252
167 6 5.25115 14.9343 16.4395
168 6 9.18706 14.3938 9.25763
169 4 4.96301 17.3558 10.2173
170 4 0.642224 11.7057 15.5667
171 4 2.94018 12.8634 11.3752
172 4 2.76362 16.6358 14.6813
173 4 1.01133 16.3426 11.4556
174 4 4.25505 12.7652 14.18
175 4 6.47595 11.5428 9.9814
176 4 7.96494 17.5624 15.6391
177 7 3.03578 9.69444 9.83049
178 8 3.21076 9.00385 8.84813
179 8 2.50616 10.4125 10.6052
180 7 9.10084 11.6448 10.617
181 8 8.3442 11.4949 11.4973
182 8 0.751417 11.913 9.68872
183 7 7.24298 6.70249 9.9939
184 8 7.34155 6.26543 8.9955
185 8 7.12712 7.19481 10.9454
186 7 1.81826 10.559 7.9426
187 8 1.04852 9.81088 7.54199
188 8 2.59132 11.2962 8.38597
189 7 6.31492 9.12012 7.26001
190 8 7.04604 9.02976 6.36741
191 8 5.6912 8.85889 8.16465
192 7 9.18628 7.74153 6.99737
193 8 0.942558 7.3645 6.15039
194 8 8.34298 7.93992 7.78874
195 7 0.972015 8.29594 9.50279
196 8 0.990629 7.23969 9.05478
197 8 0.735057 9.36403 9.94593
198 7 7.74829 10.3536 8.55273
199 8 8.21931 11.084 7.83607
200 8 7.48431 9.50449 9.2193
201 7 6.15373 14.6024 12.4832
202 8 6.07655 15.4832 13.2711
203 8 6.18138 14.0228 11.5021
204 7 7.02208 13.5552 14.653
205 8 7.84722 13.9263 13.8684
206 8 6.45705 12.9122 15.4868
207 7 6.16801 4.46594 13.2514
208 8 5.57783 4.79325 12.2804
209 8 6.77106 4.01868 14.1227
210 7 8.92143 4.25074 12.7167
211 8 9.16972 4.81863 13.7046
212 8 8.69766 3.39923 11.9673
213 7 3.65491 4.62049 5.40265
214 8 2.98405 3.8867 5.91115
215 8 4.21856 5.49345 4.86726
216 7 4.28963 2.31711 2.77282
217 8 4.32048 1.8134 1.77342
218 8 4.2573 2.66018 3.8697
219 7 2.28343 13.5401 4.61904
220 8 2.05173 13.5865 5.73395
221 8 2.65253 13.5388 3.52446
222 7 3.77732 15.6362 4.84718
223 8 4.77049 15.0094 4.81362
224 8 2.7844 16.2796 4.78515
ITEM: TIMESTEP
40
ITEM: NUMBER OF ATOMS
224
ITEM: BOX BOUNDS xy xz yz pp pp pp
-3.8472521830274609e-02 9.5880978722954566e+00 0.0000000000000000e+00
-8.3675506446533987e-02 1.9470674606446547e+01 6.3582515046518429e-01
-7.3644182244587242e-02 1.7136459282244573e+01 0.0000000000000000e+00
ITEM: ATOMS id type x y z
1 1 8.72648 0.45212 3.67962
2 1 4.99583 9.18017 4.75235
3 1 7.08704 5.37059 0.408281
4 1 6.61906 4.25784 8.02819
5 2 7.73094 8.62182 3.10881
6 2 6.08368 1.04204 5.38936
7 2 8.12486 3.67102 1.04191
8 2 5.57978 5.9069 7.3476
9 2 6.49514 8.21394 3.53478
10 2 7.40344 1.43978 4.88946
11 2 0.409776 3.37099 0.680138
12 2 4.35216 6.26201 7.86271
13 2 7.11389 6.81608 1.92164
14 2 6.61651 2.75102 6.64656
15 2 8.76101 1.89901 2.3116
16 2 4.85517 7.65302 5.97315
17 5 1.08188 0.69953 5.21163
18 5 3.69091 8.96349 3.25638
19 5 1.53193 5.52985 7.51567
20 5 3.1441 4.0894 0.986356
21 5 3.18086 0.240322 5.71762
22 5 1.54219 9.40765 2.73367
23 5 8.54251 5.0328 7.09287
24 5 5.23327 4.52854 1.43564
25 3 8.10467 7.7129 2.17546
26 3 5.60147 1.84592 6.37743
27 3 7.74017 2.84043 2.04452
28 3 5.95344 6.77589 6.36534
29 3 6.17857 7.10135 2.80896
30 3 7.56059 2.41368 5.74881
31 3 0.728681 2.31496 1.46111
32 3 3.92477 7.36897 6.96779
33 6 2.23172 0.29077 4.99491
34 6 2.52187 9.33443 3.50294
35 6 0.443421 5.12118 7.7987
36 6 4.28813 4.46519 0.668869
37 4 0.0847421 7.57993 1.83277
38 4 4.61805 1.79247 6.83225
39 4 6.67867 2.85056 2.4049
40 4 7.04009 6.90594 6.0914
41 4 5.13914 6.7408 2.7323
42 4 8.60616 2.70086 5.83076
43 4 1.71444 1.7974 1.39614
44 4 3.05213 7.92375 7.01219
45 1 4.54439 0.465852 12.3148
46 1 0.869617 9.15257 13.3292
47 1 2.96701 5.29363 9.02646
48 1 2.43929 4.25273 16.61
49 2 3.56814 8.46213 11.9183
50 2 1.74311 1.00535 13.8267
51 2 3.97194 3.77174 9.72
52 2 1.48124 5.95237 16.0323
53 2 2.16252 8.20813 11.9923
54 2 3.1358 1.24533 13.6503
55 2 5.30145 3.35146 9.27136
56 2 9.16366 6.33226 16.4466
57 2 2.97711 6.74997 10.5221
58 2 2.43613 2.8537 15.2839
59 2 4.4966 1.8191 10.8607
60 2 0.809653 7.62119 14.6672
61 5 5.82067 0.604186 13.7909
62 5 8.48658 9.09249 12.0279
63 5 6.33037 5.59696 16.2314
64 5 8.05565 3.98409 9.5108
65 5 7.91722 0.248666 14.2986
66 5 6.30966 9.45393 11.365
67 5 4.26059 5.07556 15.6971
68 5 1.1077 4.53747 10.0364
69 3 4.14867 7.35066 11.2296
70 3 1.46688 1.89096 14.8681
71 3 3.53506 2.8129 10.5953
72 3 1.85175 6.85533 15.0785
73 3 1.94208 7.07918 11.3608
74 3 3.37392 2.43458 14.3474
75 3 5.56078 2.27658 10.0131
76 3 8.81697 7.32721 15.5731
77 6 6.9587 0.263312 13.5316
78 6 7.25437 9.28766 12.2128
79 6 5.20747 5.22536 16.4058
80 6 9.16808 4.45645 9.27059
81 4 4.87924 7.61843 10.3769
82 4 9.49266 1.89186 15.3848
83 4 2.72338 2.96642 11.2368
84 4 2.62758 6.70988 14.3351
85 4 0.922199 6.66532 11.3046
86 4 4.48086 2.74898 14.4385
87 4 6.47684 1.7302 9.96868
88 4 7.75852 7.82265 15.6493
89 1 8.68139 10.2274 3.71848
90 1 5.03976 18.9267 4.72905
91 1 7.11411 15.1058 0.470479
92 1 6.62474 14.0278 8.02753
93 2 7.75608 18.4028 3.13249
94 2 5.87896 11.1239 5.14998
95 2 8.1167 13.4366 0.977029
96 2 5.58414 15.6963 7.33602
97 2 6.40467 18.1021 3.43057
98 2 7.33589 11.273 4.9039
99 2 0.415483 13.0819 0.66523
100 2 4.34793 16.1813 7.80018
101 2 7.13995 16.6094 1.79498
102 2 6.62942 12.6176 6.54771
103 2 8.61767 11.7039 2.36482
104 2 5.01532 17.468 6.16518
105 5 1.14562 10.4653 5.14872
106 5 3.63703 18.8423 3.24097
107 5 1.53714 15.3457 7.58587
108 5 3.22596 13.8912 0.897687
109 5 3.14441 10.0311 5.81767
110 5 1.51568 19.1371 2.68971
111 5 8.41793 14.8919 7.02565
112 5 5.25784 14.3015 1.44125
113 3 8.09933 17.5228 2.1397
114 3 5.67676 11.6879 6.31349
115 3 7.71393 12.617 2.04557
116 3 5.97754 16.5289 6.46492
117 3 6.15591 16.9132 2.72445
118 3 7.69371 12.2968 5.70899
119 3 0.627531 12.0069 1.51558
120 3 3.9918 17.1589 6.9383
121 6 2.26715 10.0817 4.95678
122 6 2.52451 19.206 3.43935
123 6 0.386104 14.9673 7.83651
124 6 4.31631 14.2992 0.678009
125 4 0.113657 17.2899 1.81595
126 4 4.57531 11.8683 6.53166
127 4 6.78072 12.493 2.53629
128 4 7.02048 16.3965 5.97759
129 4 5.23225 16.3244 2.67111
130 4 8.51068 12.8012 5.6562
131 4 1.46169 11.4093 1.39972
132 4 3.16215 17.7781 7.1169
133 1 4.47526 10.2148 12.286
134 1 0.846788 18.901 13.392
135 1 2.90561 15.0628 9.07842
136 1 2.40988 14.0464 16.5945
137 2 3.4324 18.3876 11.7634
138 2 1.87953 10.7508 13.9509
139 2 3.93122 13.4285 9.63952
140 2 1.48203 15.6631 15.9746
141 2 2.11857 18.0725 12.1057
142 2 3.15908 11.1158 13.5963
143 2 5.15962 13.0859 9.25572
144 2 9.18352 16.0254 16.4296
145 2 2.98833 16.5582 10.4126
146 2 2.40764 12.5682 15.1817
147 2 4.63727 11.8145 10.9861
148 2 0.778709 17.4889 14.8027
149 5 5.9652 10.3656 13.7969
150 5 8.51613 18.7895 11.8514
151 5 6.31446 15.4135 16.2117
152 5 8.08096 13.8698 9.44971
153 5 8.01996 10.0361 14.2958
154 5 6.35223 19.093 11.3469
155 5 4.35381 14.9756 15.6794
156 5 1.17857 14.2523 10.0409
157 3 3.99846 17.4034 10.8073
158 3 1.52445 11.6303 14.9635
159 3 3.64414 12.6465 10.6502
160 3 1.72398 16.532 15.0807
161 3 1.90466 16.9735 11.2462
162 3 3.42384 12.1914 14.4107
163 3 5.46801 12.0375 10.0114
164 3 8.87172 17.1014 15.6665
165 6 7.04226 9.91176 13.5661
166 6 7.3227 19.0786 12.126
167 6 5.25094 14.9383 16.4448
168 6 9.18762 14.3981 9.25968
169 4 4.96438 17.36 10.2233
170 4 0.642595 11.703 15.5668
171 4 2.95155 12.8711 11.38
172 4 2.76249 16.6419 14.6865
173 4 1.01443 16.3424 11.4557
174 4 4.24812 12.7718 14.1817
175 4 6.47865 11.5449 9.98065
176 4 7.96695 17.561 15.6461
177 7 3.03455 9.69904 9.82765
178 8 3.20721 9.01312 8.83961
179 8 2.50094 10.4117 10.6046
180 7 9.10357 11.6452 10.6166
181 8 8.34576 11.5011 11.4986
182 8 0.749352 11.9097 9.68849
183 7 7.24391 6.7014 9.99461
184 8 7.3422 6.26506 8.99445
185 8 7.12706 7.19176 10.9462
186 7 1.81736 10.5591 7.9423
187 8 1.04764 9.81042 7.54483
188 8 2.59266 11.2977 8.38401
189 7 6.31613 9.12382 7.26204
190 8 7.05155 9.02271 6.36759
191 8 5.69123 8.86392 8.16851
192 7 9.18964 7.74087 6.99606
193 8 0.941002 7.36233 6.14737
194 8 8.34537 7.93768 7.78659
195 7 0.971503 8.29426 9.50111
196 8 0.985471 7.24227 9.05402
197 8 0.734978 9.36428 9.94642
198 7 7.74872 10.3533 8.55488
199 8 8.22352 11.0846 7.83854
200 8 7.48581 9.50311 9.21789
201 7 6.15455 14.6041 12.4849
202 8 6.07814 15.4888 13.2707
203 8 6.18095 14.026 11.5042
204 7 7.02352 13.5568 14.6534
205 8 7.85031 13.9274 13.8696
206 8 6.46149 12.9088 15.4863
207 7 6.16898 4.4642 13.2558
208 8 5.57719 4.792 12.2817
209 8 6.77178 4.01563 14.1244
210 7 8.92296 4.25047 12.7163
211 8 9.17265 4.81796 13.7073
212 8 8.69823 3.39598 11.9711
213 7 3.65165 4.61578 5.40244
214 8 2.98047 3.88431 5.91133
215 8 4.21592 5.4913 4.86307
216 7 4.29075 2.31458 2.76946
217 8 4.32256 1.80867 1.77001
218 8 4.25767 2.65682 3.86979
219 7 2.28216 13.5392 4.61802
220 8 2.05223 13.5862 5.73349
221 8 2.65296 13.5382 3.52205
222 7 3.77643 15.6377 4.84465
223 8 4.76747 15.0071 4.80767
224 8 2.78372 16.2844 4.78333
ITEM: TIMESTEP
41
ITEM: NUMBER OF ATOMS
224
ITEM: BOX BOUNDS xy xz yz pp pp pp
-4.0120132639813733e-02 9.5899785210484563e+00 0.0000000000000000e+00
-8.7258964518849069e-02 1.9474258064518864e+01 6.3605818840864548e-01
-7.6798042323247273e-02 1.7139613142323235e+01 0.0000000000000000e+00
ITEM: ATOMS id type x y z
1 1 8.72898 0.448409 3.6773
2 1 4.995 9.18095 4.75083
3 1 7.08708 5.36932 0.404302
4 1 6.62037 4.25589 8.02859
5 2 7.73333 8.62302 3.10726
6 2 6.08726 1.03802 5.38759
7 2 8.12568 3.66951 1.03882
8 2 5.57852 5.90394 7.34511
9 2 6.49636 8.21306 3.53453
10 2 7.40415 1.43677 4.88677
11 2 0.409529 3.3694 0.676867
12 2 4.35084 6.26243 7.86288
13 2 7.11553 6.81306 1.91944
14 2 6.616 2.74846 6.64813
15 2 8.76256 1.89479 2.31029
16 2 4.85087 7.65124 5.96671
17 5 1.08245 0.696647 5.21108
18 5 3.68963 8.96409 3.25424
19 5 1.52979 5.52542 7.51364
20 5 3.14446 4.0888 0.985525
21 5 3.17996 0.237012 5.71668
22 5 1.54255 9.40826 2.73251
23 5 8.54558 5.02847 7.09224
24 5 5.23158 4.52784 1.4327
25 3 8.10599 7.71193 2.17422
26 3 5.60256 1.84307 6.37783
27 3 7.7432 2.8375 2.04222
28 3 5.95103 6.77431 6.36242
29 3 6.18068 7.09979 2.81033
30 3 7.56225 2.41071 5.74666
31 3 0.727597 2.31292 1.45864
32 3 3.92338 7.36567 6.96669
33 6 2.2281 0.288386 4.99126
34 6 2.52301 9.33325 3.5015
35 6 0.446052 5.11782 7.80077
36 6 4.28574 4.46317 0.665147
37 4 0.0814758 7.57185 1.83391
38 4 4.61997 1.79249 6.83428
39 4 6.68193 2.83933 2.40453
40 4 7.03687 6.90487 6.08901
41 4 5.14182 6.74084 2.72922
42 4 8.60539 2.69949 5.8387
43 4 1.71379 1.79614 1.39149
44 4 3.05059 7.92081 7.00521
45 1 4.54515 0.462364 12.3164
46 1 0.86845 9.15262 13.3302
47 1 2.96692 5.29049 9.02593
48 1 2.43895 4.25078 16.613
49 2 3.56954 8.45646 11.926
50 2 1.74099 1.00141 13.8258
51 2 3.97452 3.77146 9.72092
52 2 1.4804 5.95106 16.0361
53 2 2.16036 8.20774 11.9936
54 2 3.13477 1.23923 13.6534
55 2 5.30206 3.35119 9.27068
56 2 9.16598 6.33221 16.4506
57 2 2.98081 6.7456 10.527
58 2 2.43501 2.85203 15.2871
59 2 4.49661 1.81435 10.8595
60 2 0.807113 7.62063 14.6668
61 5 5.81999 0.599277 13.7927
62 5 8.48661 9.09553 12.0338
63 5 6.32938 5.597 16.2349
64 5 8.06028 3.97959 9.51151
65 5 7.91487 0.245665 14.2991
66 5 6.31013 9.45661 11.3694
67 5 4.26081 5.07294 15.7005
68 5 1.10607 4.53696 10.0365
69 3 4.15248 7.33879 11.242
70 3 1.46652 1.88963 14.87
71 3 3.53512 2.80839 10.5961
72 3 1.85125 6.85707 15.081
73 3 1.94262 7.07448 11.365
74 3 3.37189 2.43158 14.3494
75 3 5.56037 2.27129 10.0152
76 3 8.81867 7.32577 15.5756
77 6 6.95861 0.260237 13.5329
78 6 7.2543 9.28516 12.2167
79 6 5.20759 5.22479 16.4126
80 6 9.16958 4.4529 9.26999
81 4 4.87695 7.61345 10.3939
82 4 9.49441 1.89034 15.3837
83 4 2.7271 2.96535 11.2394
84 4 2.62306 6.70453 14.3373
85 4 0.921906 6.66664 11.3075
86 4 4.47973 2.74219 14.4453
87 4 6.47894 1.73085 9.96176
88 4 7.76054 7.82365 15.6477
89 1 8.68274 10.2272 3.7171
90 1 5.04 18.9303 4.72701
91 1 7.11482 15.1072 0.467894
92 1 6.62608 14.0294 8.02786
93 2 7.75795 18.4076 3.13159
94 2 5.87716 11.1323 5.14136
95 2 8.11724 13.4379 0.973131
96 2 5.58291 15.6973 7.33596
97 2 6.40479 18.1072 3.42796
98 2 7.33647 11.2766 4.90021
99 2 0.414777 13.0822 0.661863
100 2 4.34806 16.1859 7.8006
101 2 7.14121 16.6117 1.79193
102 2 6.62996 12.6222 6.54571
103 2 8.61747 11.7029 2.36463
104 2 5.01667 17.4733 6.16334
105 5 1.14655 10.4665 5.14574
106 5 3.63674 18.8482 3.23773
107 5 1.53352 15.3479 7.58641
108 5 3.22678 13.894 0.895182
109 5 3.14182 10.0315 5.81738
110 5 1.51614 19.1402 2.68789
111 5 8.42048 14.8934 7.02663
112 5 5.25642 14.304 1.43834
113 3 8.10057 17.525 2.13643
114 3 5.67749 11.6906 6.31244
115 3 7.71529 12.6177 2.04386
116 3 5.97825 16.533 6.46509
117 3 6.15921 16.9147 2.72126
118 3 7.69526 12.3006 5.7054
119 3 0.624201 12.0071 1.51368
120 3 3.99084 17.1628 6.93807
121 6 2.26697 10.0833 4.95487
122 6 2.52147 19.212 3.43769
123 6 0.385645 14.9721 7.83492
124 6 4.31717 14.3022 0.675059
125 4 0.112622 17.2904 1.82144
126 4 4.57706 11.8823 6.52842
127 4 6.77998 12.4965 2.52748
128 4 7.02016 16.4049 5.97143
129 4 5.23106 16.334 2.67457
130 4 8.51116 12.8039 5.65219
131 4 1.45417 11.4069 1.39737
132 4 3.16674 17.7868 7.11752
133 1 4.47447 10.2143 12.287
134 1 0.845023 18.9039 13.3944
135 1 2.90404 15.0631 9.07906
136 1 2.4089 14.0484 16.5971
137 2 3.43142 18.3913 11.7648
138 2 1.87894 10.7492 13.9531
139 2 3.93016 13.4309 9.63941
140 2 1.48028 15.6627 15.9788
141 2 2.11461 18.0762 12.1073
142 2 3.15972 11.1154 13.5982
143 2 5.16001 13.0864 9.25376
144 2 9.18655 16.0265 16.4335
145 2 2.98843 16.5589 10.4126
146 2 2.40661 12.5714 15.1847
147 2 4.64093 11.8167 10.9902
148 2 0.777052 17.4929 14.8055
149 5 5.96784 10.364 13.7988
150 5 8.51707 18.7949 11.8524
151 5 6.31362 15.4185 16.2157
152 5 8.08628 13.8731 9.44872
153 5 8.02047 10.0367 14.296
154 5 6.3545 19.095 11.3493
155 5 4.35611 14.9792 15.6833
156 5 1.17797 14.2554 10.0404
157 3 3.99803 17.4042 10.8104
158 3 1.52482 11.6303 14.9667
159 3 3.64631 12.6493 10.6525
160 3 1.72095 16.5366 15.0816
161 3 1.90396 16.9775 11.2462
162 3 3.42339 12.1904 14.4126
163 3 5.46653 12.037 10.0101
164 3 8.87343 17.1045 15.6705
165 6 7.04271 9.91003 13.5696
166 6 7.32414 19.0802 12.1269
167 6 5.25069 14.9423 16.4503
168 6 9.18818 14.4024 9.26177
169 4 4.96545 17.3646 10.2297
170 4 0.642559 11.6999 15.5667
171 4 2.96234 12.8792 11.3852
172 4 2.76103 16.6481 14.6918
173 4 1.01775 16.3423 11.4555
174 4 4.24158 12.779 14.1833
175 4 6.48082 11.5474 9.97993
176 4 7.96816 17.5599 15.6534
177 7 3.03324 9.70361 9.82474
178 8 3.20368 9.02244 8.83124
179 8 2.49578 10.411 10.6039
180 7 9.10627 11.6456 10.6162
181 8 8.34738 11.5074 11.5
182 8 0.747278 11.9063 9.68829
183 7 7.24487 6.70025 9.99523
184 8 7.34285 6.26464 8.99329
185 8 7.12698 7.18872 10.9473
186 7 1.81647 10.5594 7.942
187 8 1.04674 9.80994 7.54764
188 8 2.59398 11.2993 8.38198
189 7 6.31742 9.12747 7.26399
190 8 7.05708 9.01577 6.36773
191 8 5.69118 8.86897 8.17244
192 7 9.19301 7.74016 6.9947
193 8 0.939379 7.36023 6.14433
194 8 8.3478 7.93542 7.78437
195 7 0.970894 8.29268 9.49944
196 8 0.980312 7.24487 9.05329
197 8 0.73489 9.36445 9.94687
198 7 7.74925 10.353 8.55701
199 8 8.22776 11.0852 7.84099
200 8 7.4873 9.50166 9.21657
201 7 6.15535 14.6059 12.4866
202 8 6.07971 15.4944 13.2704
203 8 6.18056 14.0292 11.5062
204 7 7.02507 13.5584 14.6539
205 8 7.85337 13.9285 13.8709
206 8 6.46597 12.9054 15.4857
207 7 6.16991 4.46245 13.26
208 8 5.57659 4.79073 12.2831
209 8 6.77251 4.01254 14.126
210 7 8.92453 4.25013 12.7161
211 8 9.17561 4.81729 13.7099
212 8 8.69882 3.3927 11.9749
213 7 3.64847 4.6112 5.40213
214 8 2.97681 3.88179 5.91157
215 8 4.21327 5.48906 4.85882
216 7 4.29187 2.31202 2.76619
217 8 4.32465 1.80386 1.76646
218 8 4.25803 2.65346 3.86987
219 7 2.2809 13.5382 4.61694
220 8 2.05269 13.5859 5.73307
221 8 2.65337 13.5375 3.51962
222 7 3.77552 15.6393 4.84206
223 8 4.7644 15.0048 4.80169
224 8 2.78307 16.2892 4.78148
ITEM: TIMESTEP
42
ITEM: NUMBER OF ATOMS
224
ITEM: BOX BOUNDS xy xz yz pp pp pp
-4.1786674179710381e-02 9.5918807780928272e+00 0.0000000000000000e+00
-9.0883595833123110e-02 1.9477882695833138e+01 6.3629390391312124e-01
-7.9988139645791989e-02 1.7142803239645779e+01 0.0000000000000000e+00
ITEM: ATOMS id type x y z
1 1 8.73151 0.444663 3.67495
2 1 4.99418 9.18173 4.74929
3 1 7.08713 5.36803 0.400297
4 1 6.62169 4.25391 8.02898
5 2 7.73576 8.62423 3.1057
6 2 6.0909 1.03393 5.38575
7 2 8.12649 3.66802 1.0357
8 2 5.57724 5.90091 7.3426
9 2 6.49754 8.21217 3.53424
10 2 7.40473 1.43366 4.88414
11 2 0.40929 3.36777 0.673576
12 2 4.34946 6.26294 7.86292
13 2 7.11722 6.80998 1.91717
14 2 6.61544 2.74588 6.64971
15 2 8.76406 1.89055 2.30896
16 2 4.84664 7.64943 5.96034
17 5 1.08304 0.693719 5.21054
18 5 3.68831 8.96468 3.25206
19 5 1.5277 5.52089 7.5116
20 5 3.14484 4.08821 0.984643
21 5 3.17909 0.233667 5.71576
22 5 1.54292 9.40886 2.73135
23 5 8.54859 5.0241 7.0915
24 5 5.2299 4.52712 1.42972
25 3 8.10726 7.71096 2.17295
26 3 5.60375 1.84022 6.37819
27 3 7.74629 2.83449 2.03989
28 3 5.94854 6.77271 6.35946
29 3 6.18277 7.09826 2.81168
30 3 7.56402 2.40776 5.74449
31 3 0.726536 2.31081 1.45614
32 3 3.9221 7.36221 6.96559
33 6 2.22445 0.285906 4.98743
34 6 2.52412 9.33211 3.5001
35 6 0.448686 5.11433 7.80297
36 6 4.28335 4.46119 0.661327
37 4 0.0787478 7.56377 1.83485
38 4 4.62189 1.79251 6.83636
39 4 6.68569 2.82787 2.40411
40 4 7.03309 6.90323 6.08639
41 4 5.14468 6.74087 2.72616
42 4 8.60454 2.69838 5.84677
43 4 1.7128 1.79501 1.38679
44 4 3.04852 7.91775 6.99815
45 1 4.54591 0.458833 12.3181
46 1 0.867262 9.15266 13.3311
47 1 2.96682 5.28734 9.02542
48 1 2.4386 4.24882 16.6161
49 2 3.57093 8.4507 11.9337
50 2 1.73896 0.997458 13.825
51 2 3.97718 3.77112 9.72181
52 2 1.47949 5.94973 16.0399
53 2 2.15827 8.20735 11.9951
54 2 3.13367 1.23316 13.6565
55 2 5.30257 3.35094 9.27002
56 2 9.16835 6.33213 16.4546
57 2 2.98463 6.74119 10.5321
58 2 2.43386 2.85024 15.2903
59 2 4.49664 1.80963 10.8584
60 2 0.804554 7.62011 14.6665
61 5 5.81932 0.594331 13.7946
62 5 8.4866 9.09855 12.0397
63 5 6.32842 5.59706 16.2384
64 5 8.06495 3.97505 9.51223
65 5 7.91254 0.242635 14.2996
66 5 6.31063 9.4593 11.3738
67 5 4.26102 5.07032 15.7038
68 5 1.10445 4.53643 10.0366
69 3 4.15612 7.32701 11.2542
70 3 1.46615 1.8883 14.872
71 3 3.53527 2.80381 10.5969
72 3 1.85071 6.8588 15.0836
73 3 1.94318 7.06973 11.3693
74 3 3.36995 2.42855 14.3516
75 3 5.5599 2.26591 10.0174
76 3 8.82035 7.32433 15.5782
77 6 6.9586 0.257067 13.5343
78 6 7.25425 9.2827 12.2205
79 6 5.20764 5.22409 16.4197
80 6 9.17112 4.44934 9.26931
81 4 4.8744 7.60832 10.4116
82 4 9.49618 1.88879 15.3824
83 4 2.73038 2.96428 11.2423
84 4 2.61871 6.69894 14.3396
85 4 0.921747 6.668 11.3104
86 4 4.47779 2.73524 14.4521
87 4 6.48126 1.73136 9.95473
88 4 7.76349 7.82432 15.646
89 1 8.68412 10.227 3.7157
90 1 5.04025 18.934 4.72495
91 1 7.11553 15.1085 0.465273
92 1 6.62741 14.0309 8.02819
93 2 7.75978 18.4124 3.13068
94 2 5.87555 11.1407 5.1327
95 2 8.11776 13.4392 0.969259
96 2 5.58163 15.6981 7.33598
97 2 6.40493 18.1124 3.42532
98 2 7.33696 11.2803 4.89655
99 2 0.414043 13.0825 0.658489
100 2 4.34819 16.1904 7.801
101 2 7.14249 16.6139 1.78891
102 2 6.63051 12.6269 6.5437
103 2 8.61732 11.7019 2.36441
104 2 5.01808 17.4787 6.16145
105 5 1.14745 10.4677 5.14276
106 5 3.63648 18.8541 3.23444
107 5 1.52986 15.3501 7.58693
108 5 3.22756 13.8968 0.892662
109 5 3.13922 10.0319 5.81703
110 5 1.51664 19.1433 2.68607
111 5 8.42308 14.8949 7.02764
112 5 5.25501 14.3066 1.43541
113 3 8.10182 17.5272 2.13312
114 3 5.67814 11.6933 6.31136
115 3 7.7167 12.6184 2.04209
116 3 5.97905 16.5372 6.46519
117 3 6.16255 16.9164 2.71799
118 3 7.69664 12.3043 5.70179
119 3 0.620838 12.0075 1.51171
120 3 3.98993 17.1667 6.93791
121 6 2.26682 10.0848 4.95287
122 6 2.51829 19.2181 3.43614
123 6 0.385167 14.9769 7.8333
124 6 4.31808 14.3053 0.671998
125 4 0.111722 17.2912 1.82699
126 4 4.57946 11.8964 6.52524
127 4 6.77877 12.5003 2.51848
128 4 7.01899 16.4137 5.96545
129 4 5.22982 16.344 2.67817
130 4 8.5129 12.8073 5.64801
131 4 1.44718 11.404 1.39492
132 4 3.17104 17.7959 7.11824
133 1 4.47369 10.2138 12.2881
134 1 0.843235 18.907 13.3969
135 1 2.90246 15.0634 9.07969
136 1 2.40792 14.0503 16.5997
137 2 3.43051 18.395 11.7661
138 2 1.87833 10.7476 13.9553
139 2 3.92908 13.4334 9.6393
140 2 1.47842 15.6623 15.9831
141 2 2.1107 18.08 12.1088
142 2 3.16035 11.115 13.6002
143 2 5.16046 13.0869 9.25177
144 2 9.18962 16.0277 16.4374
145 2 2.98848 16.5596 10.4126
146 2 2.40561 12.5747 15.1877
147 2 4.64455 11.8189 10.9942
148 2 0.77544 17.497 14.8083
149 5 5.97044 10.3624 13.8008
150 5 8.51798 18.8003 11.8534
151 5 6.31283 15.4235 16.2198
152 5 8.09163 13.8764 9.44775
153 5 8.02101 10.0373 14.2963
154 5 6.3568 19.097 11.3518
155 5 4.35836 14.9829 15.6872
156 5 1.17732 14.2586 10.0398
157 3 3.9975 17.405 10.8136
158 3 1.52519 11.6304 14.9699
159 3 3.64852 12.6521 10.6549
160 3 1.71799 16.5413 15.0825
161 3 1.90329 16.9815 11.2463
162 3 3.42293 12.1893 14.4144
163 3 5.46515 12.0365 10.0088
164 3 8.87518 17.1077 15.6746
165 6 7.04321 9.90829 13.5731
166 6 7.32556 19.0817 12.1279
167 6 5.25041 14.9463 16.4558
168 6 9.18875 14.4068 9.26389
169 4 4.96624 17.3695 10.2366
170 4 0.642107 11.6966 15.5665
171 4 2.97253 12.8875 11.3907
172 4 2.75923 16.6543 14.6972
173 4 1.02128 16.3424 11.4552
174 4 4.23546 12.7866 14.185
175 4 6.48245 11.5502 9.97926
176 4 7.96857 17.5592 15.6609
177 7 3.03185 9.70817 9.82175
178 8 3.20019 9.0318 8.82303
179 8 2.49069 10.4102 10.6033
180 7 9.10892 11.646 10.6158
181 8 8.34905 11.5137 11.5013
182 8 0.745197 11.9028 9.6881
183 7 7.24587 6.69906 9.99575
184 8 7.34352 6.26418 8.99202
185 8 7.12689 7.18571 10.9486
186 7 1.81561 10.5597 7.94171
187 8 1.04584 9.80944 7.55044
188 8 2.5953 11.3009 8.37989
189 7 6.31879 9.13107 7.26586
190 8 7.06261 9.00894 6.36784
191 8 5.69106 8.87403 8.17642
192 7 9.1964 7.7394 6.99329
193 8 0.937693 7.35819 6.14127
194 8 8.35029 7.93314 7.78208
195 7 0.970188 8.29123 9.49779
196 8 0.975156 7.24749 9.05259
197 8 0.734793 9.36455 9.94728
198 7 7.74989 10.3528 8.55909
199 8 8.232 11.0859 7.84343
200 8 7.48876 9.50014 9.21535
201 7 6.15614 14.6079 12.4884
202 8 6.08128 15.5 13.2701
203 8 6.1802 14.0324 11.5082
204 7 7.02671 13.5599 14.6544
205 8 7.8564 13.9297 13.8723
206 8 6.47048 12.902 15.4851
207 7 6.17078 4.46068 13.2642
208 8 5.57602 4.78944 12.2845
209 8 6.77325 4.00942 14.1277
210 7 8.92615 4.24973 12.716
211 8 9.17859 4.81662 13.7125
212 8 8.69941 3.38939 11.9788
213 7 3.64536 4.60677 5.40171
214 8 2.9731 3.87916 5.91185
215 8 4.21059 5.48673 4.85454
216 7 4.29298 2.30945 2.763
217 8 4.32673 1.79897 1.76279
218 8 4.25839 2.6501 3.86995
219 7 2.27967 13.5372 4.61578
220 8 2.05313 13.5856 5.73267
221 8 2.65375 13.5369 3.51716
222 7 3.77459 15.6409 4.83942
223 8 4.7613 15.0025 4.79567
224 8 2.78244 16.2941 4.7796
ITEM: TIMESTEP
43
ITEM: NUMBER OF ATOMS
224
ITEM: BOX BOUNDS xy xz yz pp pp pp
-4.3471150936273517e-02 9.5938035071095040e+00 0.0000000000000000e+00
-9.4547235204741398e-02 1.9481546335204754e+01 6.3653215617323333e-01
-8.3212568597820891e-02 1.7146027668597807e+01 0.0000000000000000e+00
ITEM: ATOMS id type x y z
1 1 8.73405 0.440884 3.67259
2 1 4.99336 9.18251 4.74773
3 1 7.0872 5.36672 0.396269
4 1 6.62303 4.25192 8.02937
5 2 7.7382 8.62543 3.10415
6 2 6.09459 1.02976 5.38384
7 2 8.12729 3.66656 1.03254
8 2 5.57593 5.89782 7.34008
9 2 6.49868 8.21129 3.53391
10 2 7.40517 1.43046 4.88157
11 2 0.409057 3.36609 0.670268
12 2 4.348 6.26354 7.86282
13 2 7.11895 6.80683 1.91483
14 2 6.61484 2.74329 6.65132
15 2 8.76551 1.88629 2.30761
16 2 4.84249 7.64761 5.95404
17 5 1.08364 0.690748 5.20999
18 5 3.68694 8.96527 3.24985
19 5 1.52565 5.51629 7.50955
20 5 3.14523 4.08761 0.98371
21 5 3.17822 0.230288 5.71485
22 5 1.54331 9.40945 2.73017
23 5 8.55155 5.01971 7.09068
24 5 5.22823 4.52639 1.42672
25 3 8.10847 7.70998 2.17167
26 3 5.60504 1.83738 6.37852
27 3 7.74943 2.83143 2.03753
28 3 5.94596 6.7711 6.35646
29 3 6.18484 7.09675 2.81302
30 3 7.56588 2.40483 5.74231
31 3 0.725499 2.30865 1.45361
32 3 3.92094 7.3586 6.96446
33 6 2.22078 0.28333 4.98342
34 6 2.52521 9.33103 3.49874
35 6 0.451309 5.1107 7.80528
36 6 4.28099 4.45925 0.657415
37 4 0.0765679 7.55569 1.83558
38 4 4.62383 1.79252 6.83848
39 4 6.68994 2.81619 2.40362
40 4 7.02875 6.901 6.08353
41 4 5.14771 6.74089 2.72314
42 4 8.60366 2.69751 5.85495
43 4 1.7115 1.794 1.38203
44 4 3.04593 7.91458 6.99105
45 1 4.54667 0.45526 12.3197
46 1 0.866052 9.1527 13.3321
47 1 2.96672 5.28417 9.02491
48 1 2.43824 4.24683 16.6193
49 2 3.57229 8.44483 11.9414
50 2 1.737 0.993497 13.8242
51 2 3.97992 3.77071 9.72266
52 2 1.47851 5.94837 16.0438
53 2 2.15627 8.20696 11.9967
54 2 3.13251 1.2271 13.6597
55 2 5.30298 3.3507 9.2694
56 2 9.17076 6.33202 16.4586
57 2 2.98856 6.73675 10.5373
58 2 2.43267 2.84835 15.2935
59 2 4.49669 1.80495 10.8572
60 2 0.801979 7.61963 14.6662
61 5 5.81866 0.589351 13.7965
62 5 8.48653 9.10153 12.0456
63 5 6.32748 5.59713 16.2419
64 5 8.06964 3.97046 9.51296
65 5 7.91022 0.239575 14.3001
66 5 6.31117 9.462 11.3783
67 5 4.26123 5.0677 15.7071
68 5 1.10284 4.53588 10.0367
69 3 4.15957 7.31532 11.2663
70 3 1.46578 1.88697 14.874
71 3 3.5355 2.79917 10.5977
72 3 1.85014 6.86052 15.0862
73 3 1.94375 7.06492 11.3736
74 3 3.36808 2.42548 14.3537
75 3 5.55937 2.26046 10.0196
76 3 8.82199 7.32291 15.5809
77 6 6.95868 0.253803 13.5356
78 6 7.25421 9.2803 12.2244
79 6 5.20763 5.22326 16.4269
80 6 9.17272 4.44576 9.26855
81 4 4.87165 7.60305 10.4302
82 4 9.49797 1.88721 15.381
83 4 2.73323 2.96323 11.2454
84 4 2.61456 6.69313 14.3421
85 4 0.921709 6.66939 11.3132
86 4 4.47506 2.72812 14.459
87 4 6.48377 1.73171 9.9476
88 4 7.76737 7.82464 15.6442
89 1 8.6855 10.2269 3.71428
90 1 5.04049 18.9377 4.72288
91 1 7.11626 15.1099 0.462616
92 1 6.62876 14.0325 8.02851
93 2 7.76158 18.4172 3.12973
94 2 5.8741 11.1489 5.12401
95 2 8.11827 13.4405 0.965417
96 2 5.58031 15.699 7.33608
97 2 6.40512 18.1175 3.42262
98 2 7.33735 11.2839 4.89289
99 2 0.413282 13.0828 0.655112
100 2 4.34831 16.1949 7.80139
101 2 7.14376 16.6162 1.78591
102 2 6.63107 12.6317 6.54167
103 2 8.61721 11.7009 2.36416
104 2 5.01954 17.4842 6.15953
105 5 1.14831 10.469 5.13976
106 5 3.63624 18.8599 3.23108
107 5 1.52618 15.3524 7.58744
108 5 3.22829 13.8995 0.890126
109 5 3.13664 10.0322 5.81663
110 5 1.51716 19.1465 2.68425
111 5 8.42574 14.8964 7.02868
112 5 5.25363 14.3092 1.43247
113 3 8.10305 17.5295 2.12978
114 3 5.67871 11.6961 6.31026
115 3 7.71816 12.6192 2.04025
116 3 5.97995 16.5416 6.46521
117 3 6.16592 16.918 2.71468
118 3 7.69785 12.3079 5.69817
119 3 0.617443 12.0079 1.50968
120 3 3.98906 17.1706 6.9378
121 6 2.2667 10.0862 4.95078
122 6 2.51498 19.2242 3.43469
123 6 0.384664 14.9818 7.83166
124 6 4.31906 14.3084 0.668828
125 4 0.110965 17.2921 1.83258
126 4 4.5825 11.9106 6.52211
127 4 6.77707 12.5044 2.5093
128 4 7.01699 16.4228 5.95968
129 4 5.22855 16.3543 2.68188
130 4 8.5159 12.8115 5.64366
131 4 1.44071 11.4009 1.39238
132 4 3.17503 17.8053 7.11906
133 1 4.47292 10.2132 12.2891
134 1 0.841424 18.91 13.3994
135 1 2.90088 15.0637 9.08033
136 1 2.40693 14.0523 16.6024
137 2 3.42967 18.3987 11.7673
138 2 1.8777 10.7461 13.9575
139 2 3.92797 13.4359 9.63919
140 2 1.47647 15.6619 15.9875
141 2 2.10683 18.0837 12.1103
142 2 3.16096 11.1146 13.6023
143 2 5.16096 13.0875 9.24975
144 2 9.19272 16.0289 16.4413
145 2 2.98849 16.5604 10.4127
146 2 2.40463 12.578 15.1909
147 2 4.64814 11.821 10.9984
148 2 0.773873 17.501 14.8111
149 5 5.97301 10.3608 13.8028
150 5 8.51886 18.8058 11.8545
151 5 6.31208 15.4286 16.2239
152 5 8.09699 13.8798 9.4468
153 5 8.02157 10.0379 14.2965
154 5 6.35914 19.099 11.3543
155 5 4.36054 14.9866 15.6911
156 5 1.17662 14.2619 10.0393
157 3 3.99685 17.406 10.8168
158 3 1.52554 11.6304 14.973
159 3 3.65077 12.6548 10.6573
160 3 1.7151 16.5462 15.0833
161 3 1.90263 16.9856 11.2464
162 3 3.42245 12.1882 14.4162
163 3 5.46387 12.036 10.0075
164 3 8.87694 17.1109 15.6787
165 6 7.04375 9.90655 13.5767
166 6 7.32696 19.0834 12.1289
167 6 5.25011 14.9503 16.4615
168 6 9.18933 14.4111 9.26605
169 4 4.96674 17.3748 10.244
170 4 0.641232 11.6929 15.5661
171 4 2.98211 12.8962 11.3965
172 4 2.7571 16.6604 14.7027
173 4 1.02501 16.3426 11.4547
174 4 4.22975 12.7947 14.1866
175 4 6.48352 11.5535 9.97864
176 4 7.96818 17.5588 15.6686
177 7 3.03039 9.7127 9.81869
178 8 3.19673 9.0412 8.81498
179 8 2.48566 10.4093 10.6026
180 7 9.11153 11.6465 10.6154
181 8 8.35078 11.5202 11.5026
182 8 0.743112 11.8994 9.68794
183 7 7.2469 6.69782 9.99615
184 8 7.3442 6.26367 8.99064
185 8 7.12679 7.18271 10.9501
186 7 1.81477 10.56 7.94143
187 8 1.04491 9.80891 7.55322
188 8 2.59659 11.3026 8.37774
189 7 6.32024 9.13461 7.26764
190 8 7.06814 9.00222 6.36794
191 8 5.69088 8.87912 8.18046
192 7 9.1998 7.73861 6.99183
193 8 0.935942 7.35622 6.13819
194 8 8.35283 7.93085 7.77974
195 7 0.969384 8.28992 9.49617
196 8 0.970008 7.25009 9.05191
197 8 0.734686 9.36456 9.94766
198 7 7.75064 10.3526 8.56113
199 8 8.23626 11.0867 7.84586
200 8 7.4902 9.49855 9.21423
201 7 6.15691 14.6101 12.4902
202 8 6.08284 15.5056 13.2698
203 8 6.17988 14.0356 11.5103
204 7 7.02845 13.5613 14.655
205 8 7.85939 13.9308 13.8737
206 8 6.47502 12.8987 15.4844
207 7 6.1716 4.4589 13.2683
208 8 5.57548 4.78811 12.286
209 8 6.77402 4.00627 14.1295
210 7 8.92782 4.24927 12.716
211 8 9.18158 4.81594 13.7151
212 8 8.70001 3.38605 11.9825
213 7 3.64233 4.60249 5.40118
214 8 2.96932 3.87641 5.91218
215 8 4.20788 5.4843 4.85021
216 7 4.29408 2.30685 2.75991
217 8 4.32883 1.794 1.75899
218 8 4.25875 2.64673 3.87
219 7 2.27847 13.5363 4.61454
220 8 2.05355 13.5853 5.73229
221 8 2.65412 13.5362 3.51467
222 7 3.77362 15.6425 4.83672
223 8 4.75815 15.0003 4.78963
224 8 2.78184 16.2988 4.7777
ITEM: TIMESTEP
44
ITEM: NUMBER OF ATOMS
224
ITEM: BOX BOUNDS xy xz yz pp pp pp
-4.5172573171384123e-02 9.5957455783718828e+00 0.0000000000000000e+00
-9.8247730010626810e-02 1.9485246830010642e+01 6.3677280520049984e-01
-8.6469434620543240e-02 1.7149284534620527e+01 0.0000000000000000e+00
ITEM: ATOMS id type x y z
1 1 8.73661 0.437074 3.6702
2 1 4.99254 9.1833 4.74616
3 1 7.08728 5.3654 0.392218
4 1 6.62438 4.24989 8.02976
5 2 7.74068 8.62662 3.10259
6 2 6.09832 1.02551 5.38187
7 2 8.12808 3.66512 1.02934
8 2 5.57458 5.89468 7.33755
9 2 6.49979 8.2104 3.53354
10 2 7.4055 1.42717 4.87907
11 2 0.408828 3.36438 0.666945
12 2 4.34648 6.26422 7.8626
13 2 7.12073 6.80363 1.91243
14 2 6.6142 2.74067 6.65293
15 2 8.7669 1.88202 2.30624
16 2 4.83842 7.64576 5.94782
17 5 1.08424 0.687738 5.20945
18 5 3.68554 8.96587 3.24761
19 5 1.52366 5.5116 7.5075
20 5 3.14564 4.087 0.982728
21 5 3.17736 0.226879 5.71396
22 5 1.54373 9.41003 2.72897
23 5 8.55445 5.01528 7.08976
24 5 5.22656 4.52564 1.42369
25 3 8.10962 7.70899 2.17038
26 3 5.60643 1.83455 6.3788
27 3 7.75262 2.8283 2.03515
28 3 5.94329 6.76947 6.35343
29 3 6.18688 7.09527 2.81434
30 3 7.56784 2.40192 5.74014
31 3 0.724484 2.30644 1.45106
32 3 3.91989 7.35484 6.96332
33 6 2.21711 0.28066 4.97925
34 6 2.52627 9.32999 3.49744
35 6 0.453908 5.10694 7.80771
36 6 4.27866 4.45735 0.653418
37 4 0.0749379 7.54764 1.83614
38 4 4.62577 1.79252 6.84063
39 4 6.69468 2.80433 2.40306
40 4 7.02388 6.89817 6.08043
41 4 5.1509 6.74091 2.72017
42 4 8.60275 2.69687 5.86322
43 4 1.70987 1.79311 1.37722
44 4 3.04283 7.91129 6.98392
45 1 4.54742 0.451647 12.3213
46 1 0.864823 9.15273 13.3332
47 1 2.96661 5.28099 9.02441
48 1 2.43788 4.24483 16.6225
49 2 3.57362 8.43885 11.9491
50 2 1.73512 0.989534 13.8235
51 2 3.98272 3.77024 9.72348
52 2 1.47747 5.947 16.0477
53 2 2.15436 8.20658 11.9983
54 2 3.13128 1.22108 13.6629
55 2 5.30328 3.35046 9.26881
56 2 9.17321 6.33188 16.4625
57 2 2.99261 6.73226 10.5426
58 2 2.43146 2.84636 15.2966
59 2 4.49677 1.8003 10.856
60 2 0.799389 7.6192 14.6659
61 5 5.81801 0.584337 13.7984
62 5 8.48642 9.10449 12.0515
63 5 6.32657 5.59721 16.2454
64 5 8.07436 3.96582 9.51369
65 5 7.90792 0.236489 14.3006
66 5 6.31175 9.4647 11.3829
67 5 4.26142 5.06508 15.7104
68 5 1.10122 4.53531 10.0369
69 3 4.16284 7.30373 11.2781
70 3 1.4654 1.88564 14.8761
71 3 3.53581 2.79448 10.5985
72 3 1.84952 6.86222 15.0888
73 3 1.94434 7.06007 11.378
74 3 3.36629 2.42237 14.356
75 3 5.55878 2.25495 10.022
76 3 8.82361 7.32151 15.5836
77 6 6.95884 0.250448 13.5369
78 6 7.25418 9.27795 12.2283
79 6 5.20755 5.22231 16.4344
80 6 9.17437 4.44217 9.26773
81 4 4.86876 7.59764 10.4493
82 4 9.49978 1.88562 15.3795
83 4 2.73564 2.96219 11.2487
84 4 2.6106 6.6871 14.3448
85 4 0.921781 6.6708 11.316
86 4 4.47154 2.72085 14.4659
87 4 6.48646 1.73186 9.94039
88 4 7.77214 7.82461 15.6422
89 1 8.68691 10.2267 3.71283
90 1 5.04074 18.9414 4.7208
91 1 7.117 15.1113 0.459926
92 1 6.63011 14.034 8.02883
93 2 7.76334 18.4221 3.12876
94 2 5.87283 11.157 5.1153
95 2 8.11876 13.4418 0.961606
96 2 5.57895 15.6999 7.33627
97 2 6.40534 18.1226 3.41988
98 2 7.33764 11.2875 4.88925
99 2 0.412489 13.0831 0.651734
100 2 4.34843 16.1994 7.80176
101 2 7.14505 16.6185 1.78293
102 2 6.63165 12.6366 6.53963
103 2 8.61714 11.6998 2.36389
104 2 5.02105 17.4898 6.15756
105 5 1.14913 10.4703 5.13676
106 5 3.63603 18.8659 3.22767
107 5 1.52247 15.3547 7.58794
108 5 3.22897 13.9023 0.887577
109 5 3.13407 10.0326 5.81618
110 5 1.5177 19.1497 2.68242
111 5 8.42844 14.8979 7.02975
112 5 5.25226 14.3117 1.42952
113 3 8.10427 17.5318 2.12639
114 3 5.67919 11.6991 6.30913
115 3 7.71968 12.62 2.03834
116 3 5.98093 16.546 6.46516
117 3 6.16931 16.9198 2.71131
118 3 7.69889 12.3116 5.69455
119 3 0.614016 12.0083 1.5076
120 3 3.98823 17.1745 6.93774
121 6 2.26661 10.0876 4.9486
122 6 2.51157 19.2305 3.43334
123 6 0.38413 14.9866 7.83002
124 6 4.32009 14.3116 0.665552
125 4 0.110355 17.2933 1.8382
126 4 4.58617 11.9247 6.51904
127 4 6.7749 12.5088 2.49997
128 4 7.01416 16.4322 5.95414
129 4 5.22724 16.3649 2.68568
130 4 8.52014 12.8163 5.63914
131 4 1.43478 11.3974 1.38975
132 4 3.17871 17.8151 7.12002
133 1 4.47216 10.2127 12.2903
134 1 0.839591 18.9131 13.4018
135 1 2.8993 15.0641 9.08096
136 1 2.40595 14.0543 16.6051
137 2 3.42889 18.4023 11.7686
138 2 1.87704 10.7445 13.9599
139 2 3.92685 13.4386 9.63908
140 2 1.47442 15.6615 15.992
141 2 2.10302 18.0874 12.1118
142 2 3.16155 11.1143 13.6043
143 2 5.16151 13.088 9.24771
144 2 9.19585 16.0301 16.4452
145 2 2.98845 16.5612 10.4129
146 2 2.40366 12.5814 15.194
147 2 4.65169 11.823 11.0025
148 2 0.77235 17.5051 14.8139
149 5 5.97553 10.3593 13.8048
150 5 8.5197 18.8113 11.8555
151 5 6.31138 15.4338 16.228
152 5 8.10237 13.8832 9.44588
153 5 8.02215 10.0385 14.2968
154 5 6.3615 19.101 11.3568
155 5 4.36266 14.9903 15.695
156 5 1.17588 14.2653 10.0387
157 3 3.9961 17.407 10.8201
158 3 1.52588 11.6304 14.9762
159 3 3.65305 12.6576 10.6596
160 3 1.71229 16.5511 15.0841
161 3 1.90199 16.9897 11.2465
162 3 3.42195 12.1871 14.418
163 3 5.46269 12.0354 10.0062
164 3 8.87873 17.114 15.6828
165 6 7.04432 9.9048 13.5803
166 6 7.32835 19.0852 12.1299
167 6 5.24977 14.9544 16.4673
168 6 9.18994 14.4155 9.26824
169 4 4.96696 17.3805 10.2517
170 4 0.639931 11.6889 15.5656
171 4 2.99108 12.9052 11.4027
172 4 2.75464 16.6666 14.7083
173 4 1.0289 16.343 11.454
174 4 4.22445 12.8031 14.1882
175 4 6.48403 11.5572 9.97806
176 4 7.96699 17.5587 15.6765
177 7 3.02884 9.7172 9.81555
178 8 3.19329 9.05064 8.80709
179 8 2.48071 10.4084 10.6019
180 7 9.11408 11.647 10.6151
181 8 8.35257 11.5266 11.504
182 8 0.741026 11.8959 9.6878
183 7 7.24797 6.69652 9.99645
184 8 7.3449 6.26312 8.98915
185 8 7.12667 7.17973 10.952
186 7 1.81397 10.5605 7.94117
187 8 1.04397 9.80836 7.55597
188 8 2.59787 11.3043 8.37552
189 7 6.32178 9.13808 7.26932
190 8 7.07366 8.99563 6.36802
191 8 5.69063 8.88423 8.18454
192 7 9.20322 7.73777 6.99033
193 8 0.934129 7.35432 6.1351
194 8 8.35543 7.92854 7.77733
195 7 0.968483 8.28876 9.4946
196 8 0.964872 7.25268 9.05125
197 8 0.734569 9.36449 9.94801
198 7 7.7515 10.3525 8.56311
199 8 8.24052 11.0876 7.84828
200 8 7.49162 9.49688 9.21322
201 7 6.15766 14.6125 12.4921
202 8 6.08439 15.5111 13.2695
203 8 6.17959 14.0388 11.5124
204 7 7.03029 13.5626 14.6556
205 8 7.86234 13.932 13.8752
206 8 6.4796 12.8954 15.4837
207 7 6.17235 4.45711 13.2723
208 8 5.57499 4.78677 12.2876
209 8 6.7748 4.00309 14.1313
210 7 8.92954 4.24876 12.7161
211 8 9.18459 4.81525 13.7177
212 8 8.70062 3.38269 11.9863
213 7 3.6394 4.59837 5.40053
214 8 2.96548 3.87353 5.91255
215 8 4.20515 5.48176 4.84585
216 7 4.29517 2.30423 2.75692
217 8 4.33092 1.78896 1.75508
218 8 4.25909 2.64335 3.87003
219 7 2.2773 13.5354 4.61323
220 8 2.05393 13.585 5.73195
221 8 2.65445 13.5356 3.51218
222 7 3.77263 15.6441 4.83397
223 8 4.75495 14.998 4.78356
224 8 2.78128 16.3036 4.77577
ITEM: TIMESTEP
45
ITEM: NUMBER OF ATOMS
224
ITEM: BOX BOUNDS xy xz yz pp pp pp
-4.6889949466392800e-02 9.5977058602351359e+00 0.0000000000000000e+00
-1.0198292397264730e-01 1.9488982023972660e+01 6.3701571076874497e-01
-8.9756839938296196e-02 1.7152571939938284e+01 0.0000000000000000e+00
ITEM: ATOMS id type x y z
1 1 8.73919 0.433235 3.6678
2 1 4.99172 9.18408 4.74457
3 1 7.08737 5.36405 0.388148
4 1 6.62573 4.24785 8.03014
5 2 7.74317 8.62781 3.10103
6 2 6.10209 1.0212 5.37983
7 2 8.12886 3.6637 1.02611
8 2 5.57321 5.89149 7.33501
9 2 6.50087 8.20951 3.53312
10 2 7.4057 1.42378 4.87663
11 2 0.4086 3.36262 0.663612
12 2 4.3449 6.26497 7.86226
13 2 7.12256 6.80037 1.90997
14 2 6.61352 2.73805 6.65455
15 2 8.76824 1.87774 2.30485
16 2 4.83444 7.6439 5.94168
17 5 1.08485 0.684691 5.20892
18 5 3.68409 8.96647 3.24533
19 5 1.52173 5.50684 7.50544
20 5 3.14606 4.0864 0.981697
21 5 3.1765 0.22344 5.71308
22 5 1.54417 9.41058 2.72776
23 5 8.55731 5.01083 7.08875
24 5 5.2249 4.52487 1.42063
25 3 8.11071 7.70799 2.16907
26 3 5.60792 1.83172 6.37904
27 3 7.75586 2.82511 2.03274
28 3 5.94052 6.76783 6.35037
29 3 6.18891 7.09381 2.81564
30 3 7.56989 2.39905 5.73797
31 3 0.72349 2.30417 1.44848
32 3 3.91895 7.35094 6.96216
33 6 2.21345 0.277897 4.97491
34 6 2.52728 9.32901 3.49618
35 6 0.456468 5.10303 7.81025
36 6 4.27636 4.45548 0.649342
37 4 0.0738519 7.53962 1.83652
38 4 4.62771 1.79249 6.8428
39 4 6.69988 2.79231 2.40242
40 4 7.0185 6.89474 6.07709
41 4 5.15423 6.74092 2.71724
42 4 8.60183 2.69645 5.87155
43 4 1.70794 1.79232 1.37237
44 4 3.03924 7.90786 6.97681
45 1 4.54817 0.447997 12.323
46 1 0.863574 9.15276 13.3342
47 1 2.96649 5.27779 9.02392
48 1 2.43751 4.24282 16.6257
49 2 3.57493 8.43278 11.9567
50 2 1.73333 0.985571 13.823
51 2 3.98559 3.7697 9.72427
52 2 1.47637 5.94561 16.0517
53 2 2.15253 8.20619 12.0001
54 2 3.12998 1.21509 13.6661
55 2 5.30349 3.35021 9.26827
56 2 9.17571 6.33171 16.4665
57 2 2.99677 6.72775 10.5481
58 2 2.43021 2.84426 15.2996
59 2 4.49686 1.79569 10.8548
60 2 0.796785 7.6188 14.6657
61 5 5.81737 0.579292 13.8003
62 5 8.48627 9.10741 12.0574
63 5 6.32568 5.5973 16.2489
64 5 8.0791 3.96115 9.51442
65 5 7.90565 0.233379 14.3012
66 5 6.31237 9.46741 11.3876
67 5 4.26161 5.06245 15.7136
68 5 1.09962 4.53472 10.037
69 3 4.16591 7.29224 11.2898
70 3 1.46502 1.8843 14.8783
71 3 3.53622 2.78974 10.5993
72 3 1.84886 6.8639 15.0914
73 3 1.94495 7.05517 11.3824
74 3 3.36458 2.41923 14.3582
75 3 5.55814 2.2494 10.0243
76 3 8.82521 7.32013 15.5863
77 6 6.95908 0.247003 13.5381
78 6 7.25415 9.27565 12.2323
79 6 5.2074 5.22124 16.4421
80 6 9.1761 4.43858 9.26685
81 4 4.86578 7.59209 10.4691
82 4 9.5016 1.88401 15.3779
83 4 2.73763 2.96115 11.2524
84 4 2.60685 6.68087 14.3476
85 4 0.921951 6.6722 11.3186
86 4 4.46728 2.71344 14.4728
87 4 6.48932 1.73182 9.93314
88 4 7.77779 7.82423 15.6401
89 1 8.68833 10.2266 3.71137
90 1 5.04099 18.9451 4.7187
91 1 7.11775 15.1127 0.457204
92 1 6.63146 14.0356 8.02914
93 2 7.76506 18.427 3.12776
94 2 5.87174 11.1649 5.10657
95 2 8.11925 13.4431 0.957829
96 2 5.57756 15.7007 7.33654
97 2 6.40561 18.1277 3.41709
98 2 7.33783 11.2911 4.88563
99 2 0.411663 13.0834 0.648356
100 2 4.34854 16.2038 7.80212
101 2 7.14634 16.6208 1.77998
102 2 6.63225 12.6415 6.53758
103 2 8.61711 11.6987 2.36358
104 2 5.02261 17.4955 6.15556
105 5 1.14991 10.4716 5.13375
106 5 3.63583 18.8718 3.2242
107 5 1.51875 15.357 7.58841
108 5 3.22961 13.9051 0.885016
109 5 3.13151 10.033 5.81567
110 5 1.51827 19.153 2.6806
111 5 8.43119 14.8995 7.03084
112 5 5.25092 14.3143 1.42656
113 3 8.10549 17.5341 2.12297
114 3 5.6796 11.7021 6.30796
115 3 7.72124 12.6208 2.03637
116 3 5.98199 16.5506 6.46503
117 3 6.17273 16.9217 2.7079
118 3 7.69976 12.3152 5.69092
119 3 0.610559 12.0089 1.50546
120 3 3.98745 17.1784 6.93774
121 6 2.26656 10.0889 4.94632
122 6 2.50805 19.2369 3.4321
123 6 0.38356 14.9915 7.82837
124 6 4.32117 14.3148 0.662172
125 4 0.109895 17.2946 1.84384
126 4 4.59044 11.9389 6.51602
127 4 6.77225 12.5134 2.4905
128 4 7.01053 16.4418 5.94885
129 4 5.22592 16.3758 2.68953
130 4 8.52558 12.8218 5.63445
131 4 1.42937 11.3935 1.38701
132 4 3.18207 17.8252 7.1211
133 1 4.47141 10.2122 12.2914
134 1 0.837736 18.9162 13.4043
135 1 2.89771 15.0645 9.08158
136 1 2.40497 14.0563 16.6079
137 2 3.42817 18.406 11.7697
138 2 1.87638 10.7429 13.9622
139 2 3.92572 13.4414 9.63898
140 2 1.47228 15.6611 15.9967
141 2 2.09927 18.091 12.1132
142 2 3.16212 11.114 13.6064
143 2 5.16211 13.0886 9.24564
144 2 9.199 16.0313 16.4491
145 2 2.98837 16.562 10.4132
146 2 2.40272 12.5848 15.1972
147 2 4.6552 11.825 11.0067
148 2 0.770868 17.5092 14.8168
149 5 5.97801 10.3578 13.8069
150 5 8.52051 18.8168 11.8565
151 5 6.31073 15.439 16.2322
152 5 8.10776 13.8866 9.44498
153 5 8.02276 10.0391 14.2971
154 5 6.36388 19.1031 11.3593
155 5 4.3647 14.994 15.6988
156 5 1.17509 14.2687 10.0381
157 3 3.99524 17.4081 10.8233
158 3 1.52622 11.6304 14.9793
159 3 3.65537 12.6604 10.662
160 3 1.70954 16.5561 15.0848
161 3 1.90137 16.9939 11.2466
162 3 3.42143 12.1859 14.4198
163 3 5.4616 12.0347 10.0048
164 3 8.88054 17.1172 15.687
165 6 7.04494 9.90303 13.584
166 6 7.32971 19.087 12.1309
167 6 5.24942 14.9584 16.4733
168 6 9.19058 14.4198 9.27045
169 4 4.9669 17.3864 10.2599
170 4 0.638205 11.6847 15.5649
171 4 2.99944 12.9146 11.4092
172 4 2.75187 16.6728 14.714
173 4 1.03295 16.3435 11.4532
174 4 4.21955 12.812 14.1898
175 4 6.48397 11.5613 9.97752
176 4 7.96503 17.559 15.6845
177 7 3.02723 9.72168 9.81234
178 8 3.18989 9.06011 8.79937
179 8 2.47584 10.4075 10.6013
180 7 9.11658 11.6474 10.6148
181 8 8.35442 11.5332 11.5053
182 8 0.738943 11.8923 9.68766
183 7 7.24907 6.69517 9.99663
184 8 7.3456 6.26253 8.98755
185 8 7.12654 7.17678 10.954
186 7 1.81321 10.561 7.94092
187 8 1.04302 9.80778 7.55869
188 8 2.59913 11.306 8.37323
189 7 6.32341 9.14147 7.27091
190 8 7.07915 8.98916 6.36811
191 8 5.69031 8.88937 8.18865
192 7 9.20665 7.73688 6.98877
193 8 0.932255 7.35249 6.13199
194 8 8.35807 7.92621 7.77486
195 7 0.967487 8.28778 9.49307
196 8 0.959752 7.25524 9.05062
197 8 0.734443 9.36433 9.94832
198 7 7.75249 10.3525 8.56503
199 8 8.24478 11.0885 7.85069
200 8 7.49301 9.49514 9.21231
201 7 6.15839 14.6151 12.4941
202 8 6.08593 15.5167 13.2691
203 8 6.17934 14.042 11.5145
204 7 7.03223 13.5638 14.6563
205 8 7.86526 13.9331 13.8768
206 8 6.48421 12.8922 15.4829
207 7 6.17302 4.45532 13.2761
208 8 5.57453 4.7854 12.2892
209 8 6.7756 3.99987 14.1331
210 7 8.9313 4.24819 12.7163
211 8 9.18762 4.81456 13.7202
212 8 8.70123 3.3793 11.9901
213 7 3.63655 4.59441 5.39976
214 8 2.96158 3.87054 5.91298
215 8 4.20239 5.47912 4.84146
216 7 4.29625 2.30159 2.75402
217 8 4.33303 1.78386 1.75106
218 8 4.25944 2.63998 3.87003
219 7 2.27615 13.5345 4.61184
220 8 2.05429 13.5848 5.73163
221 8 2.65476 13.5349 3.50967
222 7 3.77161 15.6458 4.83117
223 8 4.75172 14.9958 4.77746
224 8 2.78076 16.3084 4.77382
ITEM: TIMESTEP
46
ITEM: NUMBER OF ATOMS
224
ITEM: BOX BOUNDS xy xz yz pp pp pp
-4.8622288570877359e-02 9.5996832212464636e+00 0.0000000000000000e+00
-1.0575066117855059e-01 1.9492749761178565e+01 6.3726073267558681e-01
-9.3072887097431334e-02 1.7155887987097415e+01 0.0000000000000000e+00
ITEM: ATOMS id type x y z
1 1 8.74178 0.42937 3.66539
2 1 4.99091 9.18487 4.74296
3 1 7.08748 5.36269 0.384059
4 1 6.6271 4.24579 8.03053
5 2 7.74568 8.62898 3.09946
6 2 6.10589 1.01681 5.37773
7 2 8.12963 3.66231 1.02285
8 2 5.5718 5.88826 7.33247
9 2 6.50192 8.20862 3.53267
10 2 7.40579 1.42031 4.87426
11 2 0.408372 3.36083 0.66027
12 2 4.34325 6.2658 7.86178
13 2 7.12443 6.79707 1.90746
14 2 6.61281 2.7354 6.65617
15 2 8.76953 1.87345 2.30343
16 2 4.83054 7.64202 5.93563
17 5 1.08544 0.68161 5.20839
18 5 3.68262 8.96706 3.24302
19 5 1.51986 5.50202 7.50338
20 5 3.14649 4.08578 0.98062
21 5 3.17564 0.219975 5.7122
22 5 1.54463 9.41113 2.72655
23 5 8.56012 5.00635 7.08766
24 5 5.22324 4.52409 1.41754
25 3 8.11175 7.70699 2.16774
26 3 5.60951 1.8289 6.37924
27 3 7.75914 2.82185 2.03031
28 3 5.93766 6.76619 6.34728
29 3 6.19092 7.09237 2.81691
30 3 7.57201 2.3962 5.73581
31 3 0.722517 2.30185 1.44589
32 3 3.91812 7.34691 6.96097
33 6 2.2098 0.275043 4.97043
34 6 2.52825 9.32809 3.49497
35 6 0.458978 5.09899 7.81288
36 6 4.2741 4.45366 0.645195
37 4 0.0732965 7.53165 1.83674
38 4 4.62966 1.79242 6.84499
39 4 6.70552 2.78015 2.40167
40 4 7.01264 6.89071 6.07348
41 4 5.15769 6.74093 2.71437
42 4 8.60091 2.69622 5.87992
43 4 1.70572 1.79163 1.36749
44 4 3.03519 7.90428 6.96973
45 1 4.54891 0.444311 12.3246
46 1 0.862306 9.15279 13.3353
47 1 2.96637 5.27458 9.02344
48 1 2.43713 4.24079 16.6289
49 2 3.5762 8.4266 11.9644
50 2 1.73161 0.981615 13.8225
51 2 3.98852 3.7691 9.72503
52 2 1.4752 5.94421 16.0556
53 2 2.1508 8.2058 12.0019
54 2 3.12861 1.20913 13.6694
55 2 5.30361 3.34996 9.26776
56 2 9.17824 6.33152 16.4704
57 2 3.00103 6.7232 10.5537
58 2 2.42894 2.84206 15.3025
59 2 4.49698 1.79111 10.8536
60 2 0.794169 7.61844 14.6655
61 5 5.81675 0.574218 13.8023
62 5 8.48607 9.11031 12.0632
63 5 6.32482 5.59741 16.2523
64 5 8.08386 3.95643 9.51516
65 5 7.9034 0.230247 14.3019
66 5 6.31302 9.47012 11.3923
67 5 4.2618 5.05983 15.7168
68 5 1.09801 4.5341 10.0372
69 3 4.16877 7.28087 11.3013
70 3 1.46463 1.88295 14.8805
71 3 3.53671 2.78496 10.6001
72 3 1.84816 6.86557 15.094
73 3 1.94558 7.05023 11.3868
74 3 3.36295 2.41604 14.3605
75 3 5.55744 2.2438 10.0268
76 3 8.82678 7.31877 15.5891
77 6 6.95939 0.24347 13.5393
78 6 7.25413 9.27341 12.2363
79 6 5.20716 5.22005 16.45
80 6 9.17789 4.43498 9.2659
81 4 4.8628 7.58641 10.4894
82 4 9.50343 1.88241 15.3762
83 4 2.7392 2.9601 11.2563
84 4 2.6033 6.67444 14.3506
85 4 0.922207 6.67358 11.3212
86 4 4.4623 2.70591 14.4798
87 4 6.49232 1.73155 9.92586
88 4 7.78426 7.82351 15.6379
89 1 8.68977 10.2264 3.70989
90 1 5.04124 18.9489 4.71659
91 1 7.11852 15.1141 0.454452
92 1 6.63282 14.0372 8.02945
93 2 7.76674 18.4319 3.12674
94 2 5.87082 11.1728 5.09784
95 2 8.11973 13.4445 0.954089
96 2 5.57613 15.7015 7.33689
97 2 6.40592 18.1327 3.41425
98 2 7.33793 11.2948 4.88203
99 2 0.410801 13.0837 0.644983
100 2 4.34864 16.2082 7.80247
101 2 7.14763 16.6231 1.77704
102 2 6.63288 12.6464 6.53551
103 2 8.61712 11.6975 2.36325
104 2 5.02421 17.5012 6.15353
105 5 1.15066 10.473 5.13074
106 5 3.63565 18.8777 3.22068
107 5 1.51501 15.3594 7.58887
108 5 3.23021 13.9078 0.882444
109 5 3.12896 10.0333 5.8151
110 5 1.51885 19.1563 2.67877
111 5 8.43399 14.901 7.03196
112 5 5.2496 14.3169 1.4236
113 3 8.1067 17.5365 2.11953
114 3 5.67994 11.7052 6.30675
115 3 7.72286 12.6216 2.03434
116 3 5.98313 16.5552 6.46482
117 3 6.17617 16.9236 2.70446
118 3 7.70047 12.3188 5.6873
119 3 0.607074 12.0095 1.50327
120 3 3.98672 17.1823 6.93777
121 6 2.26655 10.0902 4.94396
122 6 2.50444 19.2433 3.43095
123 6 0.382947 14.9963 7.82673
124 6 4.3223 14.3181 0.658691
125 4 0.109586 17.2961 1.8495
126 4 4.59528 11.953 6.51305
127 4 6.76915 12.5183 2.48089
128 4 7.00615 16.4517 5.94381
129 4 5.22459 16.387 2.69341
130 4 8.53217 12.828 5.62961
131 4 1.42449 11.3894 1.38417
132 4 3.18513 17.8356 7.12232
133 1 4.47066 10.2117 12.2926
134 1 0.83586 18.9194 13.4068
135 1 2.89612 15.0649 9.08221
136 1 2.40398 14.0583 16.6106
137 2 3.42751 18.4096 11.7708
138 2 1.8757 10.7414 13.9647
139 2 3.92458 13.4443 9.63887
140 2 1.47005 15.6606 16.0014
141 2 2.09558 18.0946 12.1145
142 2 3.16266 11.1137 13.6085
143 2 5.16275 13.0891 9.24355
144 2 9.20218 16.0325 16.4529
145 2 2.98824 16.5629 10.4135
146 2 2.4018 12.5883 15.2005
147 2 4.65865 11.827 11.0109
148 2 0.769425 17.5134 14.8196
149 5 5.98044 10.3563 13.809
150 5 8.52129 18.8224 11.8576
151 5 6.31012 15.4442 16.2363
152 5 8.11314 13.8901 9.4441
153 5 8.0234 10.0397 14.2975
154 5 6.36629 19.1051 11.3619
155 5 4.36668 14.9978 15.7027
156 5 1.17426 14.2722 10.0374
157 3 3.99427 17.4093 10.8267
158 3 1.52654 11.6304 14.9825
159 3 3.65772 12.6631 10.6645
160 3 1.70687 16.5612 15.0854
161 3 1.90077 16.998 11.2468
162 3 3.4209 12.1847 14.4216
163 3 5.46061 12.034 10.0034
164 3 8.88238 17.1204 15.6912
165 6 7.04559 9.90126 13.5877
166 6 7.33105 19.0889 12.1321
167 6 5.24905 14.9625 16.4793
168 6 9.19126 14.4242 9.27267
169 4 4.96658 17.3927 10.2685
170 4 0.636055 11.6802 15.5642
171 4 3.00719 12.9242 11.4161
172 4 2.7488 16.6791 14.7198
173 4 1.03713 16.3441 11.4522
174 4 4.21502 12.8213 14.1913
175 4 6.48337 11.5658 9.97703
176 4 7.96231 17.5597 15.6928
177 7 3.02553 9.72613 9.80905
178 8 3.18653 9.06962 8.7918
179 8 2.47105 10.4066 10.6006
180 7 9.11901 11.6479 10.6146
181 8 8.35632 11.5397 11.5066
182 8 0.736866 11.8888 9.68754
183 7 7.2502 6.69377 9.99669
184 8 7.34632 6.2619 8.98586
185 8 7.12639 7.17384 10.9563
186 7 1.81249 10.5615 7.94068
187 8 1.04205 9.80717 7.56139
188 8 2.60036 11.3077 8.37088
189 7 6.32512 9.14479 7.27239
190 8 7.08462 8.98282 6.36819
191 8 5.68994 8.89452 8.19279
192 7 9.21009 7.73595 6.98716
193 8 0.93032 7.35072 6.12888
194 8 8.36076 7.92386 7.77234
195 7 0.966395 8.28698 9.49159
196 8 0.954652 7.25777 9.04999
197 8 0.734306 9.36408 9.9486
198 7 7.7536 10.3526 8.56688
199 8 8.24904 11.0894 7.85309
200 8 7.49437 9.49331 9.21152
201 7 6.15911 14.6179 12.4961
202 8 6.08747 15.5221 13.2688
203 8 6.17912 14.0451 11.5165
204 7 7.03427 13.5649 14.657
205 8 7.86813 13.9342 13.8785
206 8 6.48885 12.889 15.4822
207 7 6.17363 4.45354 13.2799
208 8 5.57411 4.784 12.2909
209 8 6.77643 3.99662 14.135
210 7 8.93312 4.24757 12.7167
211 8 9.19065 4.81385 13.7227
212 8 8.70184 3.37588 11.9939
213 7 3.63379 4.59063 5.39887
214 8 2.95763 3.86744 5.91346
215 8 4.19959 5.47636 4.83704
216 7 4.29732 2.29893 2.75122
217 8 4.33513 1.7787 1.74694
218 8 4.25978 2.63659 3.87
219 7 2.27504 13.5336 4.61038
220 8 2.05462 13.5845 5.73133
221 8 2.65505 13.5343 3.50716
222 7 3.77055 15.6476 4.82831
223 8 4.74844 14.9936 4.77135
224 8 2.78028 16.3131 4.77185
ITEM: TIMESTEP
47
ITEM: NUMBER OF ATOMS
224
ITEM: BOX BOUNDS xy xz yz pp pp pp
-5.0368598085191785e-02 9.6016765286412866e+00 0.0000000000000000e+00
-1.0954878321659400e-01 1.9496547883216611e+01 6.3750773055609755e-01
-9.6415676444461695e-02 1.7159230776444446e+01 0.0000000000000000e+00
ITEM: ATOMS id type x y z
1 1 8.74439 0.42548 3.66296
2 1 4.9901 9.18566 4.74134
3 1 7.08759 5.36131 0.379953
4 1 6.62848 4.24371 8.03091
5 2 7.7482 8.63014 3.09791
6 2 6.10971 1.01236 5.37557
7 2 8.1304 3.66094 1.01956
8 2 5.57035 5.88499 7.32992
9 2 6.50293 8.20774 3.53217
10 2 7.40576 1.41676 4.87195
11 2 0.40814 3.35901 0.656923
12 2 4.34156 6.26669 7.86119
13 2 7.12633 6.79372 1.9049
14 2 6.61207 2.73275 6.65779
15 2 8.77078 1.86916 2.30199
16 2 4.82673 7.64011 5.92968
17 5 1.08604 0.6785 5.20787
18 5 3.68111 8.96766 3.24067
19 5 1.51806 5.49713 7.50133
20 5 3.14693 4.08517 0.979496
21 5 3.17477 0.216485 5.71133
22 5 1.54511 9.41166 2.72532
23 5 8.56289 5.00185 7.08649
24 5 5.22158 4.52329 1.41442
25 3 8.11273 7.70598 2.16639
26 3 5.61121 1.82608 6.37939
27 3 7.76247 2.81853 2.02787
28 3 5.9347 6.76453 6.34415
29 3 6.19292 7.09096 2.81816
30 3 7.57421 2.3934 5.73366
31 3 0.721561 2.29948 1.44327
32 3 3.91739 7.34276 6.95976
33 6 2.20619 0.2721 4.96581
34 6 2.52918 9.32723 3.49382
35 6 0.461424 5.09482 7.81559
36 6 4.27188 4.45187 0.640985
37 4 0.073251 7.52373 1.83682
38 4 4.6316 1.7923 6.84719
39 4 6.71159 2.76788 2.40082
40 4 7.00633 6.88609 6.0696
41 4 5.16124 6.74093 2.71158
42 4 8.60002 2.69618 5.88829
43 4 1.70322 1.79102 1.36259
44 4 3.03069 7.90053 6.96271
45 1 4.54965 0.440592 12.3263
46 1 0.86102 9.15282 13.3363
47 1 2.96624 5.27137 9.02297
48 1 2.43675 4.23875 16.6322
49 2 3.57744 8.42032 11.972
50 2 1.72998 0.977669 13.8221
51 2 3.9915 3.76842 9.72577
52 2 1.47397 5.9428 16.0596
53 2 2.14917 8.2054 12.0038
54 2 3.12719 1.20322 13.6726
55 2 5.30363 3.3497 9.2673
56 2 9.18081 6.33129 16.4742
57 2 3.00539 6.71861 10.5594
58 2 2.42764 2.83976 15.3054
59 2 4.49712 1.78656 10.8523
60 2 0.791541 7.61812 14.6654
61 5 5.81613 0.569117 13.8043
62 5 8.48582 9.11317 12.069
63 5 6.32399 5.59753 16.2557
64 5 8.08864 3.95168 9.5159
65 5 7.90118 0.227095 14.3026
66 5 6.31372 9.47283 11.3971
67 5 4.26199 5.05721 15.72
68 5 1.09641 4.53347 10.0374
69 3 4.17144 7.26961 11.3126
70 3 1.46423 1.88159 14.8827
71 3 3.53728 2.78015 10.6008
72 3 1.84742 6.86721 15.0966
73 3 1.94624 7.04526 11.3913
74 3 3.36138 2.41282 14.3629
75 3 5.55669 2.23819 10.0292
76 3 8.82834 7.31743 15.5919
77 6 6.95977 0.23985 13.5404
78 6 7.25412 9.27123 12.2403
79 6 5.20685 5.21874 16.458
80 6 9.17976 4.43138 9.2649
81 4 4.85987 7.5806 10.5101
82 4 9.50525 1.88081 15.3743
83 4 2.74037 2.95905 11.2604
84 4 2.59997 6.66783 14.3537
85 4 0.922534 6.67493 11.3236
86 4 4.45666 2.69827 14.4868
87 4 6.49543 1.73105 9.91857
88 4 7.7915 7.82246 15.6357
89 1 8.69123 10.2263 3.70839
90 1 5.04148 18.9527 4.71447
91 1 7.11929 15.1155 0.451672
92 1 6.63418 14.0389 8.02975
93 2 7.76837 18.4367 3.12568
94 2 5.87007 11.1805 5.08911
95 2 8.1202 13.4458 0.950389
96 2 5.57467 15.7024 7.3373
97 2 6.40628 18.1377 3.41137
98 2 7.33792 11.2984 4.87844
99 2 0.409901 13.0839 0.641614
100 2 4.34873 16.2125 7.8028
101 2 7.14894 16.6254 1.77412
102 2 6.63352 12.6515 6.53343
103 2 8.61717 11.6963 2.36289
104 2 5.02586 17.507 6.15147
105 5 1.15136 10.4744 5.12773
106 5 3.63548 18.8837 3.21712
107 5 1.51127 15.3618 7.5893
108 5 3.23076 13.9106 0.879862
109 5 3.12642 10.0336 5.81449
110 5 1.51945 19.1596 2.67694
111 5 8.43684 14.9026 7.03309
112 5 5.24831 14.3196 1.42063
113 3 8.10789 17.5388 2.11607
114 3 5.6802 11.7085 6.3055
115 3 7.72452 12.6225 2.03223
116 3 5.98434 16.5599 6.46454
117 3 6.17962 16.9256 2.70099
118 3 7.70102 12.3223 5.68368
119 3 0.603562 12.0102 1.50103
120 3 3.98605 17.1862 6.93786
121 6 2.26658 10.0914 4.94151
122 6 2.50075 19.2499 3.4299
123 6 0.382286 15.0012 7.8251
124 6 4.32347 14.3214 0.655113
125 4 0.109425 17.2977 1.85515
126 4 4.60066 11.9671 6.51014
127 4 6.76561 12.5234 2.47117
128 4 7.00104 16.4617 5.93903
129 4 5.22326 16.3984 2.69728
130 4 8.53984 12.8348 5.6246
131 4 1.42011 11.3849 1.38122
132 4 3.1879 17.8463 7.12368
133 1 4.46993 10.2112 12.2937
134 1 0.833963 18.9226 13.4093
135 1 2.89453 15.0654 9.08283
136 1 2.403 14.0603 16.6134
137 2 3.4269 18.4132 11.7719
138 2 1.87502 10.7399 13.9671
139 2 3.92344 13.4472 9.63877
140 2 1.46774 15.6602 16.0063
141 2 2.09197 18.0982 12.1158
142 2 3.16318 11.1134 13.6107
143 2 5.16343 13.0897 9.24145
144 2 9.20538 16.0338 16.4567
145 2 2.98806 16.5638 10.4139
146 2 2.4009 12.5919 15.2038
147 2 4.66207 11.8289 11.0152
148 2 0.76802 17.5176 14.8224
149 5 5.98283 10.3548 13.8112
150 5 8.52204 18.828 11.8587
151 5 6.30956 15.4495 16.2406
152 5 8.11853 13.8935 9.44326
153 5 8.02406 10.0403 14.2978
154 5 6.36873 19.1073 11.3644
155 5 4.3686 15.0015 15.7065
156 5 1.17338 14.2757 10.0368
157 3 3.99319 17.4106 10.83
158 3 1.52685 11.6304 14.9856
159 3 3.66011 12.6659 10.6669
160 3 1.70427 16.5663 15.086
161 3 1.9002 17.0022 11.247
162 3 3.42035 12.1835 14.4233
163 3 5.45973 12.0333 10.0019
164 3 8.88423 17.1235 15.6955
165 6 7.04628 9.89946 13.5914
166 6 7.33236 19.0909 12.1332
167 6 5.24867 14.9666 16.4854
168 6 9.19199 14.4286 9.2749
169 4 4.96601 17.3992 10.2774
170 4 0.633491 11.6755 15.5633
171 4 3.01435 12.9342 11.4232
172 4 2.74545 16.6853 14.7256
173 4 1.04143 16.3449 11.4511
174 4 4.21085 12.8308 14.1927
175 4 6.48224 11.5707 9.97658
176 4 7.95888 17.5606 15.7012
177 7 3.02376 9.73055 9.80568
178 8 3.1832 9.07916 8.7844
179 8 2.46635 10.4056 10.5999
180 7 9.12138 11.6485 10.6144
181 8 8.35827 11.5463 11.5079
182 8 0.734797 11.8852 9.68743
183 7 7.25137 6.69232 9.99664
184 8 7.34704 6.26123 8.98408
185 8 7.12623 7.17093 10.9588
186 7 1.81181 10.5621 7.94046
187 8 1.04107 9.80654 7.56407
188 8 2.60157 11.3095 8.36846
189 7 6.32692 9.14803 7.27378
190 8 7.09005 8.97661 6.36829
191 8 5.68951 8.8997 8.19695
192 7 9.21354 7.73498 6.9855
193 8 0.928325 7.34902 6.12575
194 8 8.3635 7.9215 7.76975
195 7 0.96521 8.28637 9.49018
196 8 0.949574 7.26023 9.04938
197 8 0.73416 9.36373 9.94885
198 7 7.75482 10.3528 8.56867
199 8 8.25329 11.0905 7.85549
200 8 7.49571 9.49141 9.21084
201 7 6.15981 14.6209 12.4981
202 8 6.08899 15.5276 13.2685
203 8 6.17893 14.0482 11.5186
204 7 7.03641 13.5659 14.6578
205 8 7.87097 13.9353 13.8802
206 8 6.49352 12.8859 15.4813
207 7 6.17415 4.45175 13.2835
208 8 5.57374 4.78257 12.2928
209 8 6.77727 3.99334 14.137
210 7 8.93498 4.24691 12.7172
211 8 9.19369 4.81314 13.7251
212 8 8.70246 3.37244 11.9977
213 7 3.63113 4.58702 5.39786
214 8 2.95361 3.86423 5.91398
215 8 4.19676 5.4735 4.8326
216 7 4.29839 2.29625 2.74853
217 8 4.33724 1.77348 1.74273
218 8 4.26012 2.6332 3.86993
219 7 2.27397 13.5327 4.60883
220 8 2.05492 13.5842 5.73106
221 8 2.6553 13.5337 3.50465
222 7 3.76946 15.6494 4.82541
223 8 4.74512 14.9915 4.76521
224 8 2.77983 16.3178 4.76985
ITEM: TIMESTEP
48
ITEM: NUMBER OF ATOMS
224
ITEM: BOX BOUNDS xy xz yz pp pp pp
-5.2127883061434233e-02 9.6036846467463555e+00 0.0000000000000000e+00
-1.1337512613272160e-01 1.9500374226132738e+01 6.3775656368492384e-01
-9.9783303448019112e-02 1.7162598403448001e+01 0.0000000000000000e+00
ITEM: ATOMS id type x y z
1 1 8.74701 0.421569 3.66051
2 1 4.98929 9.18645 4.7397
3 1 7.08772 5.35991 0.375833
4 1 6.62987 4.24161 8.03129
5 2 7.75073 8.63128 3.09635
6 2 6.11356 1.00785 5.37337
7 2 8.13116 3.6596 1.01624
8 2 5.56887 5.88168 7.32736
9 2 6.50392 8.20686 3.53164
10 2 7.40563 1.41313 4.86971
11 2 0.407903 3.35716 0.653573
12 2 4.33981 6.26765 7.86047
13 2 7.12828 6.79032 1.90229
14 2 6.61131 2.73007 6.65941
15 2 8.77198 1.86486 2.30053
16 2 4.82301 7.63818 5.92383
17 5 1.08662 0.675361 5.20735
18 5 3.67958 8.96825 3.2383
19 5 1.51632 5.49217 7.49927
20 5 3.14737 4.08455 0.978328
21 5 3.1739 0.212973 5.71045
22 5 1.54562 9.41218 2.72409
23 5 8.56562 4.99733 7.08526
24 5 5.21993 4.52247 1.41127
25 3 8.11366 7.70495 2.16503
26 3 5.613 1.82326 6.3795
27 3 7.76584 2.81516 2.02541
28 3 5.93163 6.76287 6.341
29 3 6.1949 7.08956 2.81937
30 3 7.57647 2.39063 5.73155
31 3 0.720622 2.29706 1.44064
32 3 3.91677 7.33851 6.95851
33 6 2.20261 0.269069 4.96106
34 6 2.53005 9.32642 3.49271
35 6 0.463793 5.09051 7.81839
36 6 4.26972 4.45013 0.636718
37 4 0.0736877 7.5159 1.83679
38 4 4.63355 1.79211 6.84937
39 4 6.71805 2.75552 2.39986
40 4 6.99961 6.88088 6.06544
41 4 5.16488 6.74093 2.70886
42 4 8.59916 2.69631 5.89666
43 4 1.70046 1.79048 1.35766
44 4 3.02578 7.89661 6.95578
45 1 4.55039 0.436841 12.328
46 1 0.859717 9.15284 13.3374
47 1 2.96611 5.26814 9.0225
48 1 2.43636 4.2367 16.6355
49 2 3.57865 8.41394 11.9796
50 2 1.72843 0.973738 13.8217
51 2 3.99454 3.76768 9.72648
52 2 1.47268 5.94139 16.0636
53 2 2.14764 8.20499 12.0059
54 2 3.12569 1.19735 13.6759
55 2 5.30357 3.34942 9.26689
56 2 9.18342 6.33104 16.4781
57 2 3.00984 6.71399 10.5653
58 2 2.42631 2.83736 15.3083
59 2 4.49728 1.78204 10.8511
60 2 0.788904 7.61784 14.6653
61 5 5.81553 0.563989 13.8063
62 5 8.48554 9.11601 12.0748
63 5 6.32317 5.59766 16.2592
64 5 8.09343 3.94689 9.51665
65 5 7.89899 0.223924 14.3033
66 5 6.31446 9.47554 11.4019
67 5 4.26218 5.05459 15.7232
68 5 1.09481 4.53282 10.0376
69 3 4.17389 7.25847 11.3237
70 3 1.46383 1.88021 14.885
71 3 3.53794 2.77531 10.6015
72 3 1.84663 6.86882 15.0993
73 3 1.94691 7.04027 11.3957
74 3 3.35988 2.40956 14.3653
75 3 5.5559 2.23256 10.0317
76 3 8.82989 7.31612 15.5948
77 6 6.96022 0.236146 13.5415
78 6 7.25411 9.26911 12.2443
79 6 5.20645 5.21732 16.4662
80 6 9.18171 4.42778 9.26384
81 4 4.85706 7.57468 10.5313
82 4 9.50708 1.87923 15.3724
83 4 2.74117 2.95799 11.2648
84 4 2.59685 6.66105 14.3569
85 4 0.922919 6.67623 11.3259
86 4 4.4504 2.69053 14.4939
87 4 6.49862 1.73031 9.91131
88 4 7.79945 7.82109 15.6334
89 1 8.69269 10.2262 3.70687
90 1 5.04173 18.9566 4.71235
91 1 7.12007 15.117 0.448865
92 1 6.63555 14.0405 8.03004
93 2 7.76996 18.4416 3.12458
94 2 5.8695 11.1881 5.08038
95 2 8.12067 13.4472 0.946731
96 2 5.57318 15.7032 7.33779
97 2 6.40669 18.1427 3.40843
98 2 7.33781 11.3021 4.87487
99 2 0.40896 13.0842 0.638254
100 2 4.34881 16.2168 7.80313
101 2 7.15025 16.6277 1.77123
102 2 6.63419 12.6566 6.53134
103 2 8.61725 11.6951 2.36249
104 2 5.02755 17.5128 6.14939
105 5 1.15203 10.4758 5.12472
106 5 3.6353 18.8896 3.21351
107 5 1.50753 15.3642 7.58971
108 5 3.23127 13.9133 0.877271
109 5 3.1239 10.034 5.81383
110 5 1.52006 19.163 2.6751
111 5 8.43972 14.9042 7.03424
112 5 5.24704 14.3222 1.41766
113 3 8.10907 17.5412 2.1126
114 3 5.6804 11.7118 6.3042
115 3 7.72621 12.6235 2.03007
116 3 5.98562 16.5648 6.46419
117 3 6.18308 16.9278 2.6975
118 3 7.70142 12.3259 5.68006
119 3 0.600028 12.0109 1.49875
120 3 3.98543 17.1902 6.93798
121 6 2.26664 10.0925 4.93896
122 6 2.49699 19.2565 3.42894
123 6 0.38157 15.006 7.8235
124 6 4.32467 14.3248 0.65144
125 4 0.109407 17.2995 1.86079
126 4 4.60655 11.9811 6.50729
127 4 6.76166 12.5287 2.46134
128 4 6.99527 16.4719 5.9345
129 4 5.22195 16.41 2.70112
130 4 8.54852 12.8422 5.61945
131 4 1.41621 11.3801 1.37816
132 4 3.19038 17.8572 7.12521
133 1 4.46921 10.2107 12.295
134 1 0.832047 18.9258 13.4118
135 1 2.89294 15.0659 9.08345
136 1 2.40202 14.0624 16.6162
137 2 3.42634 18.4167 11.7729
138 2 1.87433 10.7384 13.9697
139 2 3.92229 13.4503 9.63867
140 2 1.46535 15.6597 16.0112
141 2 2.08843 18.1017 12.1171
142 2 3.16367 11.1131 13.6128
143 2 5.16415 13.0903 9.23933
144 2 9.2086 16.0351 16.4606
145 2 2.98783 16.5647 10.4144
146 2 2.40002 12.5955 15.2072
147 2 4.66543 11.8308 11.0195
148 2 0.766652 17.5218 14.8253
149 5 5.98516 10.3534 13.8134
150 5 8.52276 18.8336 11.8597
151 5 6.30903 15.4548 16.2448
152 5 8.1239 13.897 9.44244
153 5 8.02476 10.0408 14.2982
154 5 6.37118 19.1094 11.3669
155 5 4.37044 15.0052 15.7103
156 5 1.17246 14.2793 10.0361
157 3 3.99201 17.412 10.8334
158 3 1.52716 11.6304 14.9887
159 3 3.66252 12.6686 10.6694
160 3 1.70174 16.5715 15.0866
161 3 1.89965 17.0064 11.2472
162 3 3.41979 12.1822 14.4251
163 3 5.45893 12.0325 10.0005
164 3 8.88611 17.1267 15.6998
165 6 7.04701 9.89765 13.5951
166 6 7.33366 19.093 12.1344
167 6 5.24828 14.9707 16.4916
168 6 9.19277 14.4331 9.27713
169 4 4.9652 17.406 10.2866
170 4 0.630521 11.6705 15.5624
171 4 3.02094 12.9445 11.4307
172 4 2.74184 16.6916 14.7315
173 4 1.04581 16.3457 11.4499
174 4 4.20701 12.8406 14.1941
175 4 6.48061 11.5758 9.97617
176 4 7.95478 17.5619 15.7098
177 7 3.02192 9.73493 9.80224
178 8 3.1799 9.08872 8.77717
179 8 2.46173 10.4046 10.5992
180 7 9.12368 11.649 10.6142
181 8 8.36028 11.553 11.5092
182 8 0.732739 11.8816 9.68732
183 7 7.25256 6.69082 9.99648
184 8 7.34777 6.26053 8.9822
185 8 7.12606 7.16803 10.9616
186 7 1.81117 10.5628 7.94026
187 8 1.04007 9.80588 7.56671
188 8 2.60276 11.3113 8.36596
189 7 6.3288 9.15118 7.27506
190 8 7.09544 8.97054 6.36841
191 8 5.68902 8.90491 8.20112
192 7 9.21699 7.73395 6.98379
193 8 0.926272 7.34738 6.12262
194 8 8.36629 7.91912 7.7671
195 7 0.963932 8.28598 9.48884
196 8 0.944522 7.26264 9.04878
197 8 0.734002 9.36329 9.94906
198 7 7.75618 10.3531 8.57039
199 8 8.25753 11.0915 7.85787
200 8 7.49701 9.48944 9.21027
201 7 6.16049 14.6241 12.5003
202 8 6.09051 15.533 13.2682
203 8 6.17877 14.0514 11.5207
204 7 7.03864 13.5669 14.6587
205 8 7.87376 13.9365 13.882
206 8 6.4982 12.8829 15.4805
207 7 6.17459 4.44997 13.2869
208 8 5.57341 4.78112 12.2947
209 8 6.77814 3.99003 14.139
210 7 8.93689 4.2462 12.7179
211 8 9.19674 4.81241 13.7275
212 8 8.70308 3.36899 12.0014
213 7 3.62856 4.58359 5.39673
214 8 2.94955 3.86091 5.91455
215 8 4.19389 5.47051 4.82813
216 7 4.29944 2.29355 2.74593
217 8 4.33935 1.76822 1.73844
218 8 4.26045 2.62981 3.86981
219 7 2.27293 13.5318 4.60721
220 8 2.0552 13.5839 5.73081
221 8 2.65553 13.5331 3.50214
222 7 3.76834 15.6512 4.82245
223 8 4.74176 14.9894 4.75906
224 8 2.77944 16.3224 4.76784
ITEM: TIMESTEP
49
ITEM: NUMBER OF ATOMS
224
ITEM: BOX BOUNDS xy xz yz pp pp pp
-5.3899144670764620e-02 9.6057064354585560e+00 0.0000000000000000e+00
-1.1722751753206673e-01 1.9504226617532083e+01 6.3800709078779327e-01
-1.0317385614783525e-01 1.7165988956147817e+01 0.0000000000000000e+00
ITEM: ATOMS id type x y z
1 1 8.74964 0.417636 3.65805
2 1 4.98848 9.18724 4.73805
3 1 7.08786 5.3585 0.3717
4 1 6.63127 4.23949 8.03166
5 2 7.75326 8.63241 3.0948
6 2 6.11743 1.00329 5.37112
7 2 8.13192 3.65827 1.01289
8 2 5.56735 5.87834 7.32479
9 2 6.50489 8.206 3.53107
10 2 7.4054 1.40943 4.86752
11 2 0.407658 3.35527 0.650223
12 2 4.33802 6.26867 7.85963
13 2 7.13026 6.78689 1.89965
14 2 6.61053 2.72738 6.66102
15 2 8.77315 1.86057 2.29903
16 2 4.81938 7.63623 5.91808
17 5 1.08718 0.672198 5.20683
18 5 3.67803 8.96884 3.23589
19 5 1.51467 5.48717 7.49722
20 5 3.14781 4.08394 0.977117
21 5 3.17301 0.20944 5.70957
22 5 1.54615 9.41268 2.72285
23 5 8.56832 4.99278 7.08395
24 5 5.21828 4.52165 1.4081
25 3 8.11454 7.70392 2.16364
26 3 5.61489 1.82045 6.37956
27 3 7.76925 2.81172 2.02293
28 3 5.92846 6.7612 6.33782
29 3 6.19688 7.08818 2.82055
30 3 7.57879 2.3879 5.72947
31 3 0.719696 2.2946 1.43799
32 3 3.91624 7.33415 6.95722
33 6 2.19909 0.265954 4.95619
34 6 2.53086 9.32568 3.49166
35 6 0.466073 5.08608 7.82125
36 6 4.26762 4.44844 0.632403
37 4 0.0745723 7.50815 1.83665
38 4 4.63551 1.79186 6.85154
39 4 6.72488 2.74311 2.39879
40 4 6.99253 6.87509 6.06098
41 4 5.16858 6.74092 2.70624
42 4 8.59837 2.69658 5.90498
43 4 1.69747 1.79 1.35271
44 4 3.02051 7.89248 6.94897
45 1 4.55112 0.43306 12.3297
46 1 0.858397 9.15286 13.3385
47 1 2.96598 5.26491 9.02204
48 1 2.43596 4.23464 16.6389
49 2 3.57981 8.40746 11.9871
50 2 1.72696 0.969826 13.8215
51 2 3.99762 3.76687 9.72717
52 2 1.47133 5.93998 16.0677
53 2 2.14622 8.20457 12.008
54 2 3.12414 1.19152 13.6792
55 2 5.30342 3.34912 9.26653
56 2 9.18606 6.33076 16.4819
57 2 3.01438 6.70934 10.5712
58 2 2.42496 2.83486 15.311
59 2 4.49746 1.77755 10.8498
60 2 0.786259 7.61759 14.6653
61 5 5.81493 0.558837 13.8084
62 5 8.48521 9.11882 12.0806
63 5 6.32238 5.5978 16.2626
64 5 8.09822 3.94206 9.51739
65 5 7.89683 0.220738 14.3041
66 5 6.31524 9.47825 11.4069
67 5 4.26238 5.05198 15.7263
68 5 1.09321 4.53216 10.0378
69 3 4.17612 7.24746 11.3347
70 3 1.46342 1.87881 14.8873
71 3 3.53869 2.77044 10.6022
72 3 1.8458 6.87041 15.102
73 3 1.94762 7.03525 11.4003
74 3 3.35844 2.40625 14.3677
75 3 5.55507 2.22692 10.0342
76 3 8.83143 7.31483 15.5976
77 6 6.96072 0.232361 13.5425
78 6 7.2541 9.26705 12.2484
79 6 5.20596 5.21578 16.4746
80 6 9.18375 4.42418 9.26274
81 4 4.85445 7.56866 10.5527
82 4 9.50889 1.87768 15.3703
83 4 2.74162 2.9569 11.2694
84 4 2.59395 6.65412 14.3603
85 4 0.92335 6.67747 11.3281
86 4 4.44358 2.68271 14.501
87 4 6.50187 1.7293 9.9041
88 4 7.80805 7.81942 15.631
89 1 8.69417 10.2261 3.70534
90 1 5.04198 18.9604 4.71021
91 1 7.12086 15.1185 0.446034
92 1 6.63692 14.0422 8.03033
93 2 7.7715 18.4465 3.12345
94 2 5.86909 11.1956 5.07168
95 2 8.12114 13.4486 0.943116
96 2 5.57166 15.704 7.33834
97 2 6.40714 18.1476 3.40545
98 2 7.3376 11.3057 4.87133
99 2 0.407975 13.0845 0.634903
100 2 4.34889 16.221 7.80345
101 2 7.15157 16.63 1.76836
102 2 6.63487 12.6617 6.52923
103 2 8.61738 11.6938 2.36206
104 2 5.02927 17.5187 6.14729
105 5 1.15266 10.4772 5.1217
106 5 3.63513 18.8956 3.20987
107 5 1.50379 15.3667 7.5901
108 5 3.23174 13.9161 0.874671
109 5 3.12139 10.0343 5.81311
110 5 1.52068 19.1664 2.67327
111 5 8.44265 14.9058 7.0354
112 5 5.24581 14.3249 1.41469
113 3 8.11025 17.5437 2.10912
114 3 5.68054 11.7152 6.30285
115 3 7.72795 12.6244 2.02783
116 3 5.98694 16.5697 6.46376
117 3 6.18654 16.93 2.69399
118 3 7.70167 12.3294 5.67645
119 3 0.596475 12.0117 1.49642
120 3 3.98487 17.1942 6.93813
121 6 2.26675 10.0935 4.93634
122 6 2.49317 19.2631 3.42807
123 6 0.380797 15.0108 7.82192
124 6 4.32591 14.3283 0.647678
125 4 0.109526 17.3015 1.86641
126 4 4.61289 11.995 6.50449
127 4 6.75732 12.5341 2.45141
128 4 6.98889 16.4822 5.93022
129 4 5.22065 16.4217 2.70491
130 4 8.5581 12.8501 5.61416
131 4 1.41277 11.3751 1.37499
132 4 3.19259 17.8684 7.12688
133 1 4.4685 10.2102 12.2962
134 1 0.830112 18.9291 13.4144
135 1 2.89135 15.0664 9.08407
136 1 2.40104 14.0644 16.6191
137 2 3.42583 18.4203 11.7738
138 2 1.87363 10.7368 13.9723
139 2 3.92115 13.4535 9.63858
140 2 1.46289 15.6593 16.0162
141 2 2.08496 18.1052 12.1183
142 2 3.16413 11.1128 13.615
143 2 5.1649 13.0909 9.23719
144 2 9.21183 16.0363 16.4644
145 2 2.98756 16.5657 10.4149
146 2 2.39917 12.5991 15.2106
147 2 4.66873 11.8327 11.0238
148 2 0.765317 17.5261 14.8281
149 5 5.98744 10.352 13.8157
150 5 8.52345 18.8393 11.8608
151 5 6.30855 15.4601 16.2491
152 5 8.12926 13.9005 9.44165
153 5 8.02548 10.0414 14.2986
154 5 6.37365 19.1116 11.3695
155 5 4.37221 15.0089 15.7141
156 5 1.17149 14.283 10.0353
157 3 3.99071 17.4135 10.8368
158 3 1.52745 11.6303 14.9918
159 3 3.66496 12.6713 10.6719
160 3 1.69928 16.5767 15.0871
161 3 1.89913 17.0107 11.2474
162 3 3.41922 12.181 14.4269
163 3 5.45824 12.0317 9.99899
164 3 8.88799 17.1298 15.7041
165 6 7.04778 9.89582 13.5988
166 6 7.33493 19.0951 12.1357
167 6 5.24788 14.9748 16.4979
168 6 9.19362 14.4376 9.27936
169 4 4.96417 17.4131 10.2962
170 4 0.62716 11.6653 15.5613
171 4 3.02699 12.9551 11.4385
172 4 2.73801 16.698 14.7373
173 4 1.05026 16.3467 11.4485
174 4 4.20347 12.8506 14.1953
175 4 6.47851 11.5813 9.97581
176 4 7.95007 17.5635 15.7185
177 7 3.02 9.73928 9.79872
178 8 3.17665 9.0983 8.77009
179 8 2.45721 10.4036 10.5986
180 7 9.12589 11.6495 10.6141
181 8 8.36234 11.5597 11.5105
182 8 0.730695 11.878 9.68721
183 7 7.25379 6.68928 9.99622
184 8 7.34851 6.25979 8.98024
185 8 7.12587 7.16515 10.9645
186 7 1.81058 10.5636 7.94007
187 8 1.03906 9.8052 7.56932
188 8 2.60391 11.3131 8.3634
189 7 6.33077 9.15423 7.27624
190 8 7.10078 8.96461 6.36854
191 8 5.68848 8.91013 8.20529
192 7 9.22046 7.73289 6.98202
193 8 0.924163 7.34581 6.11948
194 8 8.36913 7.91673 7.7644
195 7 0.962563 8.28581 9.48758
196 8 0.9395 7.26498 9.04819
197 8 0.733834 9.36276 9.94923
198 7 7.75765 10.3535 8.57203
199 8 8.26176 11.0927 7.86026
200 8 7.4983 9.48738 9.2098
201 7 6.16115 14.6275 12.5024
202 8 6.09201 15.5384 13.2679
203 8 6.17865 14.0545 11.5228
204 7 7.04097 13.5677 14.6596
205 8 7.87651 13.9376 13.8838
206 8 6.50292 12.8799 15.4796
207 7 6.17495 4.4482 13.2903
208 8 5.57312 4.77965 12.2967
209 8 6.77902 3.98669 14.1411
210 7 8.93884 4.24545 12.7186
211 8 9.19979 4.81168 13.7298
212 8 8.7037 3.36551 12.0052
213 7 3.62608 4.58033 5.39548
214 8 2.94543 3.85749 5.91516
215 8 4.19099 5.46741 4.82365
216 7 4.30049 2.29082 2.74343
217 8 4.34146 1.76292 1.73407
218 8 4.26079 2.62641 3.86965
219 7 2.27192 13.5309 4.60551
220 8 2.05546 13.5836 5.73057
221 8 2.65573 13.5325 3.49963
222 7 3.76719 15.6531 4.81944
223 8 4.73836 14.9873 4.7529
224 8 2.77908 16.327 4.76581
ITEM: TIMESTEP
50
ITEM: NUMBER OF ATOMS
224
ITEM: BOX BOUNDS xy xz yz pp pp pp
-5.5681379317262802e-02 9.6077407492334377e+00 0.0000000000000000e+00
-1.2110377465163324e-01 1.9508102874651648e+01 6.3825916991617759e-01
-1.0658541345848782e-01 1.7169400513458470e+01 0.0000000000000000e+00
ITEM: ATOMS id type x y z
1 1 8.75228 0.413686 3.65559
2 1 4.98768 9.18804 4.73639
3 1 7.08801 5.35707 0.367556
4 1 6.63268 4.23736 8.03204
5 2 7.7558 8.63351 3.09326
6 2 6.1213 0.998669 5.36883
7 2 8.13269 3.65696 1.00952
8 2 5.56579 5.87496 7.32223
9 2 6.50584 8.20515 3.53046
10 2 7.40507 1.40565 4.8654
11 2 0.407403 3.35336 0.646876
12 2 4.33618 6.26974 7.85867
13 2 7.13227 6.78342 1.89698
14 2 6.60973 2.72468 6.66261
15 2 8.77427 1.85628 2.29751
16 2 4.81585 7.63425 5.91245
17 5 1.08773 0.669014 5.20632
18 5 3.67645 8.96942 3.23346
19 5 1.51309 5.48211 7.49518
20 5 3.14825 4.08332 0.975862
21 5 3.17211 0.205889 5.70869
22 5 1.54671 9.41316 2.72161
23 5 8.57099 4.98821 7.08259
24 5 5.21662 4.52081 1.4049
25 3 8.11536 7.70287 2.16224
26 3 5.61688 1.81764 6.37957
27 3 7.77271 2.80822 2.02045
28 3 5.92518 6.75952 6.33462
29 3 6.19885 7.08682 2.82169
30 3 7.58115 2.38523 5.72742
31 3 0.718781 2.2921 1.43533
32 3 3.91581 7.3297 6.95589
33 6 2.19564 0.262756 4.95122
34 6 2.5316 9.325 3.49066
35 6 0.468253 5.08151 7.82417
36 6 4.26558 4.44678 0.628048
37 4 0.0758647 7.50051 1.83643
38 4 4.63747 1.79151 6.85368
39 4 6.73204 2.73065 2.39759
40 4 6.98511 6.86874 6.05622
41 4 5.17232 6.74091 2.7037
42 4 8.59763 2.69699 5.91325
43 4 1.69428 1.78955 1.34776
44 4 3.01491 7.88814 6.94229
45 1 4.55185 0.429252 12.3314
46 1 0.857061 9.15288 13.3396
47 1 2.96584 5.26168 9.02159
48 1 2.43557 4.23257 16.6422
49 2 3.58094 8.40088 11.9946
50 2 1.72557 0.965938 13.8214
51 2 4.00075 3.76599 9.72785
52 2 1.46992 5.93858 16.0717
53 2 2.1449 8.20412 12.0102
54 2 3.12252 1.18575 13.6826
55 2 5.30318 3.34879 9.26622
56 2 9.18873 6.33046 16.4856
57 2 3.01901 6.70465 10.5773
58 2 2.42359 2.83228 15.3137
59 2 4.49765 1.77309 10.8486
60 2 0.783607 7.61737 14.6653
61 5 5.81436 0.553662 13.8104
62 5 8.48484 9.1216 12.0863
63 5 6.32161 5.59796 16.2659
64 5 8.10302 3.9372 9.51813
65 5 7.8947 0.217537 14.3049
66 5 6.31605 9.48096 11.4118
67 5 4.26258 5.04937 15.7295
68 5 1.09162 4.53148 10.038
69 3 4.17813 7.23658 11.3455
70 3 1.463 1.8774 14.8896
71 3 3.53952 2.76556 10.6028
72 3 1.84492 6.87196 15.1047
73 3 1.94835 7.03022 11.4048
74 3 3.35705 2.4029 14.3702
75 3 5.55421 2.22129 10.0367
76 3 8.83297 7.31356 15.6005
77 6 6.96128 0.228497 13.5434
78 6 7.25409 9.26506 12.2525
79 6 5.20538 5.21415 16.4831
80 6 9.18587 4.42059 9.26159
81 4 4.8521 7.56255 10.5743
82 4 9.51069 1.87616 15.3682
83 4 2.74176 2.95577 11.2742
84 4 2.59125 6.64703 14.3637
85 4 0.923813 6.67863 11.3301
86 4 4.43628 2.67484 14.5081
87 4 6.50513 1.72802 9.89695
88 4 7.81721 7.81749 15.6287
89 1 8.69566 10.2259 3.70379
90 1 5.04223 18.9643 4.70807
91 1 7.12166 15.12 0.44318
92 1 6.63829 14.0438 8.03061
93 2 7.773 18.4514 3.12229
94 2 5.86885 11.2029 5.06299
95 2 8.12162 13.4499 0.939548
96 2 5.57011 15.7047 7.33895
97 2 6.40765 18.1524 3.40242
98 2 7.33729 11.3094 4.86779
99 2 0.406945 13.0848 0.631563
100 2 4.34895 16.2252 7.80376
101 2 7.1529 16.6323 1.76551
102 2 6.63558 12.6669 6.52711
103 2 8.61754 11.6925 2.3616
104 2 5.03102 17.5247 6.14517
105 5 1.15324 10.4787 5.1187
106 5 3.63495 18.9016 3.20618
107 5 1.50006 15.3691 7.59046
108 5 3.23217 13.9188 0.872064
109 5 3.11891 10.0346 5.81235
110 5 1.52131 19.1698 2.67143
111 5 8.44561 14.9074 7.03658
112 5 5.2446 14.3275 1.41172
113 3 8.11141 17.5462 2.10563
114 3 5.68062 11.7188 6.30143
115 3 7.72972 12.6254 2.02553
116 3 5.98832 16.5747 6.46327
117 3 6.19001 16.9323 2.69049
118 3 7.70178 12.3329 5.67285
119 3 0.592906 12.0125 1.49407
120 3 3.98437 17.1981 6.93832
121 6 2.26689 10.0945 4.93363
122 6 2.48932 19.2699 3.42729
123 6 0.379959 15.0156 7.82039
124 6 4.32718 14.3317 0.643828
125 4 0.109772 17.3035 1.87201
126 4 4.61963 12.0088 6.50176
127 4 6.75262 12.5398 2.44138
128 4 6.98197 16.4927 5.92618
129 4 5.21939 16.4336 2.7086
130 4 8.56849 12.8584 5.60874
131 4 1.40975 11.3699 1.37172
132 4 3.19456 17.8798 7.12872
133 1 4.4678 10.2097 12.2974
134 1 0.828159 18.9323 13.4169
135 1 2.88976 15.0669 9.08468
136 1 2.40007 14.0665 16.6219
137 2 3.42535 18.4238 11.7748
138 2 1.87294 10.7354 13.9749
139 2 3.92002 13.4567 9.63849
140 2 1.46035 15.6588 16.0212
141 2 2.08159 18.1086 12.1194
142 2 3.16456 11.1125 13.6172
143 2 5.16568 13.0914 9.23504
144 2 9.21507 16.0376 16.4682
145 2 2.98725 16.5667 10.4156
146 2 2.39834 12.6028 15.214
147 2 4.67199 11.8344 11.0281
148 2 0.764014 17.5303 14.831
149 5 5.98966 10.3506 13.8179
150 5 8.52411 18.845 11.8619
151 5 6.30811 15.4655 16.2533
152 5 8.1346 13.9039 9.44089
153 5 8.02623 10.042 14.2991
154 5 6.37614 19.1137 11.372
155 5 4.37391 15.0127 15.7179
156 5 1.17047 14.2867 10.0346
157 3 3.98931 17.4151 10.8403
158 3 1.52774 11.6302 14.9948
159 3 3.66743 12.674 10.6744
160 3 1.69689 16.582 15.0876
161 3 1.89864 17.0149 11.2476
162 3 3.41864 12.1798 14.4287
163 3 5.45763 12.0308 9.99747
164 3 8.88989 17.1329 15.7085
165 6 7.04859 9.89397 13.6025
166 6 7.33617 19.0973 12.1371
167 6 5.24747 14.9789 16.5043
168 6 9.19453 14.4421 9.28159
169 4 4.96294 17.4204 10.306
170 4 0.623426 11.6599 15.5602
171 4 3.03252 12.9659 11.4465
172 4 2.73398 16.7043 14.7432
173 4 1.05475 16.3478 11.4471
174 4 4.2002 12.8608 14.1965
175 4 6.476 11.5871 9.97548
176 4 7.9448 17.5654 15.7274
177 7 3.01801 9.7436 9.79512
178 8 3.17344 9.10791 8.76319
179 8 2.45278 10.4026 10.5979
180 7 9.12803 11.6501 10.6141
181 8 8.36445 11.5665 11.5118
182 8 0.728667 11.8743 9.68709
183 7 7.25503 6.6877 9.99585
184 8 7.34926 6.25901 8.97819
185 8 7.12567 7.16229 10.9677
186 7 1.81005 10.5645 7.9399
187 8 1.03804 9.8045 7.57191
188 8 2.60504 11.3149 8.36077
189 7 6.33282 9.15718 7.27732
190 8 7.10605 8.95882 6.36871
191 8 5.6879 8.91539 8.20946
192 7 9.22393 7.73177 6.9802
193 8 0.921998 7.3443 6.11634
194 8 8.37201 7.91432 7.76164
195 7 0.961104 8.28587 9.48639
196 8 0.93451 7.26723 9.0476
197 8 0.733654 9.36214 9.94938
198 7 7.75925 10.3539 8.57361
199 8 8.26597 11.0939 7.86263
200 8 7.49955 9.48526 9.20945
201 7 6.16179 14.6311 12.5047
202 8 6.09351 15.5437 13.2675
203 8 6.17855 14.0575 11.5249
204 7 7.04341 13.5685 14.6606
205 8 7.87921 13.9387 13.8858
206 8 6.50765 12.8769 15.4786
207 7 6.17522 4.44644 13.2935
208 8 5.57288 4.77814 12.2987
209 8 6.77993 3.98333 14.1432
210 7 8.94084 4.24466 12.7196
211 8 9.20285 4.81093 13.7321
212 8 8.70432 3.36203 12.0089
213 7 3.62369 4.57724 5.39411
214 8 2.94128 3.85398 5.91582
215 8 4.18805 5.4642 4.81916
216 7 4.30152 2.28807 2.74103
217 8 4.34358 1.75758 1.72964
218 8 4.26111 2.62301 3.86943
219 7 2.27096 13.53 4.60374
220 8 2.0557 13.5833 5.73035
221 8 2.65589 13.5319 3.49714
222 7 3.766 15.655 4.81638
223 8 4.73491 14.9852 4.74672
224 8 2.77877 16.3316 4.76376
ITEM: TIMESTEP
51
ITEM: NUMBER OF ATOMS
224
ITEM: BOX BOUNDS xy xz yz pp pp pp
-5.7473577804064924e-02 9.6097864361334153e+00 0.0000000000000000e+00
-1.2500170254670273e-01 1.9512000802546716e+01 6.3851265832935178e-01
-1.1001604357321604e-01 1.7172831143573198e+01 0.0000000000000000e+00
ITEM: ATOMS id type x y z
1 1 8.75493 0.40972 3.65311
2 1 4.98687 9.18883 4.73472
3 1 7.08816 5.35564 0.363404
4 1 6.6341 4.23522 8.03241
5 2 7.75834 8.63459 3.09172
6 2 6.12517 0.994 5.36651
7 2 8.13346 3.65568 1.00613
8 2 5.56418 5.87157 7.31965
9 2 6.50676 8.20431 3.52982
10 2 7.40465 1.4018 4.86335
11 2 0.407136 3.35141 0.643535
12 2 4.33431 6.27086 7.85759
13 2 7.13432 6.77993 1.89429
14 2 6.60892 2.72197 6.6642
15 2 8.77535 1.852 2.29596
16 2 4.81241 7.63225 5.90693
17 5 1.08826 0.66581 5.20581
18 5 3.67487 8.97 3.231
19 5 1.51159 5.477 7.49314
20 5 3.14868 4.0827 0.974567
21 5 3.17119 0.202323 5.70778
22 5 1.5473 9.41363 2.72036
23 5 8.57364 4.98363 7.08117
24 5 5.21497 4.51996 1.40167
25 3 8.11615 7.7018 2.16081
26 3 5.61896 1.81484 6.37953
27 3 7.77621 2.80467 2.01795
28 3 5.92178 6.75784 6.3314
29 3 6.20081 7.08546 2.82279
30 3 7.58356 2.3826 5.72542
31 3 0.717874 2.28956 1.43267
32 3 3.91547 7.32518 6.95451
33 6 2.19226 0.259478 4.94615
34 6 2.53228 9.32439 3.48972
35 6 0.47032 5.07681 7.82713
36 6 4.26361 4.44517 0.62366
37 4 0.0775194 7.49301 1.83616
38 4 4.63945 1.79108 6.85578
39 4 6.7395 2.71818 2.39627
40 4 6.9774 6.86185 6.05115
41 4 5.17608 6.74088 2.70127
42 4 8.59698 2.69751 5.92142
43 4 1.6909 1.78913 1.34279
44 4 3.00903 7.88355 6.93578
45 1 4.55257 0.425418 12.3331
46 1 0.855709 9.1529 13.3408
47 1 2.96569 5.25843 9.02115
48 1 2.43516 4.23049 16.6456
49 2 3.58202 8.3942 12.0021
50 2 1.72426 0.962077 13.8214
51 2 4.00392 3.76504 9.7285
52 2 1.46845 5.93718 16.0757
53 2 2.14369 8.20366 12.0125
54 2 3.12085 1.18004 13.6859
55 2 5.30287 3.34843 9.26597
56 2 9.19143 6.33012 16.4893
57 2 3.02372 6.69992 10.5835
58 2 2.4222 2.82959 15.3163
59 2 4.49785 1.76865 10.8473
60 2 0.78095 7.61718 14.6654
61 5 5.81379 0.548466 13.8125
62 5 8.48443 9.12435 12.0919
63 5 6.32086 5.59812 16.2693
64 5 8.10782 3.93231 9.51887
65 5 7.89261 0.214324 14.3058
66 5 6.31691 9.48366 11.4168
67 5 4.26279 5.04677 15.7326
68 5 1.09003 4.53078 10.0382
69 3 4.17992 7.22584 11.3562
70 3 1.46257 1.87596 14.892
71 3 3.54043 2.76068 10.6034
72 3 1.844 6.87347 15.1074
73 3 1.94912 7.02518 11.4094
74 3 3.35572 2.39951 14.3727
75 3 5.55331 2.21568 10.0393
76 3 8.83452 7.31231 15.6034
77 6 6.96189 0.224556 13.5443
78 6 7.25408 9.26313 12.2566
79 6 5.20471 5.21241 16.4918
80 6 9.1881 4.41701 9.26041
81 4 4.8501 7.55636 10.596
82 4 9.51247 1.87469 15.366
83 4 2.74162 2.9546 11.2791
84 4 2.58876 6.63982 14.3672
85 4 0.924296 6.6797 11.3319
86 4 4.42856 2.66693 14.5152
87 4 6.50836 1.72647 9.8899
88 4 7.82686 7.8153 15.6263
89 1 8.69717 10.2258 3.70223
90 1 5.04248 18.9682 4.70591
91 1 7.12247 15.1215 0.440304
92 1 6.63966 14.0455 8.03089
93 2 7.77444 18.4562 3.12109
94 2 5.86878 11.2101 5.05433
95 2 8.1221 13.4513 0.936027
96 2 5.56854 15.7055 7.33962
97 2 6.40822 18.1572 3.39934
98 2 7.33688 11.313 4.86428
99 2 0.405867 13.0851 0.628238
100 2 4.349 16.2293 7.80407
101 2 7.15424 16.6346 1.76268
102 2 6.63631 12.6721 6.52497
103 2 8.61774 11.6912 2.3611
104 2 5.03281 17.5307 6.14304
105 5 1.15379 10.4802 5.11569
106 5 3.63477 18.9076 3.20246
107 5 1.49635 15.3717 7.59079
108 5 3.23257 13.9216 0.869451
109 5 3.11644 10.0349 5.81153
110 5 1.52193 19.1733 2.66959
111 5 8.44861 14.909 7.03777
112 5 5.24343 14.3302 1.40876
113 3 8.11256 17.5487 2.10215
114 3 5.68065 11.7224 6.29996
115 3 7.73151 12.6265 2.02317
116 3 5.98974 16.5798 6.46271
117 3 6.19347 16.9348 2.68698
118 3 7.70176 12.3363 5.66927
119 3 0.589326 12.0134 1.49167
120 3 3.98393 17.2021 6.93853
121 6 2.26708 10.0954 4.93083
122 6 2.48543 19.2766 3.4266
123 6 0.379052 15.0204 7.81891
124 6 4.32847 14.3352 0.639897
125 4 0.110133 17.3056 1.87757
126 4 4.62673 12.0225 6.49909
127 4 6.74761 12.5456 2.43126
128 4 6.97459 16.5031 5.92236
129 4 5.21818 16.4456 2.71219
130 4 8.57956 12.8671 5.6032
131 4 1.40712 11.3645 1.36834
132 4 3.19631 17.8913 7.13073
133 1 4.46711 10.2092 12.2987
134 1 0.826187 18.9356 13.4194
135 1 2.88817 15.0674 9.08529
136 1 2.3991 14.0685 16.6248
137 2 3.42491 18.4272 11.7756
138 2 1.87226 10.7339 13.9776
139 2 3.91891 13.46 9.6384
140 2 1.45774 15.6584 16.0263
141 2 2.0783 18.112 12.1205
142 2 3.16496 11.1122 13.6194
143 2 5.16648 13.092 9.23289
144 2 9.21831 16.039 16.4719
145 2 2.98689 16.5677 10.4163
146 2 2.39753 12.6065 15.2174
147 2 4.67519 11.8362 11.0324
148 2 0.762741 17.5347 14.8338
149 5 5.99183 10.3493 13.8203
150 5 8.52475 18.8507 11.863
151 5 6.30771 15.4708 16.2577
152 5 8.13991 13.9074 9.44017
153 5 8.02702 10.0426 14.2995
154 5 6.37864 19.1159 11.3746
155 5 4.37553 15.0164 15.7217
156 5 1.16941 14.2905 10.0338
157 3 3.98779 17.4167 10.8438
158 3 1.52801 11.6301 14.9978
159 3 3.66991 12.6766 10.6769
160 3 1.69457 16.5873 15.0881
161 3 1.89818 17.0192 11.2478
162 3 3.41805 12.1785 14.4305
163 3 5.45711 12.0299 9.99593
164 3 8.89179 17.136 15.7129
165 6 7.04944 9.8921 13.6063
166 6 7.33739 19.0996 12.1385
167 6 5.24707 14.983 16.5107
168 6 9.19552 14.4466 9.28379
169 4 4.96153 17.4279 10.3161
170 4 0.619339 11.6543 15.559
171 4 3.03758 12.977 11.4548
172 4 2.72979 16.7108 14.749
173 4 1.05925 16.349 11.4456
174 4 4.19716 12.8711 14.1977
175 4 6.47311 11.5932 9.97519
176 4 7.93905 17.5676 15.7363
177 7 3.01594 9.74788 9.79145
178 8 3.17026 9.11753 8.75644
179 8 2.44845 10.4016 10.5973
180 7 9.13008 11.6507 10.6142
181 8 8.36662 11.5733 11.5131
182 8 0.726658 11.8707 9.68698
183 7 7.25631 6.68609 9.99539
184 8 7.35001 6.25821 8.97607
185 8 7.12546 7.15943 10.9711
186 7 1.80956 10.5654 7.93974
187 8 1.03701 9.80377 7.57446
188 8 2.60613 11.3168 8.35807
189 7 6.33495 9.16003 7.2783
190 8 7.11127 8.95317 6.3689
191 8 5.68727 8.92066 8.2136
192 7 9.22741 7.73061 6.97833
193 8 0.919779 7.34286 6.11319
194 8 8.37493 7.9119 7.75883
195 7 0.959559 8.28616 9.48529
196 8 0.929555 7.2694 9.04702
197 8 0.733462 9.36142 9.94949
198 7 7.76098 10.3545 8.57512
199 8 8.27016 11.0951 7.865
200 8 7.50078 9.48306 9.20921
201 7 6.16241 14.6349 12.5069
202 8 6.095 15.549 13.2672
203 8 6.17849 14.0606 11.5269
204 7 7.04593 13.5691 14.6616
205 8 7.88187 13.9398 13.8877
206 8 6.5124 12.8741 15.4776
207 7 6.1754 4.44469 13.2965
208 8 5.57269 4.77662 12.3009
209 8 6.78085 3.97994 14.1453
210 7 8.94289 4.24383 12.7206
211 8 9.20591 4.81018 13.7343
212 8 8.70495 3.35853 12.0126
213 7 3.62138 4.57432 5.39262
214 8 2.93708 3.85037 5.91651
215 8 4.18506 5.46086 4.81466
216 7 4.30255 2.28529 2.73872
217 8 4.3457 1.75221 1.72515
218 8 4.26144 2.6196 3.86916
219 7 2.27003 13.5292 4.6019
220 8 2.05591 13.583 5.73014
221 8 2.65603 13.5313 3.49466
222 7 3.76478 15.6569 4.81327
223 8 4.73142 14.9831 4.74054
224 8 2.77852 16.3361 4.7617
ITEM: TIMESTEP
52
ITEM: NUMBER OF ATOMS
224
ITEM: BOX BOUNDS xy xz yz pp pp pp
-5.9274725584764987e-02 9.6118423381147124e+00 0.0000000000000000e+00
-1.2891909463760953e-01 1.9515918194637624e+01 6.3876741252995173e-01
-1.1346380444515702e-01 1.7176278904445137e+01 0.0000000000000000e+00
ITEM: ATOMS id type x y z
1 1 8.75759 0.405739 3.65062
2 1 4.98607 9.18963 4.73303
3 1 7.08833 5.35419 0.359244
4 1 6.63552 4.23306 8.03278
5 2 7.76087 8.63564 3.0902
6 2 6.12904 0.989284 5.36415
7 2 8.13423 3.65441 1.00272
8 2 5.56253 5.86815 7.31708
9 2 6.50767 8.20348 3.52914
10 2 7.40414 1.39789 4.86136
11 2 0.406853 3.34945 0.640202
12 2 4.3324 6.27202 7.8564
13 2 7.13639 6.7764 1.89157
14 2 6.6081 2.71924 6.66576
15 2 8.77641 1.84774 2.29437
16 2 4.80907 7.63022 5.90154
17 5 1.08877 0.66259 5.20531
18 5 3.67326 8.97057 3.22851
19 5 1.51017 5.47185 7.49112
20 5 3.14912 4.08208 0.973231
21 5 3.17024 0.198743 5.70686
22 5 1.54792 9.41408 2.71912
23 5 8.57626 4.97903 7.0797
24 5 5.21331 4.51909 1.39841
25 3 8.1169 7.70072 2.15936
26 3 5.62114 1.81203 6.37944
27 3 7.77976 2.80105 2.01545
28 3 5.91827 6.75615 6.32815
29 3 6.20277 7.08412 2.82384
30 3 7.586 2.38002 5.72347
31 3 0.716972 2.28698 1.42999
32 3 3.91521 7.32058 6.95309
33 6 2.18897 0.256123 4.941
34 6 2.53289 9.32384 3.48883
35 6 0.472264 5.07198 7.83014
36 6 4.26171 4.44359 0.619248
37 4 0.0794861 7.48564 1.83586
38 4 4.64145 1.79054 6.85783
39 4 6.74721 2.70571 2.39482
40 4 6.96946 6.85443 6.04574
41 4 5.17983 6.74084 2.69895
42 4 8.59643 2.69813 5.92948
43 4 1.68738 1.78871 1.33783
44 4 3.00292 7.87869 6.92946
45 1 4.55329 0.421561 12.3349
46 1 0.854344 9.15291 13.3419
47 1 2.96555 5.25519 9.02071
48 1 2.43476 4.22841 16.649
49 2 3.58306 8.38741 12.0096
50 2 1.72303 0.958247 13.8215
51 2 4.00712 3.76401 9.72915
52 2 1.46693 5.9358 16.0797
53 2 2.14259 8.20316 12.0149
54 2 3.11912 1.17439 13.6892
55 2 5.30247 3.34803 9.26578
56 2 9.19416 6.32976 16.493
57 2 3.02849 6.69517 10.5898
58 2 2.42078 2.82682 15.3189
59 2 4.49807 1.76425 10.8461
60 2 0.778288 7.61703 14.6655
61 5 5.81324 0.543251 13.8146
62 5 8.48399 9.12708 12.0975
63 5 6.32013 5.5983 16.2727
64 5 8.11261 3.92739 9.51961
65 5 7.89055 0.211102 14.3067
66 5 6.31781 9.48636 11.4219
67 5 4.26301 5.04418 15.7356
68 5 1.08843 4.53006 10.0385
69 3 4.18147 7.21524 11.3667
70 3 1.46214 1.87449 14.8943
71 3 3.54143 2.75579 10.604
72 3 1.84303 6.87495 15.1102
73 3 1.94992 7.02014 11.414
74 3 3.35443 2.39607 14.3752
75 3 5.5524 2.21009 10.0418
76 3 8.83609 7.31109 15.6063
77 6 6.96254 0.220541 13.5451
78 6 7.25406 9.26127 12.2608
79 6 5.20395 5.21057 16.5005
80 6 9.19042 4.41343 9.25919
81 4 4.84849 7.55011 10.6178
82 4 9.51423 1.87327 15.3638
83 4 2.74124 2.95338 11.2842
84 4 2.58647 6.6325 14.3707
85 4 0.924787 6.68067 11.3335
86 4 4.4205 2.659 14.5224
87 4 6.51154 1.72463 9.88297
88 4 7.83691 7.81289 15.6239
89 1 8.69868 10.2257 3.70065
90 1 5.04273 18.9722 4.70376
91 1 7.12328 15.123 0.43741
92 1 6.64103 14.0472 8.03116
93 2 7.77584 18.461 3.11985
94 2 5.86887 11.2172 5.04572
95 2 8.12259 13.4526 0.932557
96 2 5.56695 15.7063 7.34033
97 2 6.40884 18.162 3.39621
98 2 7.33636 11.3167 4.86079
99 2 0.404738 13.0854 0.624929
100 2 4.34904 16.2334 7.80437
101 2 7.1556 16.6368 1.75987
102 2 6.63707 12.6774 6.52283
103 2 8.61797 11.6898 2.36057
104 2 5.03462 17.5368 6.1409
105 5 1.1543 10.4817 5.11269
106 5 3.63456 18.9136 3.19871
107 5 1.49266 15.3742 7.59109
108 5 3.23293 13.9243 0.866832
109 5 3.11399 10.0352 5.81067
110 5 1.52256 19.1767 2.66776
111 5 8.45164 14.9107 7.03896
112 5 5.2423 14.3329 1.40581
113 3 8.1137 17.5512 2.09867
114 3 5.68064 11.7262 6.29842
115 3 7.73333 12.6276 2.02075
116 3 5.99118 16.585 6.46209
117 3 6.19692 16.9373 2.68349
118 3 7.70162 12.3398 5.6657
119 3 0.58574 12.0143 1.48925
120 3 3.98355 17.2062 6.93877
121 6 2.2673 10.0963 4.92796
122 6 2.48152 19.2835 3.42598
123 6 0.378073 15.0251 7.81748
124 6 4.32978 14.3388 0.635888
125 4 0.110595 17.3078 1.8831
126 4 4.63412 12.0361 6.49649
127 4 6.74232 12.5515 2.42106
128 4 6.96681 16.5136 5.91875
129 4 5.21702 16.4577 2.71563
130 4 8.59118 12.8761 5.59754
131 4 1.40483 11.3589 1.36485
132 4 3.19786 17.903 7.1329
133 1 4.46643 10.2087 12.3
134 1 0.824199 18.939 13.4219
135 1 2.88658 15.068 9.08589
136 1 2.39813 14.0706 16.6277
137 2 3.4245 18.4306 11.7765
138 2 1.87158 10.7325 13.9803
139 2 3.9178 13.4634 9.63831
140 2 1.45507 15.658 16.0315
141 2 2.07511 18.1154 12.1215
142 2 3.16532 11.1119 13.6216
143 2 5.1673 13.0926 9.23072
144 2 9.22156 16.0403 16.4757
145 2 2.98648 16.5688 10.417
146 2 2.39675 12.6103 15.2209
147 2 4.67833 11.8379 11.0367
148 2 0.761496 17.539 14.8366
149 5 5.99394 10.348 13.8226
150 5 8.52537 18.8565 11.8641
151 5 6.30735 15.4763 16.262
152 5 8.14519 13.9109 9.43947
153 5 8.02784 10.0432 14.3001
154 5 6.38115 19.1181 11.3771
155 5 4.37709 15.0201 15.7255
156 5 1.16831 14.2943 10.033
157 3 3.98617 17.4185 10.8474
158 3 1.52827 11.63 15.0008
159 3 3.67242 12.6793 10.6795
160 3 1.69231 16.5926 15.0885
161 3 1.89775 17.0234 11.2481
162 3 3.41745 12.1773 14.4323
163 3 5.45667 12.029 9.99437
164 3 8.89369 17.1391 15.7173
165 6 7.05031 9.8902 13.61
166 6 7.33859 19.102 12.1399
167 6 5.24667 14.9871 16.5172
168 6 9.19659 14.4512 9.28598
169 4 4.95996 17.4355 10.3264
170 4 0.614923 11.6485 15.5577
171 4 3.04219 12.9883 11.4632
172 4 2.72547 16.7173 14.7548
173 4 1.06374 16.3503 11.444
174 4 4.19431 12.8815 14.1987
175 4 6.46991 11.5994 9.97494
176 4 7.93288 17.57 15.7454
177 7 3.01379 9.75212 9.7877
178 8 3.16713 9.12716 8.74987
179 8 2.44421 10.4005 10.5966
180 7 9.13205 11.6512 10.6143
181 8 8.36884 11.5801 11.5144
182 8 0.72467 11.867 9.68686
183 7 7.25761 6.68444 9.99485
184 8 7.35077 6.25738 8.97387
185 8 7.12524 7.15658 10.9746
186 7 1.80912 10.5664 7.93961
187 8 1.03596 9.80302 7.57698
188 8 2.60719 11.3187 8.35529
189 7 6.33717 9.16277 7.27919
190 8 7.11641 8.94766 6.36914
191 8 5.68661 8.92597 8.21773
192 7 9.23088 7.72941 6.9764
193 8 0.917508 7.34148 6.11004
194 8 8.3779 7.90947 7.75596
195 7 0.957928 8.28669 9.48427
196 8 0.924637 7.27147 9.04644
197 8 0.733258 9.36061 9.94957
198 7 7.76283 10.3551 8.57655
199 8 8.27433 11.0964 7.86737
200 8 7.50199 9.48079 9.20907
201 7 6.16302 14.6389 12.5093
202 8 6.09647 15.5543 13.2669
203 8 6.17845 14.0636 11.529
204 7 7.04856 13.5697 14.6626
205 8 7.88449 13.9409 13.8898
206 8 6.51717 12.8712 15.4766
207 7 6.1755 4.44295 13.2994
208 8 5.57255 4.77507 12.3032
209 8 6.78179 3.97652 14.1475
210 7 8.94498 4.24296 12.7218
211 8 9.20897 4.80942 13.7365
212 8 8.70557 3.35503 12.0163
213 7 3.61914 4.57156 5.39102
214 8 2.93285 3.84669 5.91724
215 8 4.18204 5.45741 4.81014
216 7 4.30357 2.28248 2.7365
217 8 4.34782 1.74681 1.72061
218 8 4.26176 2.61618 3.86883
219 7 2.26915 13.5283 4.59999
220 8 2.05611 13.5826 5.72994
221 8 2.65613 13.5307 3.4922
222 7 3.76352 15.6589 4.81012
223 8 4.72789 14.9811 4.73435
224 8 2.77831 16.3406 4.75962
ITEM: TIMESTEP
53
ITEM: NUMBER OF ATOMS
224
ITEM: BOX BOUNDS xy xz yz pp pp pp
-6.1083802750189875e-02 9.6139072910122891e+00 0.0000000000000000e+00
-1.3285373268098155e-01 1.9519852832680996e+01 6.3902328826210431e-01
-1.1692674376202561e-01 1.7179741843762002e+01 0.0000000000000000e+00
ITEM: ATOMS id type x y z
1 1 8.76026 0.401748 3.64813
2 1 4.98527 9.19043 4.73133
3 1 7.0885 5.35273 0.355078
4 1 6.63695 4.23089 8.03315
5 2 7.7634 8.63667 3.08869
6 2 6.13291 0.984525 5.36177
7 2 8.13501 3.65315 0.999283
8 2 5.56083 5.86471 7.3145
9 2 6.50857 8.20268 3.52843
10 2 7.40356 1.39392 4.85943
11 2 0.406554 3.34746 0.636881
12 2 4.33046 6.27321 7.85509
13 2 7.13849 6.77286 1.88885
14 2 6.60728 2.7165 6.6673
15 2 8.77743 1.84348 2.29276
16 2 4.80583 7.62816 5.89627
17 5 1.08925 0.659357 5.20481
18 5 3.67165 8.97114 3.226
19 5 1.50884 5.46665 7.48911
20 5 3.14954 4.08146 0.971855
21 5 3.16927 0.195151 5.70592
22 5 1.54857 9.41452 2.71787
23 5 8.57886 4.97441 7.07819
24 5 5.21166 4.51822 1.39514
25 3 8.11761 7.69963 2.15788
26 3 5.62341 1.80923 6.3793
27 3 7.78334 2.79739 2.01293
28 3 5.91463 6.75446 6.32489
29 3 6.20474 7.0828 2.82485
30 3 7.58847 2.3775 5.72158
31 3 0.71607 2.28437 1.42732
32 3 3.91503 7.31593 6.95161
33 6 2.18577 0.252694 4.93578
34 6 2.53343 9.32336 3.48799
35 6 0.474075 5.06704 7.83317
36 6 4.25989 4.44206 0.61482
37 4 0.0817105 7.47844 1.83554
38 4 4.64347 1.78989 6.85981
39 4 6.75514 2.69326 2.39325
40 4 6.96132 6.84652 6.03998
41 4 5.18356 6.74079 2.69674
42 4 8.59598 2.69883 5.93739
43 4 1.68375 1.78826 1.33286
44 4 2.99663 7.87355 6.92335
45 1 4.55401 0.417681 12.3366
46 1 0.852965 9.15292 13.3431
47 1 2.9654 5.25194 9.02029
48 1 2.43435 4.22632 16.6525
49 2 3.58405 8.38054 12.017
50 2 1.72188 0.954453 13.8217
51 2 4.01035 3.76292 9.72978
52 2 1.46535 5.93443 16.0837
53 2 2.14161 8.20264 12.0173
54 2 3.11733 1.16879 13.6926
55 2 5.30201 3.34759 9.26565
56 2 9.19691 6.32937 16.4967
57 2 3.03334 6.69037 10.5963
58 2 2.41935 2.82397 15.3213
59 2 4.4983 1.75986 10.8448
60 2 0.775625 7.6169 14.6656
61 5 5.81271 0.538018 13.8168
62 5 8.4835 9.12978 12.1031
63 5 6.31941 5.59849 16.276
64 5 8.11741 3.92244 9.52034
65 5 7.88853 0.207871 14.3077
66 5 6.31876 9.48905 11.427
67 5 4.26325 5.0416 15.7387
68 5 1.08684 4.52934 10.0387
69 3 4.18279 7.20479 11.3771
70 3 1.4617 1.87299 14.8967
71 3 3.54249 2.75091 10.6045
72 3 1.84201 6.87638 15.1129
73 3 1.95075 7.0151 11.4186
74 3 3.35317 2.39259 14.3778
75 3 5.55146 2.20455 10.0442
76 3 8.83768 7.30988 15.6092
77 6 6.96323 0.216455 13.5458
78 6 7.25404 9.25948 12.265
79 6 5.2031 5.20864 16.5094
80 6 9.19284 4.40987 9.25795
81 4 4.84736 7.54382 10.6396
82 4 9.51595 1.87191 15.3615
83 4 2.74066 2.95208 11.2894
84 4 2.58438 6.62508 14.3744
85 4 0.925277 6.68152 11.335
86 4 4.41219 2.65108 14.5295
87 4 6.51462 1.72251 9.87619
88 4 7.84727 7.8103 15.6216
89 1 8.7002 10.2256 3.69907
90 1 5.04298 18.9761 4.7016
91 1 7.12411 15.1245 0.434497
92 1 6.64241 14.0489 8.03143
93 2 7.77718 18.4658 3.11857
94 2 5.86912 11.2242 5.03714
95 2 8.1231 13.454 0.929138
96 2 5.56533 15.7071 7.3411
97 2 6.40951 18.1667 3.39303
98 2 7.33575 11.3203 4.85732
99 2 0.403556 13.0857 0.621637
100 2 4.34907 16.2373 7.80467
101 2 7.15696 16.6391 1.75708
102 2 6.63784 12.6827 6.52066
103 2 8.61824 11.6885 2.35999
104 2 5.03646 17.5429 6.13876
105 5 1.15478 10.4833 5.10969
106 5 3.63434 18.9197 3.19494
107 5 1.489 15.3768 7.59136
108 5 3.23325 13.927 0.864208
109 5 3.11156 10.0355 5.80976
110 5 1.52319 19.1802 2.66592
111 5 8.4547 14.9123 7.04016
112 5 5.2412 14.3356 1.40287
113 3 8.11483 17.5539 2.09521
114 3 5.68059 11.7301 6.2968
115 3 7.73516 12.6287 2.01826
116 3 5.99265 16.5903 6.46142
117 3 6.20036 16.94 2.68
118 3 7.70137 12.3433 5.66214
119 3 0.582152 12.0153 1.4868
120 3 3.98323 17.2102 6.93904
121 6 2.26756 10.0971 4.92501
122 6 2.47761 19.2903 3.42544
123 6 0.377017 15.0298 7.81611
124 6 4.33109 14.3423 0.631806
125 4 0.111142 17.3101 1.88857
126 4 4.64175 12.0495 6.49396
127 4 6.73681 12.5575 2.41077
128 4 6.95871 16.5241 5.91532
129 4 5.21592 16.4697 2.7189
130 4 8.60324 12.8853 5.5918
131 4 1.40285 11.3533 1.36126
132 4 3.19926 17.9147 7.13523
133 1 4.46576 10.2082 12.3013
134 1 0.822194 18.9423 13.4244
135 1 2.88498 15.0686 9.08649
136 1 2.39716 14.0727 16.6306
137 2 3.42412 18.434 11.7772
138 2 1.87091 10.7311 13.9831
139 2 3.91673 13.4669 9.63823
140 2 1.45233 15.6576 16.0367
141 2 2.07201 18.1187 12.1225
142 2 3.16564 11.1116 13.6239
143 2 5.16813 13.0932 9.22856
144 2 9.22481 16.0416 16.4794
145 2 2.98603 16.5699 10.4179
146 2 2.39599 12.614 15.2244
147 2 4.68142 11.8396 11.0411
148 2 0.760278 17.5434 14.8395
149 5 5.99598 10.3468 13.825
150 5 8.52595 18.8622 11.8651
151 5 6.30702 15.4817 16.2663
152 5 8.15043 13.9143 9.43881
153 5 8.02869 10.0438 14.3006
154 5 6.38367 19.1203 11.3796
155 5 4.37857 15.0238 15.7292
156 5 1.16717 14.2981 10.0322
157 3 3.98444 17.4203 10.8509
158 3 1.52852 11.6298 15.0038
159 3 3.67494 12.6819 10.6821
160 3 1.69011 16.5979 15.089
161 3 1.89736 17.0277 11.2483
162 3 3.41686 12.1762 14.4341
163 3 5.45632 12.028 9.99279
164 3 8.89559 17.1422 15.7218
165 6 7.05123 9.88827 13.6138
166 6 7.33976 19.1044 12.1415
167 6 5.24627 14.9913 16.5238
168 6 9.19775 14.4558 9.28815
169 4 4.95825 17.4434 10.3368
170 4 0.610206 11.6426 15.5564
171 4 3.04641 12.9999 11.4717
172 4 2.72106 16.7238 14.7606
173 4 1.06819 16.3517 11.4423
174 4 4.19162 12.8918 14.1996
175 4 6.46645 11.6059 9.97472
176 4 7.92639 17.5726 15.7546
177 7 3.01158 9.75634 9.78388
178 8 3.16405 9.1368 8.74345
179 8 2.44008 10.3994 10.5959
180 7 9.13392 11.6518 10.6145
181 8 8.3711 11.5869 11.5156
182 8 0.722704 11.8633 9.68673
183 7 7.25893 6.68278 9.99423
184 8 7.35154 6.25652 8.9716
185 8 7.12501 7.15373 10.9784
186 7 1.80874 10.5675 7.93948
187 8 1.03491 9.80225 7.57947
188 8 2.60822 11.3206 8.35245
189 7 6.33945 9.16539 7.27998
190 8 7.12148 8.94231 6.36941
191 8 5.68591 8.9313 8.22181
192 7 9.23436 7.72815 6.97442
193 8 0.915186 7.34016 6.10688
194 8 8.38091 7.90702 7.75304
195 7 0.956213 8.28746 9.48335
196 8 0.919759 7.27343 9.04585
197 8 0.733041 9.35971 9.94962
198 7 7.7648 10.3559 8.57793
199 8 8.27847 11.0977 7.86972
200 8 7.50317 9.47845 9.20903
201 7 6.16361 14.6431 12.5116
202 8 6.09794 15.5595 13.2665
203 8 6.17844 14.0666 11.5311
204 7 7.05128 13.5701 14.6637
205 8 7.88706 13.942 13.8919
206 8 6.52196 12.8685 15.4755
207 7 6.17551 4.44123 13.3021
208 8 5.57246 4.77349 12.3055
209 8 6.78275 3.97309 14.1498
210 7 8.94711 4.24205 12.7232
211 8 9.21203 4.80864 13.7385
212 8 8.7062 3.35152 12.02
213 7 3.61698 4.56896 5.38932
214 8 2.9286 3.84293 5.91799
215 8 4.17898 5.45384 4.80562
216 7 4.30459 2.27965 2.73436
217 8 4.34994 1.7414 1.71604
218 8 4.26209 2.61276 3.86845
219 7 2.2683 13.5275 4.59801
220 8 2.05628 13.5823 5.72975
221 8 2.6562 13.5301 3.48976
222 7 3.76223 15.6609 4.80691
223 8 4.72432 14.9791 4.72816
224 8 2.77815 16.345 4.75753
ITEM: TIMESTEP
54
ITEM: NUMBER OF ATOMS
224
ITEM: BOX BOUNDS xy xz yz pp pp pp
-6.2899785331478775e-02 9.6159801260272086e+00 0.0000000000000000e+00
-1.3680338960385718e-01 1.9523802489603874e+01 6.3928014069573424e-01
-1.2040290144047106e-01 1.7183218001440448e+01 0.0000000000000000e+00
ITEM: ATOMS id type x y z
1 1 8.76293 0.397746 3.64562
2 1 4.98447 9.19124 4.72963
3 1 7.08869 5.35126 0.35091
4 1 6.63839 4.22871 8.03351
5 2 7.76591 8.63766 3.08719
6 2 6.13675 0.979726 5.35937
7 2 8.1358 3.65191 0.995834
8 2 5.55908 5.86127 7.31192
9 2 6.50945 8.2019 3.52769
10 2 7.40291 1.38989 4.85756
11 2 0.406235 3.34545 0.633574
12 2 4.3285 6.27444 7.85368
13 2 7.14062 6.76929 1.88611
14 2 6.60647 2.71376 6.66881
15 2 8.77842 1.83924 2.29111
16 2 4.80269 7.62608 5.89113
17 5 1.0897 0.656113 5.20432
18 5 3.67003 8.9717 3.22346
19 5 1.5076 5.46142 7.48711
20 5 3.14996 4.08084 0.970442
21 5 3.16826 0.19155 5.70496
22 5 1.54925 9.41494 2.71663
23 5 8.58145 4.96978 7.07664
24 5 5.20999 4.51734 1.39183
25 3 8.11829 7.69851 2.15638
26 3 5.62578 1.80643 6.3791
27 3 7.78697 2.79367 2.01042
28 3 5.91088 6.75276 6.32162
29 3 6.2067 7.08148 2.82581
30 3 7.59096 2.37505 5.71975
31 3 0.715167 2.28173 1.42464
32 3 3.91492 7.31124 6.95008
33 6 2.18267 0.249194 4.9305
34 6 2.53388 9.32294 3.48721
35 6 0.475744 5.06197 7.83621
36 6 4.25815 4.44058 0.610384
37 4 0.0841352 7.47143 1.83525
38 4 4.64553 1.78911 6.86172
39 4 6.76325 2.68086 2.39156
40 4 6.95303 6.83813 6.03387
41 4 5.18724 6.74073 2.69466
42 4 8.59564 2.69959 5.94515
43 4 1.68003 1.78778 1.32791
44 4 2.99022 7.8681 6.91747
45 1 4.55472 0.413783 12.3383
46 1 0.851572 9.15293 13.3442
47 1 2.96525 5.24869 9.01987
48 1 2.43393 4.22424 16.6559
49 2 3.58499 8.37356 12.0244
50 2 1.72081 0.950699 13.822
51 2 4.0136 3.76176 9.7304
52 2 1.46372 5.93309 16.0878
53 2 2.14075 8.20208 12.0199
54 2 3.11549 1.16327 13.696
55 2 5.30147 3.34711 9.26559
56 2 9.19969 6.32896 16.5003
57 2 3.03824 6.68554 10.6028
58 2 2.41791 2.82103 15.3237
59 2 4.49854 1.7555 10.8436
60 2 0.77296 7.6168 14.6659
61 5 5.81219 0.532768 13.8189
62 5 8.48298 9.13246 12.1086
63 5 6.3187 5.59869 16.2793
64 5 8.12219 3.91747 9.52107
65 5 7.88656 0.204634 14.3087
66 5 6.31974 9.49174 11.4322
67 5 4.2635 5.03902 15.7418
68 5 1.08525 4.5286 10.039
69 3 4.18388 7.19449 11.3874
70 3 1.46124 1.87146 14.8991
71 3 3.54363 2.74605 10.605
72 3 1.84095 6.87777 15.1157
73 3 1.95162 7.01006 11.4233
74 3 3.35194 2.38905 14.3803
75 3 5.55052 2.19905 10.0467
76 3 8.8393 7.3087 15.6122
77 6 6.96395 0.212301 13.5465
78 6 7.25401 9.25776 12.2692
79 6 5.20215 5.20662 16.5183
80 6 9.19537 4.40632 9.25669
81 4 4.84676 7.5375 10.6613
82 4 9.51763 1.87062 15.3591
83 4 2.73992 2.9507 11.2947
84 4 2.58247 6.61759 14.3781
85 4 0.925757 6.68225 11.3362
86 4 4.4037 2.64318 14.5368
87 4 6.51756 1.7201 9.86957
88 4 7.85783 7.80756 15.6193
89 1 8.70173 10.2255 3.69747
90 1 5.04323 18.9801 4.69943
91 1 7.12493 15.1261 0.43157
92 1 6.64378 14.0506 8.03169
93 2 7.77847 18.4706 3.11725
94 2 5.86952 11.231 5.02862
95 2 8.12362 13.4553 0.925773
96 2 5.5637 15.7079 7.34191
97 2 6.41025 18.1713 3.3898
98 2 7.33504 11.324 4.85386
99 2 0.40232 13.086 0.618366
100 2 4.34909 16.2413 7.80497
101 2 7.15833 16.6413 1.75431
102 2 6.63864 12.688 6.51849
103 2 8.61853 11.6871 2.35938
104 2 5.03832 17.549 6.13661
105 5 1.15521 10.4849 5.1067
106 5 3.6341 18.9257 3.19114
107 5 1.48537 15.3794 7.5916
108 5 3.23355 13.9297 0.861579
109 5 3.10916 10.0358 5.8088
110 5 1.52381 19.1837 2.66408
111 5 8.45779 14.914 7.04137
112 5 5.24013 14.3383 1.39993
113 3 8.11596 17.5565 2.09176
114 3 5.68051 11.734 6.2951
115 3 7.73701 12.6298 2.01572
116 3 5.99412 16.5956 6.46069
117 3 6.20379 16.9427 2.67654
118 3 7.70102 12.3467 5.65861
119 3 0.578568 12.0162 1.48432
120 3 3.98298 17.2143 6.93932
121 6 2.26786 10.0978 4.92199
122 6 2.4737 19.2972 3.42497
123 6 0.375881 15.0345 7.81482
124 6 4.33242 14.3459 0.627657
125 4 0.111757 17.3125 1.89399
126 4 4.64956 12.0627 6.49151
127 4 6.73113 12.5636 2.40042
128 4 6.95039 16.5346 5.91206
129 4 5.21491 16.4818 2.72199
130 4 8.61558 12.8947 5.58597
131 4 1.40113 11.3475 1.35757
132 4 3.20052 17.9266 7.13773
133 1 4.4651 10.2077 12.3027
134 1 0.820174 18.9457 13.427
135 1 2.88339 15.0691 9.08709
136 1 2.39621 14.0747 16.6336
137 2 3.42376 18.4373 11.778
138 2 1.87025 10.7297 13.986
139 2 3.91567 13.4704 9.63815
140 2 1.44955 15.6573 16.0419
141 2 2.06902 18.122 12.1234
142 2 3.16592 11.1114 13.6261
143 2 5.16898 13.0938 9.22639
144 2 9.22804 16.043 16.4831
145 2 2.98553 16.571 10.4188
146 2 2.39526 12.6178 15.2279
147 2 4.68444 11.8412 11.0454
148 2 0.759083 17.5478 14.8423
149 5 5.99796 10.3455 13.8274
150 5 8.52652 18.868 11.8662
151 5 6.30673 15.4871 16.2707
152 5 8.15564 13.9178 9.43819
153 5 8.02958 10.0444 14.3011
154 5 6.3862 19.1226 11.3822
155 5 4.37999 15.0275 15.7329
156 5 1.16598 14.302 10.0313
157 3 3.9826 17.4223 10.8546
158 3 1.52876 11.6297 15.0068
159 3 3.67746 12.6845 10.6848
160 3 1.68797 16.6032 15.0894
161 3 1.897 17.0319 11.2486
162 3 3.41627 12.175 14.4359
163 3 5.45603 12.027 9.99119
164 3 8.89747 17.1452 15.7262
165 6 7.05217 9.88632 13.6175
166 6 7.3409 19.1069 12.143
167 6 5.24588 14.9954 16.5304
168 6 9.199 14.4605 9.29028
169 4 4.95643 17.4513 10.3475
170 4 0.605217 11.6366 15.5549
171 4 3.05027 13.0116 11.4804
172 4 2.71659 16.7305 14.7663
173 4 1.07259 16.3532 11.4406
174 4 4.18903 12.9021 14.2005
175 4 6.4628 11.6125 9.97453
176 4 7.91965 17.5754 15.7638
177 7 3.00929 9.76052 9.77999
178 8 3.16101 9.14644 8.7372
179 8 2.43606 10.3983 10.5953
180 7 9.1357 11.6525 10.6147
181 8 8.37342 11.5938 11.5168
182 8 0.720764 11.8596 9.68659
183 7 7.26027 6.68109 9.99355
184 8 7.35231 6.25564 8.96926
185 8 7.12477 7.15087 10.9822
186 7 1.8084 10.5687 7.93937
187 8 1.03385 9.80147 7.58193
188 8 2.60921 11.3226 8.34954
189 7 6.34181 9.16789 7.28069
190 8 7.12646 8.9371 6.36973
191 8 5.68517 8.93666 8.22586
192 7 9.23784 7.72685 6.97238
193 8 0.912815 7.33891 6.10373
194 8 8.38395 7.90455 7.75007
195 7 0.954418 8.28848 9.48252
196 8 0.914924 7.27529 9.04527
197 8 0.732809 9.35873 9.94964
198 7 7.76689 10.3567 8.57924
199 8 8.28258 11.0991 7.87208
200 8 7.50433 9.47606 9.2091
201 7 6.16418 14.6475 12.514
202 8 6.0994 15.5646 13.2662
203 8 6.17846 14.0696 11.5332
204 7 7.0541 13.5705 14.6648
205 8 7.88958 13.9431 13.894
206 8 6.52675 12.8658 15.4744
207 7 6.17543 4.43951 13.3047
208 8 5.57241 4.7719 12.308
209 8 6.78372 3.96963 14.152
210 7 8.94929 4.24109 12.7247
211 8 9.21508 4.80786 13.7405
212 8 8.70683 3.348 12.0237
213 7 3.61487 4.56652 5.38751
214 8 2.92432 3.8391 5.91878
215 8 4.17587 5.45016 4.8011
216 7 4.30559 2.27677 2.73231
217 8 4.35206 1.73598 1.71143
218 8 4.26241 2.60934 3.86799
219 7 2.2675 13.5267 4.59597
220 8 2.05644 13.582 5.72956
221 8 2.65624 13.5295 3.48734
222 7 3.76091 15.663 4.80366
223 8 4.72071 14.9771 4.72197
224 8 2.77804 16.3494 4.75543
ITEM: TIMESTEP
55
ITEM: NUMBER OF ATOMS
224
ITEM: BOX BOUNDS xy xz yz pp pp pp
-6.4721646701833002e-02 9.6180596713266571e+00 0.0000000000000000e+00
-1.4076583255241992e-01 1.9527764932552437e+01 6.3953782462482767e-01
-1.2389031230931380e-01 1.7186705412309291e+01 0.0000000000000000e+00
ITEM: ATOMS id type x y z
1 1 8.76561 0.393737 3.64312
2 1 4.98367 9.19204 4.72791
3 1 7.08888 5.34978 0.346739
4 1 6.63983 4.22653 8.03388
5 2 7.76841 8.63862 3.0857
6 2 6.14058 0.974891 5.35695
7 2 8.1366 3.65069 0.99237
8 2 5.55728 5.85781 7.30934
9 2 6.51032 8.20114 3.52691
10 2 7.40219 1.38581 4.85575
11 2 0.405894 3.34342 0.630284
12 2 4.32651 6.27569 7.85216
13 2 7.14276 6.76571 1.88337
14 2 6.60566 2.711 6.67029
15 2 8.77939 1.83503 2.28943
16 2 4.79965 7.62397 5.88612
17 5 1.09012 0.65286 5.20382
18 5 3.66841 8.97226 3.2209
19 5 1.50644 5.45615 7.48513
20 5 3.15036 4.08023 0.968992
21 5 3.16723 0.187941 5.70397
22 5 1.54995 9.41535 2.71539
23 5 8.58403 4.96514 7.07505
24 5 5.20833 4.51645 1.3885
25 3 8.11895 7.69738 2.15485
26 3 5.62823 1.80363 6.37885
27 3 7.79064 2.78989 2.00789
28 3 5.907 6.75105 6.31833
29 3 6.20868 7.08016 2.82671
30 3 7.59346 2.37265 5.71799
31 3 0.714257 2.27907 1.42196
32 3 3.91487 7.3065 6.94848
33 6 2.17969 0.245626 4.92518
34 6 2.53426 9.32259 3.48648
35 6 0.47726 5.05678 7.83926
36 6 4.2565 4.43913 0.605949
37 4 0.0867003 7.46462 1.83499
38 4 4.64764 1.78821 6.86354
39 4 6.77149 2.66853 2.38974
40 4 6.94463 6.8293 6.02738
41 4 5.19086 6.74064 2.69271
42 4 8.59542 2.70039 5.95271
43 4 1.67626 1.78724 1.32296
44 4 2.98375 7.86232 6.91185
45 1 4.55542 0.409867 12.3401
46 1 0.850168 9.15294 13.3454
47 1 2.9651 5.24544 9.01945
48 1 2.43352 4.22214 16.6594
49 2 3.58588 8.36649 12.0317
50 2 1.71981 0.946989 13.8224
51 2 4.01687 3.76052 9.73102
52 2 1.46203 5.93176 16.0918
53 2 2.14 8.20149 12.0225
54 2 3.11361 1.15782 13.6994
55 2 5.30088 3.34657 9.26559
56 2 9.20249 6.32852 16.5039
57 2 3.0432 6.68068 10.6094
58 2 2.41644 2.818 15.3261
59 2 4.49879 1.75117 10.8424
60 2 0.770296 7.61673 14.6661
61 5 5.8117 0.527504 13.8211
62 5 8.48243 9.13511 12.114
63 5 6.31801 5.59889 16.2827
64 5 8.12696 3.91247 9.5218
65 5 7.88462 0.201393 14.3098
66 5 6.32076 9.49442 11.4374
67 5 4.26377 5.03646 15.7448
68 5 1.08367 4.52784 10.0393
69 3 4.18474 7.18435 11.3976
70 3 1.46078 1.8699 14.9014
71 3 3.54485 2.7412 10.6055
72 3 1.83985 6.8791 15.1185
73 3 1.95254 7.00504 11.4279
74 3 3.35074 2.38546 14.383
75 3 5.54956 2.19361 10.0491
76 3 8.84096 7.30753 15.6151
77 6 6.96471 0.208082 13.5471
78 6 7.25397 9.2561 12.2735
79 6 5.2011 5.20452 16.5273
80 6 9.198 4.40278 9.25541
81 4 4.84676 7.53116 10.6828
82 4 9.51928 1.86941 15.3567
83 4 2.73908 2.94922 11.3
84 4 2.58073 6.61003 14.3819
85 4 0.926218 6.68284 11.3371
86 4 4.39512 2.63532 14.544
87 4 6.52031 1.7174 9.86314
88 4 7.86851 7.80469 15.6171
89 1 8.70327 10.2255 3.69587
90 1 5.04348 18.9841 4.69726
91 1 7.12577 15.1276 0.428628
92 1 6.64516 14.0523 8.03195
93 2 7.77971 18.4753 3.11588
94 2 5.87008 11.2377 5.02016
95 2 8.12416 13.4566 0.922464
96 2 5.56205 15.7087 7.34275
97 2 6.41104 18.1758 3.38653
98 2 7.33424 11.3276 4.85043
99 2 0.401025 13.0863 0.615116
100 2 4.34909 16.2451 7.80527
101 2 7.15972 16.6435 1.75156
102 2 6.63946 12.6934 6.5163
103 2 8.61886 11.6856 2.35874
104 2 5.04019 17.5551 6.13447
105 5 1.15561 10.4865 5.10372
106 5 3.63382 18.9318 3.18732
107 5 1.48177 15.3821 7.59181
108 5 3.23381 13.9325 0.858948
109 5 3.10677 10.036 5.80779
110 5 1.52442 19.1873 2.66224
111 5 8.46091 14.9157 7.04257
112 5 5.23911 14.341 1.39701
113 3 8.11707 17.5592 2.08834
114 3 5.6804 11.7381 6.29332
115 3 7.73886 12.631 2.01312
116 3 5.9956 16.601 6.45992
117 3 6.20719 16.9456 2.67311
118 3 7.70059 12.3502 5.65509
119 3 0.574994 12.0172 1.48182
120 3 3.98279 17.2184 6.93961
121 6 2.2682 10.0984 4.91889
122 6 2.46981 19.3041 3.42456
123 6 0.374661 15.0391 7.8136
124 6 4.33375 14.3496 0.623444
125 4 0.11242 17.3149 1.89934
126 4 4.65747 12.0758 6.48915
127 4 6.72532 12.5698 2.38998
128 4 6.94192 16.545 5.90893
129 4 5.21399 16.4939 2.72485
130 4 8.62807 12.9041 5.58007
131 4 1.39961 11.3418 1.35378
132 4 3.20169 17.9384 7.1404
133 1 4.46446 10.2072 12.304
134 1 0.818139 18.9491 13.4295
135 1 2.8818 15.0698 9.08768
136 1 2.39525 14.0768 16.6365
137 2 3.42343 18.4406 11.7787
138 2 1.86961 10.7283 13.9888
139 2 3.91465 13.474 9.63808
140 2 1.44671 15.657 16.0472
141 2 2.06614 18.1252 12.1243
142 2 3.16616 11.1111 13.6284
143 2 5.16984 13.0944 9.22422
144 2 9.23127 16.0444 16.4868
145 2 2.98499 16.5722 10.4198
146 2 2.39455 12.6216 15.2314
147 2 4.68741 11.8428 11.0497
148 2 0.757911 17.5522 14.8451
149 5 5.99988 10.3444 13.8299
150 5 8.52706 18.8738 11.8673
151 5 6.30648 15.4926 16.2751
152 5 8.16079 13.9212 9.4376
153 5 8.0305 10.045 14.3017
154 5 6.38873 19.1248 11.3847
155 5 4.38132 15.0312 15.7366
156 5 1.16475 14.3059 10.0305
157 3 3.98065 17.4243 10.8582
158 3 1.52897 11.6295 15.0097
159 3 3.67999 12.6871 10.6874
160 3 1.68589 16.6085 15.0899
161 3 1.89668 17.0362 11.2488
162 3 3.41569 12.174 14.4377
163 3 5.45581 12.026 9.98957
164 3 8.89934 17.1483 15.7308
165 6 7.05315 9.88434 13.6212
166 6 7.34202 19.1095 12.1447
167 6 5.2455 14.9996 16.537
168 6 9.20034 14.4652 9.29238
169 4 4.95452 17.4594 10.3582
170 4 0.599988 11.6304 15.5533
171 4 3.05383 13.0235 11.489
172 4 2.71211 16.7372 14.7719
173 4 1.07689 16.3548 11.4389
174 4 4.18651 12.9122 14.2012
175 4 6.45902 11.6192 9.97436
176 4 7.91274 17.5783 15.7731
177 7 3.00692 9.76466 9.77603
178 8 3.15802 9.15609 8.7311
179 8 2.43214 10.3971 10.5946
180 7 9.13739 11.6531 10.615
181 8 8.37578 11.6007 11.5181
182 8 0.718849 11.8559 9.68644
183 7 7.26162 6.67939 9.99281
184 8 7.35308 6.25473 8.96685
185 8 7.12452 7.14801 10.9863
186 7 1.80811 10.57 7.93927
187 8 1.03279 9.80066 7.58435
188 8 2.61016 11.3245 8.34655
189 7 6.34424 9.17027 7.28131
190 8 7.13136 8.93203 6.3701
191 8 5.68441 8.94204 8.22986
192 7 0.198076 7.72551 6.97029
193 8 0.910398 7.33772 6.10057
194 8 8.38704 7.90208 7.74705
195 7 0.952543 8.28975 9.48178
196 8 0.910133 7.27704 9.04469
197 8 0.732563 9.35765 9.94964
198 7 7.7691 10.3576 8.58049
199 8 8.28667 11.1005 7.87443
200 8 7.50547 9.47362 9.20926
201 7 6.16473 14.652 12.5165
202 8 6.10085 15.5698 13.2659
203 8 6.17851 14.0725 11.5352
204 7 7.05701 13.5707 14.666
205 8 7.89206 13.9442 13.8962
206 8 6.53156 12.8631 15.4733
207 7 6.17527 4.43781 13.3071
208 8 5.57241 4.77028 12.3105
209 8 6.7847 3.96616 14.1544
210 7 8.9515 4.2401 12.7263
211 8 9.21813 4.80707 13.7425
212 8 8.70745 3.34449 12.0274
213 7 3.61283 4.56422 5.38561
214 8 2.92003 3.83522 5.91959
215 8 4.17273 5.44636 4.79657
216 7 4.30659 2.27387 2.73032
217 8 4.35419 1.73055 1.70681
218 8 4.26272 2.60592 3.86748
219 7 2.26674 13.5259 4.59388
220 8 2.05659 13.5817 5.72937
221 8 2.65624 13.529 3.48494
222 7 3.75956 15.665 4.80037
223 8 4.71705 14.9752 4.71578
224 8 2.77799 16.3538 4.75332
ITEM: TIMESTEP
56
ITEM: NUMBER OF ATOMS
224
ITEM: BOX BOUNDS xy xz yz pp pp pp
-6.6548359599210016e-02 9.6201447543527294e+00 0.0000000000000000e+00
-1.4473882729123133e-01 1.9531737927291250e+01 6.3979619475352212e-01
-1.2738700998139407e-01 1.7190202109981371e+01 0.0000000000000000e+00
ITEM: ATOMS id type x y z
1 1 8.76829 0.389723 3.64061
2 1 4.98287 9.19285 4.72619
3 1 7.08907 5.3483 0.342569
4 1 6.64128 4.22433 8.03425
5 2 7.77088 8.63955 3.08423
6 2 6.14437 0.970023 5.35452
7 2 8.13741 3.64948 0.988894
8 2 5.55542 5.85435 7.30676
9 2 6.51118 8.20041 3.5261
10 2 7.40141 1.38169 4.854
11 2 0.40553 3.34138 0.627013
12 2 4.32451 6.27696 7.85053
13 2 7.14493 6.76212 1.88063
14 2 6.60486 2.70824 6.67174
15 2 8.78034 1.83083 2.28771
16 2 4.79671 7.62183 5.88124
17 5 1.09051 0.6496 5.20333
18 5 3.66678 8.97281 3.21832
19 5 1.50538 5.45086 7.48316
20 5 3.15076 4.07962 0.967506
21 5 3.16615 0.184327 5.70294
22 5 1.55069 9.41574 2.71415
23 5 8.5866 4.96049 7.07344
24 5 5.20666 4.51556 1.38515
25 3 8.11959 7.69622 2.15329
26 3 5.63076 1.80082 6.37855
27 3 7.79435 2.78607 2.00536
28 3 5.90299 6.74934 6.31504
29 3 6.21066 7.07885 2.82756
30 3 7.59597 2.37031 5.71631
31 3 0.713338 2.27638 1.41929
32 3 3.91488 7.30175 6.94682
33 6 2.17683 0.241994 4.91982
34 6 2.53455 9.3223 3.4858
35 6 0.478617 5.05148 7.8423
36 6 4.25494 4.43772 0.601522
37 4 0.0893444 7.45803 1.8348
38 4 4.64979 1.78716 6.86526
39 4 6.77982 2.65628 2.38779
40 4 6.93618 6.82005 6.0205
41 4 5.19439 6.74054 2.69089
42 4 8.59533 2.70121 5.96007
43 4 1.67247 1.78662 1.31802
44 4 2.97726 7.85619 6.90649
45 1 4.55612 0.405935 12.3418
46 1 0.848753 9.15294 13.3466
47 1 2.96494 5.24219 9.01904
48 1 2.4331 4.22005 16.6628
49 2 3.58672 8.35932 12.0391
50 2 1.71889 0.943326 13.8229
51 2 4.02015 3.75922 9.73163
52 2 1.4603 5.93047 16.0957
53 2 2.13938 8.20085 12.0252
54 2 3.11167 1.15244 13.7028
55 2 5.30022 3.34598 9.26567
56 2 9.20531 6.32805 16.5074
57 2 3.04821 6.67578 10.6162
58 2 2.41497 2.8149 15.3283
59 2 4.49904 1.74685 10.8411
60 2 0.767633 7.61669 14.6664
61 5 5.81122 0.522227 13.8232
62 5 8.48184 9.13773 12.1194
63 5 6.31732 5.59911 16.286
64 5 8.13173 3.90744 9.52251
65 5 7.88273 0.198151 14.3109
66 5 6.32182 9.49709 11.4426
67 5 4.26406 5.03391 15.7479
68 5 1.08208 4.52708 10.0395
69 3 4.18535 7.17436 11.4076
70 3 1.46031 1.8683 14.9038
71 3 3.54613 2.73639 10.6059
72 3 1.8387 6.88039 15.1214
73 3 1.95349 7.00003 11.4326
74 3 3.34955 2.38183 14.3856
75 3 5.5486 2.18823 10.0515
76 3 8.84267 7.30638 15.6179
77 6 6.96548 0.203801 13.5476
78 6 7.25393 9.25452 12.2778
79 6 5.19996 5.20234 16.5364
80 6 9.20074 4.39925 9.25412
81 4 4.8474 7.52481 10.7042
82 4 9.52088 1.8683 15.3543
83 4 2.73817 2.94764 11.3053
84 4 2.57915 6.60243 14.3857
85 4 0.926657 6.68328 11.3379
86 4 4.38654 2.62752 14.5514
87 4 6.52284 1.71441 9.85693
88 4 7.8792 7.80175 15.615
89 1 8.70482 10.2254 3.69425
90 1 5.04373 18.9881 4.69509
91 1 7.1266 15.1292 0.425674
92 1 6.64653 14.054 8.0322
93 2 7.78089 18.48 3.11447
94 2 5.87079 11.2443 5.01177
95 2 8.12472 13.4579 0.919211
96 2 5.5604 15.7095 7.34363
97 2 6.4119 18.1803 3.38321
98 2 7.33333 11.3313 4.84702
99 2 0.399672 13.0866 0.61189
100 2 4.34908 16.2489 7.80557
101 2 7.16112 16.6457 1.74883
102 2 6.6403 12.6988 6.51409
103 2 8.61922 11.6842 2.35805
104 2 5.04208 17.5613 6.13234
105 5 1.15597 10.4881 5.10075
106 5 3.63351 18.9379 3.18348
107 5 1.47821 15.3848 7.59198
108 5 3.23405 13.9352 0.856313
109 5 3.10442 10.0363 5.80674
110 5 1.52502 19.1908 2.6604
111 5 8.46404 14.9174 7.04378
112 5 5.23813 14.3438 1.39411
113 3 8.11818 17.5619 2.08494
114 3 5.68028 11.7423 6.29145
115 3 7.74071 12.6323 2.01047
116 3 5.99707 16.6065 6.4591
117 3 6.21056 16.9486 2.66972
118 3 7.70009 12.3537 5.65159
119 3 0.571434 12.0182 1.4793
120 3 3.98266 17.2225 6.93992
121 6 2.26858 10.099 4.91573
122 6 2.46595 19.311 3.42422
123 6 0.373355 15.0436 7.81246
124 6 4.33507 14.3532 0.619174
125 4 0.113109 17.3174 1.90463
126 4 4.66543 12.0887 6.48686
127 4 6.71943 12.576 2.37948
128 4 6.9334 16.5553 5.9059
129 4 5.21317 16.506 2.72748
130 4 8.64055 12.9135 5.57412
131 4 1.39824 11.336 1.3499
132 4 3.20279 17.9502 7.14322
133 1 4.46382 10.2067 12.3054
134 1 0.816089 18.9525 13.432
135 1 2.88022 15.0704 9.08827
136 1 2.3943 14.0789 16.6395
137 2 3.4231 18.4438 11.7794
138 2 1.86899 10.727 13.9918
139 2 3.91366 13.4777 9.63801
140 2 1.44383 15.6567 16.0524
141 2 2.06336 18.1284 12.1251
142 2 3.16636 11.1108 13.6306
143 2 5.1707 13.0951 9.22205
144 2 9.23449 16.0457 16.4904
145 2 2.98441 16.5734 10.4208
146 2 2.39387 12.6254 15.2349
147 2 4.69032 11.8443 11.0541
148 2 0.756759 17.5567 14.8479
149 5 6.00173 10.3432 13.8324
150 5 8.52757 18.8796 11.8684
151 5 6.30625 15.4981 16.2795
152 5 8.16591 13.9246 9.43705
153 5 8.03146 10.0456 14.3023
154 5 6.39126 19.127 11.3872
155 5 4.38259 15.0349 15.7403
156 5 1.16348 14.3099 10.0296
157 3 3.9786 17.4264 10.8619
158 3 1.52918 11.6292 15.0126
159 3 3.68252 12.6897 10.6902
160 3 1.68386 16.6137 15.0903
161 3 1.8964 17.0404 11.249
162 3 3.41511 12.1729 14.4395
163 3 5.45565 12.025 9.98794
164 3 8.90119 17.1513 15.7353
165 6 7.05416 9.88233 13.6249
166 6 7.34311 19.1121 12.1464
167 6 5.24513 15.0038 16.5437
168 6 9.20178 14.47 9.29443
169 4 4.95254 17.4676 10.3691
170 4 0.594554 11.6241 15.5517
171 4 3.05714 13.0355 11.4977
172 4 2.70766 16.7439 14.7774
173 4 1.08108 16.3564 11.4371
174 4 4.18402 12.9221 14.2019
175 4 6.45518 11.626 9.97422
176 4 7.90577 17.5814 15.7825
177 7 3.00449 9.76877 9.77201
178 8 3.15508 9.16573 8.72517
179 8 2.42834 10.396 10.594
180 7 9.13898 11.6537 10.6155
181 8 8.37818 11.6077 11.5193
182 8 0.716962 11.8522 9.68627
183 7 7.26299 6.67769 9.99203
184 8 7.35385 6.2538 8.96439
185 8 7.12427 7.14514 10.9904
186 7 1.80787 10.5713 7.93918
187 8 1.03173 9.79985 7.58675
188 8 2.61108 11.3265 8.3435
189 7 6.34674 9.17252 7.28185
190 8 7.13616 8.92712 6.37053
191 8 5.68362 8.94746 8.23379
192 7 0.197897 7.72412 6.96814
193 8 0.907934 7.33659 6.09741
194 8 8.39016 7.89959 7.74397
195 7 0.950593 8.29125 9.48114
196 8 0.90539 7.27867 9.04411
197 8 0.732302 9.3565 9.94961
198 7 7.77142 10.3586 8.58169
199 8 8.29072 11.102 7.87677
200 8 7.50659 9.47112 9.20952
201 7 6.16527 14.6567 12.5189
202 8 6.10228 15.5748 13.2655
203 8 6.17858 14.0754 11.5373
204 7 7.06002 13.5709 14.6672
205 8 7.8945 13.9453 13.8985
206 8 6.53638 12.8605 15.4721
207 7 6.17503 4.43612 13.3094
208 8 5.57246 4.76864 12.3131
209 8 6.78569 3.96268 14.1567
210 7 8.95376 4.23907 12.728
211 8 9.22118 4.80627 13.7443
212 8 8.70808 3.34099 12.0311
213 7 3.61083 4.56205 5.38362
214 8 2.91573 3.83128 5.92042
215 8 4.16955 5.44244 4.79204
216 7 4.30759 2.27092 2.72841
217 8 4.35631 1.72512 1.70218
218 8 4.26304 2.60249 3.86689
219 7 2.26603 13.525 4.59173
220 8 2.05672 13.5813 5.72918
221 8 2.65621 13.5284 3.48257
222 7 3.75817 15.6671 4.79702
223 8 4.71335 14.9733 4.70959
224 8 2.77799 16.3581 4.75119
ITEM: TIMESTEP
57
ITEM: NUMBER OF ATOMS
224
ITEM: BOX BOUNDS xy xz yz pp pp pp
-6.8378899494319079e-02 9.6222342056667927e+00 0.0000000000000000e+00
-1.4872014552842749e-01 1.9535719245528448e+01 6.4005510617247507e-01
-1.3089103330058727e-01 1.7193706133300566e+01 0.0000000000000000e+00
ITEM: ATOMS id type x y z
1 1 8.77098 0.385705 3.63809
2 1 4.98207 9.19367 4.72446
3 1 7.08928 5.34681 0.338401
4 1 6.64273 4.22213 8.03461
5 2 7.77334 8.64043 3.08278
6 2 6.14813 0.965126 5.35208
7 2 8.13824 3.64828 0.985409
8 2 5.55351 5.8509 7.30418
9 2 6.51204 8.1997 3.52526
10 2 7.40058 1.37752 4.85232
11 2 0.40514 3.33932 0.623765
12 2 4.3225 6.27825 7.8488
13 2 7.14711 6.75851 1.87789
14 2 6.60408 2.70547 6.67315
15 2 8.78127 1.82665 2.28595
16 2 4.79387 7.61967 5.8765
17 5 1.09087 0.646338 5.20284
18 5 3.66516 8.97335 3.21572
19 5 1.50441 5.44553 7.48122
20 5 3.15114 4.07901 0.965986
21 5 3.16504 0.180709 5.70188
22 5 1.55146 9.41611 2.71293
23 5 8.58917 4.95582 7.07181
24 5 5.20499 4.51465 1.38178
25 3 8.12021 7.69504 2.15171
26 3 5.63338 1.79802 6.37819
27 3 7.7981 2.78221 2.00283
28 3 5.89886 6.74762 6.31174
29 3 6.21265 7.07755 2.82835
30 3 7.59847 2.36805 5.7147
31 3 0.712406 2.27367 1.41663
32 3 3.91494 7.29698 6.94509
33 6 2.1741 0.238303 4.91444
34 6 2.53476 9.32209 3.48517
35 6 0.479806 5.04606 7.84533
36 6 4.25347 4.43636 0.597112
37 4 0.0920052 7.45169 1.8347
38 4 4.652 1.78597 6.86687
39 4 6.78819 2.64413 2.38573
40 4 6.9277 6.81042 6.01323
41 4 5.19781 6.74042 2.6892
42 4 8.59538 2.70204 5.96718
43 4 1.6687 1.7859 1.31311
44 4 2.97083 7.84969 6.90143
45 1 4.55682 0.40199 12.3436
46 1 0.847327 9.15295 13.3477
47 1 2.96478 5.23894 9.01865
48 1 2.43268 4.21796 16.6663
49 2 3.5875 8.35207 12.0463
50 2 1.71804 0.939713 13.8235
51 2 4.02344 3.75784 9.73224
52 2 1.45852 5.9292 16.0997
53 2 2.13887 8.20017 12.0279
54 2 3.1097 1.14713 13.7062
55 2 5.2995 3.34532 9.26581
56 2 9.20814 6.32757 16.5109
57 2 3.05327 6.67085 10.623
58 2 2.41349 2.81173 15.3305
59 2 4.49931 1.74255 10.84
60 2 0.764975 7.61667 14.6668
61 5 5.81076 0.516937 13.8254
62 5 8.48121 9.14034 12.1248
63 5 6.31663 5.59933 16.2892
64 5 8.13647 3.9024 9.52322
65 5 7.88088 0.194908 14.312
66 5 6.32292 9.49975 11.4479
67 5 4.26437 5.03137 15.7509
68 5 1.08049 4.52631 10.0398
69 3 4.18573 7.16453 11.4175
70 3 1.45983 1.86665 14.9061
71 3 3.54747 2.73161 10.6063
72 3 1.8375 6.88162 15.1242
73 3 1.95449 6.99505 11.4373
74 3 3.34836 2.37814 14.3883
75 3 5.54765 2.18293 10.0538
76 3 8.84443 7.30525 15.6208
77 6 6.96627 0.199462 13.5481
78 6 7.25387 9.25302 12.2822
79 6 5.19873 5.20009 16.5455
80 6 9.2036 4.39575 9.25282
81 4 4.84873 7.51847 10.7253
82 4 9.52242 1.86728 15.3518
83 4 2.73725 2.94593 11.3106
84 4 2.57771 6.59481 14.3896
85 4 0.927067 6.68357 11.3384
86 4 4.37804 2.61981 14.5587
87 4 6.52512 1.71113 9.85095
88 4 7.88981 7.79876 15.613
89 1 8.70637 10.2253 3.69264
90 1 5.04398 18.9921 4.69291
91 1 7.12745 15.1308 0.42271
92 1 6.64791 14.0557 8.03245
93 2 7.78201 18.4846 3.11302
94 2 5.87164 11.2507 5.00345
95 2 8.1253 13.4592 0.916017
96 2 5.55873 15.7104 7.34454
97 2 6.41282 18.1847 3.37985
98 2 7.33234 11.3349 4.84362
99 2 0.398257 13.0869 0.60869
100 2 4.34905 16.2526 7.80587
101 2 7.16254 16.6478 1.74612
102 2 6.64116 12.7042 6.51187
103 2 8.61961 11.6827 2.35732
104 2 5.04398 17.5675 6.13022
105 5 1.1563 10.4898 5.09779
106 5 3.63316 18.944 3.17964
107 5 1.4747 15.3875 7.59211
108 5 3.23426 13.9379 0.853677
109 5 3.10208 10.0365 5.80564
110 5 1.5256 19.1944 2.65856
111 5 8.4672 14.9191 7.04498
112 5 5.23718 14.3465 1.39122
113 3 8.11929 17.5647 2.08157
114 3 5.68015 11.7466 6.28948
115 3 7.74256 12.6336 2.00776
116 3 5.99851 16.6121 6.45825
117 3 6.21391 16.9518 2.66636
118 3 7.69952 12.3572 5.64812
119 3 0.567894 12.0192 1.47677
120 3 3.98259 17.2267 6.94024
121 6 2.26899 10.0996 4.9125
122 6 2.46213 19.318 3.42393
123 6 0.37196 15.0481 7.81142
124 6 4.33638 14.3568 0.614852
125 4 0.113802 17.3199 1.90985
126 4 4.67338 12.1014 6.48467
127 4 6.71354 12.5823 2.36891
128 4 6.9249 16.5654 5.90295
129 4 5.21246 16.518 2.72984
130 4 8.65289 12.9228 5.56812
131 4 1.39698 11.3304 1.34593
132 4 3.20386 17.9618 7.1462
133 1 4.4632 10.2062 12.3068
134 1 0.814027 18.9559 13.4345
135 1 2.87863 15.071 9.08885
136 1 2.39336 14.0809 16.6425
137 2 3.42279 18.4469 11.78
138 2 1.86839 10.7257 13.9947
139 2 3.91272 13.4814 9.63794
140 2 1.4409 15.6564 16.0577
141 2 2.06071 18.1316 12.1258
142 2 3.16651 11.1105 13.6329
143 2 5.17156 13.0957 9.21989
144 2 9.23768 16.0471 16.4941
145 2 2.98379 16.5747 10.422
146 2 2.39321 12.6291 15.2385
147 2 4.69317 11.8458 11.0584
148 2 0.755625 17.5611 14.8507
149 5 6.00352 10.3421 13.8349
150 5 8.52806 18.8854 11.8695
151 5 6.30606 15.5036 16.284
152 5 8.17096 13.928 9.43654
153 5 8.03245 10.0463 14.303
154 5 6.39379 19.1293 11.3897
155 5 4.38379 15.0386 15.744
156 5 1.16217 14.3139 10.0287
157 3 3.97643 17.4286 10.8656
158 3 1.52936 11.629 15.0155
159 3 3.68504 12.6922 10.6929
160 3 1.68188 16.6189 15.0908
161 3 1.89615 17.0446 11.2493
162 3 3.41454 12.172 14.4414
163 3 5.45554 12.024 9.98629
164 3 8.903 17.1543 15.7399
165 6 7.05519 9.8803 13.6286
166 6 7.34417 19.1149 12.1482
167 6 5.24478 15.008 16.5504
168 6 9.20332 14.4748 9.29644
169 4 4.95051 17.4758 10.38
170 4 0.588952 11.6178 15.55
171 4 3.06023 13.0475 11.5062
172 4 2.70328 16.7508 14.7828
173 4 1.08514 16.3581 11.4354
174 4 4.18152 12.9317 14.2025
175 4 6.45136 11.6328 9.97411
176 4 7.89883 17.5845 15.7919
177 7 3.00198 9.77285 9.76792
178 8 3.1522 9.17537 8.71939
179 8 2.42464 10.3948 10.5933
180 7 9.14048 11.6544 10.6159
181 8 8.38063 11.6146 11.5205
182 8 0.715103 11.8485 9.6861
183 7 7.26437 6.67599 9.99122
184 8 7.35463 6.25286 8.96187
185 8 7.12401 7.14225 10.9947
186 7 1.80767 10.5727 7.9391
187 8 1.03066 9.79902 7.58911
188 8 2.61197 11.3286 8.34037
189 7 6.34929 9.17464 7.28231
190 8 7.14087 8.92236 6.371
191 8 5.68282 8.95291 8.23767
192 7 0.197705 7.72268 6.96594
193 8 0.905428 7.33552 6.09426
194 8 8.39332 7.89708 7.74085
195 7 0.948569 8.29299 9.48058
196 8 0.900695 7.28019 9.04353
197 8 0.732024 9.35527 9.94957
198 7 7.77385 10.3596 8.58284
199 8 8.29473 11.1036 7.8791
200 8 7.5077 9.46858 9.20986
201 7 6.16578 14.6616 12.5214
202 8 6.10371 15.5799 13.2652
203 8 6.17868 14.0783 11.5394
204 7 7.06312 13.5709 14.6685
205 8 7.89689 13.9464 13.9008
206 8 6.5412 12.858 15.4708
207 7 6.17471 4.43445 13.3116
208 8 5.57256 4.76698 12.3158
209 8 6.78669 3.95919 14.1591
210 7 8.95605 4.23799 12.7299
211 8 9.22422 4.80547 13.7461
212 8 8.7087 3.33749 12.0347
213 7 3.60886 4.56001 5.38155
214 8 2.91143 3.8273 5.92127
215 8 4.16632 5.43842 4.78751
216 7 4.30857 2.26793 2.72656
217 8 4.35843 1.71971 1.69755
218 8 4.26336 2.59906 3.86624
219 7 2.26535 13.5242 4.58953
220 8 2.05683 13.581 5.72898
221 8 2.65615 13.5278 3.48024
222 7 3.75676 15.6692 4.79364
223 8 4.7096 14.9714 4.70341
224 8 2.77805 16.3623 4.74906
ITEM: TIMESTEP
58
ITEM: NUMBER OF ATOMS
224
ITEM: BOX BOUNDS xy xz yz pp pp pp
-7.0212248060916416e-02 9.6243268629106176e+00 0.0000000000000000e+00
-1.5270757246341660e-01 1.9539706672463439e+01 6.4031441484970253e-01
-1.3440043298465021e-01 1.7197215532984629e+01 0.0000000000000000e+00
ITEM: ATOMS id type x y z
1 1 8.77366 0.381687 3.63558
2 1 4.98127 9.19448 4.72273
3 1 7.08949 5.34531 0.334237
4 1 6.64419 4.21992 8.03497
5 2 7.77577 8.64128 3.08135
6 2 6.15185 0.960203 5.34964
7 2 8.13909 3.64709 0.981916
8 2 5.55154 5.84744 7.30159
9 2 6.51289 8.19902 3.5244
10 2 7.3997 1.37331 4.85069
11 2 0.404722 3.33724 0.620541
12 2 4.32048 6.27954 7.84697
13 2 7.1493 6.75491 1.87517
14 2 6.60332 2.7027 6.67453
15 2 8.78218 1.82251 2.28416
16 2 4.79113 7.61747 5.8719
17 5 1.09119 0.643073 5.20235
18 5 3.66353 8.97388 3.21311
19 5 1.50354 5.44017 7.4793
20 5 3.1515 4.07841 0.964432
21 5 3.16388 0.177091 5.70077
22 5 1.55226 9.41647 2.71171
23 5 8.59174 4.95115 7.07017
24 5 5.20331 4.51375 1.37839
25 3 8.12083 7.69384 2.15009
26 3 5.63608 1.7952 6.37777
27 3 7.80189 2.77829 2.0003
28 3 5.8946 6.7459 6.30844
29 3 6.21466 7.07625 2.82908
30 3 7.60097 2.36585 5.71319
31 3 0.711458 2.27095 1.41397
32 3 3.91505 7.2922 6.94329
33 6 2.17151 0.234554 4.90904
34 6 2.53488 9.32194 3.48459
35 6 0.480821 5.04054 7.84832
36 6 4.2521 4.43503 0.592726
37 4 0.0946206 7.44561 1.8347
38 4 4.65428 1.78463 6.86836
39 4 6.79657 2.63209 2.38355
40 4 6.91924 6.80042 6.00554
41 4 5.20111 6.74027 2.68767
42 4 8.59557 2.70286 5.97404
43 4 1.66498 1.78505 1.30821
44 4 2.9645 7.84281 6.89667
45 1 4.55751 0.398034 12.3453
46 1 0.845891 9.15295 13.3489
47 1 2.96463 5.2357 9.01825
48 1 2.43226 4.21587 16.6698
49 2 3.58823 8.34472 12.0535
50 2 1.71727 0.936155 13.8242
51 2 4.02674 3.75639 9.73284
52 2 1.45669 5.92797 16.1036
53 2 2.1385 8.19944 12.0308
54 2 3.10768 1.14191 13.7096
55 2 5.29873 3.34461 9.26602
56 2 9.21098 6.32706 16.5143
57 2 3.05836 6.66587 10.63
58 2 2.41199 2.80848 15.3326
59 2 4.49957 1.73828 10.8388
60 2 0.762322 7.61667 14.6672
61 5 5.81032 0.511638 13.8276
62 5 8.48056 9.14292 12.13
63 5 6.31595 5.59957 16.2925
64 5 8.1412 3.89733 9.52392
65 5 7.87908 0.191667 14.3132
66 5 6.32406 9.50241 11.4532
67 5 4.26471 5.02884 15.7539
68 5 1.07891 4.52552 10.0401
69 3 4.18587 7.15486 11.4274
70 3 1.45933 1.86497 14.9084
71 3 3.54887 2.72687 10.6067
72 3 1.83626 6.88279 15.1271
73 3 1.95554 6.99009 11.442
74 3 3.34718 2.37439 14.391
75 3 5.54671 2.17772 10.056
76 3 8.84627 7.30413 15.6237
77 6 6.96707 0.195068 13.5484
78 6 7.2538 9.25158 12.2866
79 6 5.1974 5.19777 16.5546
80 6 9.20657 4.39225 9.25153
81 4 4.85079 7.51215 10.746
82 4 9.52392 1.86636 15.3494
83 4 2.73636 2.94408 11.3158
84 4 2.57641 6.58719 14.3936
85 4 0.927448 6.6837 11.3386
86 4 4.3697 2.6122 14.5661
87 4 6.52709 1.70756 9.84522
88 4 7.90025 7.79577 15.611
89 1 8.70792 10.2253 3.69101
90 1 5.04423 18.9961 4.69074
91 1 7.12829 15.1324 0.419738
92 1 6.64928 14.0574 8.03269
93 2 7.78308 18.4892 3.11151
94 2 5.87262 11.2571 4.99521
95 2 8.12591 13.4605 0.912883
96 2 5.55706 15.7112 7.34547
97 2 6.4138 18.189 3.37644
98 2 7.33125 11.3386 4.84025
99 2 0.396779 13.0872 0.605517
100 2 4.34901 16.2563 7.80618
101 2 7.16396 16.6499 1.74343
102 2 6.64204 12.7096 6.50964
103 2 8.62002 11.6812 2.35654
104 2 5.04589 17.5737 6.12811
105 5 1.1566 10.4915 5.09483
106 5 3.63277 18.9501 3.17578
107 5 1.47124 15.3903 7.59221
108 5 3.23445 13.9406 0.851038
109 5 3.09978 10.0367 5.80449
110 5 1.52618 19.198 2.65673
111 5 8.47037 14.9208 7.04618
112 5 5.23628 14.3493 1.38836
113 3 8.12039 17.5676 2.07823
114 3 5.68001 11.751 6.28742
115 3 7.74439 12.6349 2.005
116 3 5.99993 16.6177 6.45737
117 3 6.21722 16.955 2.66305
118 3 7.6989 12.3608 5.64466
119 3 0.564381 12.0202 1.47423
120 3 3.98259 17.2309 6.94057
121 6 2.26944 10.1 4.90921
122 6 2.45837 19.3249 3.42369
123 6 0.370474 15.0526 7.81048
124 6 4.33768 14.3605 0.610484
125 4 0.114477 17.3224 1.91499
126 4 4.68125 12.114 6.48257
127 4 6.70769 12.5885 2.35827
128 4 6.91652 16.5754 5.90003
129 4 5.21188 16.5299 2.73193
130 4 8.66493 12.9318 5.56211
131 4 1.39578 11.3249 1.34188
132 4 3.20495 17.9734 7.14933
133 1 4.46259 10.2057 12.3082
134 1 0.811951 18.9593 13.437
135 1 2.87704 15.0717 9.08942
136 1 2.39243 14.083 16.6454
137 2 3.42248 18.45 11.7806
138 2 1.86782 10.7244 13.9977
139 2 3.91181 13.4852 9.63788
140 2 1.43795 15.6562 16.063
141 2 2.05817 18.1347 12.1265
142 2 3.16661 11.1102 13.6351
143 2 5.17242 13.0963 9.21774
144 2 9.24086 16.0485 16.4977
145 2 2.98312 16.5759 10.4232
146 2 2.39258 12.6329 15.242
147 2 4.69596 11.8473 11.0627
148 2 0.754507 17.5657 14.8535
149 5 6.00524 10.341 13.8374
150 5 8.52853 18.8912 11.8705
151 5 6.3059 15.509 16.2884
152 5 8.17596 13.9313 9.43606
153 5 8.03348 10.0469 14.3036
154 5 6.39632 19.1315 11.3921
155 5 4.38491 15.0422 15.7476
156 5 1.16082 14.3179 10.0278
157 3 3.97416 17.4309 10.8694
158 3 1.52952 11.6287 15.0183
159 3 3.68756 12.6948 10.6958
160 3 1.67995 16.6241 15.0913
161 3 1.89595 17.0489 11.2495
162 3 3.41399 12.1711 14.4433
163 3 5.45548 12.0229 9.98463
164 3 8.90478 17.1573 15.7445
165 6 7.05624 9.87823 13.6323
166 6 7.34521 19.1176 12.1501
167 6 5.24444 15.0122 16.5571
168 6 9.20496 14.4797 9.2984
169 4 4.94846 17.4841 10.3909
170 4 0.58322 11.6114 15.5481
171 4 3.06317 13.0596 11.5146
172 4 2.699 16.7578 14.788
173 4 1.08904 16.3598 11.4336
174 4 4.17897 12.941 14.203
175 4 6.44761 11.6397 9.97401
176 4 7.89199 17.5877 15.8013
177 7 2.9994 9.77689 9.76378
178 8 3.14936 9.18499 8.71377
179 8 2.42106 10.3936 10.5926
180 7 9.14188 11.6551 10.6165
181 8 8.38312 11.6216 11.5216
182 8 0.713274 11.8448 9.68591
183 7 7.26575 6.67429 9.99038
184 8 7.35541 6.2519 8.9593
185 8 7.12375 7.13933 10.9991
186 7 1.80751 10.5741 7.93902
187 8 1.0296 9.79819 7.59144
188 8 2.61281 11.3306 8.33717
189 7 6.35191 9.17662 7.28271
190 8 7.14548 8.91775 6.37154
191 8 5.68199 8.95839 8.24146
192 7 0.1975 7.7212 6.96369
193 8 0.902881 7.3345 6.0911
194 8 8.39651 7.89457 7.73768
195 7 0.946473 8.29495 9.48012
196 8 0.896052 7.28159 9.04294
197 8 0.731729 9.35396 9.9495
198 7 7.77639 10.3607 8.58395
199 8 8.29871 11.1051 7.88143
200 8 7.50879 9.46601 9.21029
201 7 6.16628 14.6666 12.5239
202 8 6.10512 15.5849 13.2648
203 8 6.1788 14.0812 11.5415
204 7 7.06631 13.5709 14.6698
205 8 7.89923 13.9475 13.9031
206 8 6.54603 12.8555 15.4695
207 7 6.17431 4.43278 13.3136
208 8 5.5727 4.7653 12.3186
209 8 6.7877 3.95569 14.1615
210 7 8.95837 4.23688 12.732
211 8 9.22725 4.80466 13.7478
212 8 8.70933 3.33401 12.0383
213 7 3.60693 4.55809 5.37941
214 8 2.90714 3.82328 5.92212
215 8 4.16306 5.43428 4.78299
216 7 4.30956 2.2649 2.72478
217 8 4.36055 1.7143 1.69292
218 8 4.26367 2.59563 3.86552
219 7 2.26472 13.5234 4.5873
220 8 2.05694 13.5806 5.72876
221 8 2.65606 13.5272 3.47793
222 7 3.75531 15.6714 4.79021
223 8 4.70581 14.9696 4.69723
224 8 2.77816 16.3665 4.74692
ITEM: TIMESTEP
59
ITEM: NUMBER OF ATOMS
224
ITEM: BOX BOUNDS xy xz yz pp pp pp
-7.2047396827273680e-02 9.6264215749743123e+00 0.0000000000000000e+00
-1.5669891472860797e-01 1.9543698014728633e+01 6.4057397814704264e-01
-1.3791327861488512e-01 1.7200728378614862e+01 0.0000000000000000e+00
ITEM: ATOMS id type x y z
1 1 8.77635 0.377669 3.63306
2 1 4.98047 9.1953 4.72098
3 1 7.0897 5.34381 0.330079
4 1 6.64565 4.21771 8.03534
5 2 7.77817 8.64208 3.07993
6 2 6.15553 0.955257 5.34721
7 2 8.13995 3.64591 0.978418
8 2 5.54951 5.844 7.29901
9 2 6.51374 8.19838 3.5235
10 2 7.39878 1.36906 4.84912
11 2 0.404274 3.33516 0.617345
12 2 4.31845 6.28083 7.84505
13 2 7.15151 6.7513 1.87247
14 2 6.60259 2.69992 6.67586
15 2 8.78308 1.81839 2.28232
16 2 4.78849 7.61524 5.86745
17 5 1.09147 0.639809 5.20187
18 5 3.66191 8.9744 3.21047
19 5 1.50276 5.4348 7.4774
20 5 3.15185 4.07781 0.962846
21 5 3.16268 0.173473 5.69963
22 5 1.55309 9.41681 2.7105
23 5 8.59431 4.94648 7.06851
24 5 5.20162 4.51284 1.37497
25 3 8.12145 7.69261 2.14844
26 3 5.63886 1.79239 6.3773
27 3 7.80573 2.77434 1.99777
28 3 5.89022 6.74417 6.30514
29 3 6.21668 7.07495 2.82975
30 3 7.60345 2.36372 5.71176
31 3 0.710489 2.26821 1.41133
32 3 3.91519 7.28744 6.94141
33 6 2.16906 0.230754 4.90365
34 6 2.53491 9.32186 3.48406
35 6 0.481656 5.03491 7.85128
36 6 4.25082 4.43374 0.588374
37 4 0.0971293 7.43982 1.83483
38 4 4.65664 1.78312 6.86971
39 4 6.8049 2.62019 2.38126
40 4 6.91083 6.7901 5.99742
41 4 5.20428 6.7401 2.68628
42 4 8.5959 2.70365 5.98062
43 4 1.66134 1.78407 1.30333
44 4 2.95834 7.83553 6.89223
45 1 4.5582 0.394069 12.3471
46 1 0.844447 9.15295 13.3501
47 1 2.96447 5.23246 9.01787
48 1 2.43184 4.21378 16.6734
49 2 3.5889 8.33729 12.0607
50 2 1.71657 0.932655 13.825
51 2 4.03003 3.75488 9.73345
52 2 1.45481 5.92677 16.1075
53 2 2.13824 8.19865 12.0336
54 2 3.10563 1.13677 13.713
55 2 5.29792 3.34382 9.26631
56 2 9.21383 6.32652 16.5177
57 2 3.06348 6.66087 10.637
58 2 2.41049 2.80516 15.3346
59 2 4.49985 1.73402 10.8376
60 2 0.759676 7.6167 14.6677
61 5 5.80991 0.506329 13.8298
62 5 8.47987 9.14548 12.1352
63 5 6.31526 5.5998 16.2958
64 5 8.14591 3.89225 9.52461
65 5 7.87733 0.18843 14.3144
66 5 6.32524 9.50505 11.4586
67 5 4.26507 5.02633 15.757
68 5 1.07733 4.52473 10.0403
69 3 4.18577 7.14536 11.4371
70 3 1.45883 1.86324 14.9107
71 3 3.55033 2.72218 10.607
72 3 1.83498 6.8839 15.13
73 3 1.95663 6.98516 11.4468
74 3 3.34599 2.3706 14.3937
75 3 5.54577 2.1726 10.0582
76 3 8.84817 7.30302 15.6265
77 6 6.96788 0.190623 13.5487
78 6 7.25372 9.25022 12.291
79 6 5.19598 5.19539 16.5637
80 6 9.20965 4.38878 9.25024
81 4 4.85363 7.50586 10.7665
82 4 9.52536 1.86556 15.3469
83 4 2.73554 2.94208 11.3209
84 4 2.57522 6.57959 14.3976
85 4 0.927799 6.68366 11.3386
86 4 4.3616 2.6047 14.5736
87 4 6.52872 1.7037 9.83977
88 4 7.91041 7.7928 15.6092
89 1 8.70948 10.2252 3.68938
90 1 5.04448 19.0002 4.68856
91 1 7.12914 15.1339 0.416759
92 1 6.65065 14.0592 8.03293
93 2 7.7841 18.4938 3.10996
94 2 5.87375 11.2632 4.98706
95 2 8.12654 13.4617 0.909809
96 2 5.55538 15.7121 7.34642
97 2 6.41484 18.1933 3.37299
98 2 7.33008 11.3422 4.83689
99 2 0.395236 13.0875 0.602373
100 2 4.34895 16.2598 7.80649
101 2 7.16541 16.652 1.74076
102 2 6.64294 12.715 6.5074
103 2 8.62046 11.6797 2.35573
104 2 5.0478 17.5799 6.12602
105 5 1.15686 10.4932 5.09189
106 5 3.63233 18.9562 3.17192
107 5 1.46783 15.3931 7.59226
108 5 3.23462 13.9433 0.848399
109 5 3.0975 10.0369 5.8033
110 5 1.52673 19.2016 2.6549
111 5 8.47356 14.9225 7.04737
112 5 5.23542 14.352 1.38551
113 3 8.12149 17.5705 2.07494
114 3 5.67988 11.7555 6.28525
115 3 7.7462 12.6363 2.00219
116 3 6.00131 16.6234 6.45646
117 3 6.22049 16.9584 2.65979
118 3 7.69825 12.3644 5.64123
119 3 0.560899 12.0212 1.47168
120 3 3.98264 17.2352 6.94091
121 6 2.26992 10.1005 4.90586
122 6 2.45467 19.3319 3.42349
123 6 0.368896 15.057 7.80964
124 6 4.33896 14.3642 0.606076
125 4 0.115109 17.3249 1.92004
126 4 4.68898 12.1264 6.48056
127 4 6.70194 12.5948 2.34758
128 4 6.90833 16.5853 5.89713
129 4 5.21143 16.5417 2.73371
130 4 8.67654 12.9406 5.55608
131 4 1.39457 11.3196 1.33776
132 4 3.20607 17.9848 7.1526
133 1 4.462 10.2052 12.3097
134 1 0.809863 18.9627 13.4395
135 1 2.87546 15.0723 9.08999
136 1 2.3915 14.0851 16.6484
137 2 3.42217 18.4531 11.7812
138 2 1.86727 10.7232 14.0008
139 2 3.91095 13.489 9.63783
140 2 1.43496 15.6561 16.0682
141 2 2.05576 18.1377 12.1271
142 2 3.16667 11.1098 13.6374
143 2 5.17327 13.0969 9.2156
144 2 9.24401 16.0499 16.5013
145 2 2.98242 16.5773 10.4245
146 2 2.39197 12.6367 15.2455
147 2 4.69868 11.8487 11.067
148 2 0.753404 17.5702 14.8563
149 5 6.00689 10.34 13.84
150 5 8.52898 18.8971 11.8716
151 5 6.30576 15.5145 16.2929
152 5 8.1809 13.9347 9.43562
153 5 8.03455 10.0475 14.3043
154 5 6.39884 19.1338 11.3946
155 5 4.38597 15.0458 15.7513
156 5 1.15943 14.3219 10.0268
157 3 3.97179 17.4333 10.8732
158 3 1.52965 11.6284 15.0211
159 3 3.69006 12.6973 10.6986
160 3 1.67807 16.6292 15.0918
161 3 1.89579 17.0531 11.2497
162 3 3.41345 12.1703 14.4452
163 3 5.45546 12.0219 9.98296
164 3 8.90652 17.1603 15.7491
165 6 7.05732 9.87612 13.636
166 6 7.34623 19.1205 12.1521
167 6 5.24412 15.0164 16.5639
168 6 9.20671 14.4846 9.3003
169 4 4.94641 17.4924 10.4019
170 4 0.577397 11.605 15.5462
171 4 3.066 13.0717 11.5228
172 4 2.69486 16.7648 14.7931
173 4 1.09276 16.3616 11.4318
174 4 4.17634 12.9499 14.2034
175 4 6.44402 11.6465 9.97393
176 4 7.88535 17.591 15.8107
177 7 2.99675 9.78091 9.75958
178 8 3.14658 9.1946 8.7083
179 8 2.4176 10.3924 10.592
180 7 9.14318 11.6557 10.6171
181 8 8.38565 11.6286 11.5228
182 8 0.711475 11.8411 9.68571
183 7 7.26715 6.67261 9.98954
184 8 7.35618 6.25092 8.95668
185 8 7.12348 7.13639 11.0036
186 7 1.80739 10.5757 7.93895
187 8 1.02855 9.79735 7.59375
188 8 2.61362 11.3327 8.33391
189 7 6.35458 9.17847 7.28303
190 8 7.14999 8.91329 6.37213
191 8 5.68115 8.96389 8.24518
192 7 0.197284 7.71967 6.96138
193 8 0.900295 7.33355 6.08794
194 8 8.39973 7.89205 7.73446
195 7 0.944309 8.29713 9.47974
196 8 0.891461 7.28287 9.04236
197 8 0.731416 9.35258 9.94941
198 7 7.77904 10.3618 8.58502
199 8 8.30265 11.1068 7.88375
200 8 7.50986 9.46341 9.2108
201 7 6.16676 14.6718 12.5263
202 8 6.10652 15.5898 13.2645
203 8 6.17895 14.084 11.5435
204 7 7.06959 13.5707 14.6711
205 8 7.90153 13.9486 13.9055
206 8 6.55086 12.8531 15.4682
207 7 6.17384 4.43111 13.3154
208 8 5.57289 4.7636 12.3215
209 8 6.78871 3.95219 14.1639
210 7 8.96073 4.23571 12.7341
211 8 9.23027 4.80384 13.7494
212 8 8.70995 3.33054 12.042
213 7 3.60502 4.55628 5.3772
214 8 2.90286 3.81923 5.92298
215 8 4.15976 5.43004 4.77846
216 7 4.31053 2.26182 2.72304
217 8 4.36267 1.70891 1.68832
218 8 4.26398 2.5922 3.86472
219 7 2.26413 13.5226 4.58503
220 8 2.05703 13.5803 5.72854
221 8 2.65593 13.5266 3.47566
222 7 3.75384 15.6735 4.78673
223 8 4.70198 14.9678 4.69106
224 8 2.77832 16.3706 4.74477
ITEM: TIMESTEP
60
ITEM: NUMBER OF ATOMS
224
ITEM: BOX BOUNDS xy xz yz pp pp pp
-7.3883351902000349e-02 9.6285172073905692e+00 0.0000000000000000e+00
-1.6069201066779648e-01 1.9547691110667824e+01 6.4083365548857518e-01
-1.4142766768229542e-01 1.7204242767682274e+01 0.0000000000000000e+00
ITEM: ATOMS id type x y z
1 1 8.77904 0.373655 3.63054
2 1 4.97968 9.19613 4.71924
3 1 7.08992 5.3423 0.325928
4 1 6.64712 4.2155 8.0357
5 2 7.78054 8.64284 3.07854
6 2 6.15915 0.950292 5.34478
7 2 8.14084 3.64473 0.974917
8 2 5.54741 5.84057 7.29642
9 2 6.51459 8.19777 3.52258
10 2 7.39783 1.36479 4.84762
11 2 0.403794 3.33306 0.614178
12 2 4.31642 6.28211 7.84303
13 2 7.15372 6.7477 1.86979
14 2 6.60188 2.69715 6.67714
15 2 8.78397 1.8143 2.28045
16 2 4.78595 7.61298 5.86313
17 5 1.09171 0.636548 5.20138
18 5 3.6603 8.97492 3.20782
19 5 1.50207 5.4294 7.47553
20 5 3.15218 4.07722 0.961229
21 5 3.16142 0.169858 5.69843
22 5 1.55395 9.41713 2.7093
23 5 8.59688 4.94179 7.06684
24 5 5.19993 4.51193 1.37154
25 3 8.12207 7.69136 2.14677
26 3 5.64171 1.78957 6.37676
27 3 7.8096 2.77035 1.99523
28 3 5.8857 6.74242 6.30184
29 3 6.21872 7.07365 2.83034
30 3 7.6059 2.36167 5.71043
31 3 0.709497 2.26546 1.4087
32 3 3.91536 7.28269 6.93945
33 6 2.16676 0.226905 4.89828
34 6 2.53485 9.32184 3.48358
35 6 0.482306 5.02919 7.85418
36 6 4.24965 4.43249 0.584062
37 4 0.099472 7.43432 1.83511
38 4 4.65909 1.78144 6.87092
39 4 6.81316 2.60843 2.37885
40 4 6.90251 6.77948 5.98887
41 4 5.20728 6.73989 2.68504
42 4 8.59637 2.70438 5.98689
43 4 1.6578 1.78294 1.29848
44 4 2.95238 7.82784 6.88812
45 1 4.55889 0.390096 12.3488
46 1 0.842994 9.15295 13.3513
47 1 2.96431 5.22923 9.01749
48 1 2.43142 4.2117 16.6769
49 2 3.58951 8.32977 12.0679
50 2 1.71593 0.929215 13.826
51 2 4.03331 3.75329 9.73407
52 2 1.45289 5.92562 16.1114
53 2 2.13811 8.19781 12.0366
54 2 3.10354 1.13172 13.7164
55 2 5.29706 3.34296 9.26668
56 2 9.21669 6.32597 16.5211
57 2 3.06863 6.65582 10.6442
58 2 2.40898 2.80177 15.3365
59 2 4.50012 1.72977 10.8365
60 2 0.757039 7.61674 14.6683
61 5 5.80952 0.501013 13.832
62 5 8.47915 9.14802 12.1403
63 5 6.31457 5.60005 16.2991
64 5 8.1506 3.88716 9.52528
65 5 7.87562 0.185199 14.3157
66 5 6.32646 9.50768 11.464
67 5 4.26545 5.02383 15.76
68 5 1.07575 4.52393 10.0406
69 3 4.18544 7.13604 11.4467
70 3 1.45831 1.86146 14.913
71 3 3.55185 2.71755 10.6073
72 3 1.83365 6.88495 15.1329
73 3 1.95778 6.98027 11.4515
74 3 3.34478 2.36675 14.3964
75 3 5.54486 2.16757 10.0603
76 3 8.85015 7.30193 15.6293
77 6 6.9687 0.18613 13.549
78 6 7.25363 9.24892 12.2955
79 6 5.19448 5.19295 16.5729
80 6 9.21285 4.38532 9.24896
81 4 4.85726 7.49959 10.7865
82 4 9.52673 1.86488 15.3444
83 4 2.73485 2.93992 11.3259
84 4 2.57414 6.57203 14.4017
85 4 0.928123 6.68346 11.3383
86 4 4.35383 2.59733 14.5812
87 4 6.52998 1.69956 9.83461
88 4 7.92021 7.78989 15.6075
89 1 8.71104 10.2252 3.68775
90 1 5.04473 19.0042 4.68638
91 1 7.12999 15.1355 0.413775
92 1 6.65202 14.0609 8.03317
93 2 7.78506 18.4983 3.10836
94 2 5.87499 11.2693 4.97901
95 2 8.12721 13.4629 0.906798
96 2 5.5537 15.713 7.34739
97 2 6.41595 18.1975 3.36949
98 2 7.32882 11.3458 4.83355
99 2 0.393626 13.0878 0.599261
100 2 4.34887 16.2633 7.80681
101 2 7.16686 16.6541 1.73811
102 2 6.64385 12.7205 6.50515
103 2 8.62093 11.6782 2.35486
104 2 5.04971 17.5861 6.12395
105 5 1.15709 10.495 5.08896
106 5 3.63184 18.9623 3.16806
107 5 1.46448 15.3959 7.59228
108 5 3.23477 13.946 0.84576
109 5 3.09525 10.0371 5.80206
110 5 1.52726 19.2052 2.65308
111 5 8.47676 14.9242 7.04856
112 5 5.2346 14.3548 1.38268
113 3 8.12259 17.5734 2.07169
114 3 5.67976 11.7602 6.28297
115 3 7.74799 12.6377 1.99934
116 3 6.00264 16.6291 6.45554
117 3 6.22372 16.9619 2.65658
118 3 7.69757 12.368 5.63782
119 3 0.557453 12.0222 1.46912
120 3 3.98276 17.2395 6.94125
121 6 2.27043 10.1008 4.90246
122 6 2.45105 19.3388 3.42333
123 6 0.367225 15.0613 7.80891
124 6 4.34022 14.3678 0.601633
125 4 0.115673 17.3275 1.925
126 4 4.69652 12.1386 6.47865
127 4 6.69635 12.601 2.33683
128 4 6.90041 16.5949 5.89419
129 4 5.21112 16.5533 2.73517
130 4 8.68758 12.9491 5.55006
131 4 1.39332 11.3145 1.33356
132 4 3.20727 17.9959 7.15602
133 1 4.46141 10.2048 12.3111
134 1 0.807764 18.9662 13.442
135 1 2.87388 15.073 9.09055
136 1 2.39058 14.0871 16.6514
137 2 3.42186 18.4561 11.7817
138 2 1.86675 10.722 14.0039
139 2 3.91015 13.4928 9.63778
140 2 1.43194 15.656 16.0735
141 2 2.05348 18.1407 12.1277
142 2 3.16668 11.1095 13.6397
143 2 5.17411 13.0976 9.21346
144 2 9.24712 16.0514 16.5048
145 2 2.98167 16.5786 10.4258
146 2 2.39138 12.6404 15.249
147 2 4.70135 11.8501 11.0712
148 2 0.752313 17.5747 14.8591
149 5 6.00847 10.339 13.8426
150 5 8.52941 18.9029 11.8727
151 5 6.30565 15.52 16.2974
152 5 8.18578 13.938 9.43522
153 5 8.03566 10.0481 14.3051
154 5 6.40136 19.136 11.397
155 5 4.38695 15.0495 15.7549
156 5 1.15801 14.326 10.0259
157 3 3.96931 17.4357 10.877
158 3 1.52976 11.6281 15.0239
159 3 3.69254 12.6999 10.7016
160 3 1.67623 16.6342 15.0924
161 3 1.89566 17.0572 11.2499
162 3 3.41294 12.1696 14.4471
163 3 5.45547 12.0208 9.98129
164 3 8.90822 17.1632 15.7538
165 6 7.05842 9.87399 13.6396
166 6 7.34722 19.1234 12.1541
167 6 5.24383 15.0206 16.5706
168 6 9.20858 14.4896 9.30214
169 4 4.94437 17.5008 10.4129
170 4 0.571523 11.5985 15.5441
171 4 3.06878 13.0838 11.5308
172 4 2.69089 16.772 14.7981
173 4 1.09629 16.3634 11.4301
174 4 4.17358 12.9583 14.2037
175 4 6.44065 11.6532 9.97387
176 4 7.87901 17.5942 15.8201
177 7 2.99403 9.7849 9.75532
178 8 3.14386 9.20419 8.70299
179 8 2.41426 10.3912 10.5913
180 7 9.14439 11.6564 10.6178
181 8 8.38822 11.6357 11.5239
182 8 0.709706 11.8374 9.6855
183 7 7.26854 6.67094 9.98869
184 8 7.35696 6.24993 8.95402
185 8 7.12322 7.13342 11.0082
186 7 1.80731 10.5773 7.93887
187 8 1.02751 9.7965 7.59602
188 8 2.61439 11.3348 8.33057
189 7 6.35729 9.18018 7.2833
190 8 7.15438 8.90897 6.37279
191 8 5.6803 8.96943 8.24881
192 7 0.197055 7.7181 6.95903
193 8 0.897672 7.33265 6.08479
194 8 8.40298 7.88951 7.7312
195 7 0.942078 8.29951 9.47944
196 8 0.886927 7.28405 9.04178
197 8 0.731083 9.35114 9.94931
198 7 7.78178 10.363 8.58607
199 8 8.30655 11.1084 7.88606
200 8 7.51093 9.46079 9.21138
201 7 6.16723 14.6771 12.5288
202 8 6.10791 15.5948 13.2642
203 8 6.17912 14.0868 11.5456
204 7 7.07297 13.5704 14.6725
205 8 7.90378 13.9497 13.908
206 8 6.55569 12.8508 15.4669
207 7 6.1733 4.42946 13.3172
208 8 5.57313 4.76189 12.3245
209 8 6.78971 3.94868 14.1664
210 7 8.96312 4.2345 12.7364
211 8 9.23328 4.80302 13.751
212 8 8.71057 3.32709 12.0456
213 7 3.60312 4.55457 5.37493
214 8 2.89861 3.81517 5.92385
215 8 4.15642 5.42569 4.77394
216 7 4.31151 2.2587 2.72136
217 8 4.36479 1.70355 1.68374
218 8 4.2643 2.58877 3.86386
219 7 2.26358 13.5218 4.58273
220 8 2.05712 13.5799 5.7283
221 8 2.65577 13.526 3.47343
222 7 3.75235 15.6757 4.78322
223 8 4.6981 14.966 4.68491
224 8 2.77854 16.3747 4.74262
ITEM: TIMESTEP
61
ITEM: NUMBER OF ATOMS
224
ITEM: BOX BOUNDS xy xz yz pp pp pp
-7.5719139030590021e-02 9.6306126481064052e+00 0.0000000000000000e+00
-1.6468474133386479e-01 1.9551683841333890e+01 6.4109330907581930e-01
-1.4494173526685650e-01 1.7207756835266835e+01 0.0000000000000000e+00
ITEM: ATOMS id type x y z
1 1 8.78172 0.369645 3.62803
2 1 4.97888 9.19695 4.71749
3 1 7.09015 5.34079 0.321787
4 1 6.64858 4.21329 8.03606
5 2 7.78287 8.64355 3.07717
6 2 6.16271 0.94531 5.34237
7 2 8.14176 3.64356 0.971416
8 2 5.54525 5.83715 7.29384
9 2 6.51544 8.19719 3.52163
10 2 7.39686 1.36049 4.84617
11 2 0.40328 3.33096 0.611043
12 2 4.3144 6.28339 7.84092
13 2 7.15595 6.7441 1.86714
14 2 6.60121 2.69437 6.67838
15 2 8.78486 1.81024 2.27854
16 2 4.7835 7.61069 5.85896
17 5 1.09191 0.633292 5.20089
18 5 3.6587 8.97543 3.20516
19 5 1.50147 5.42398 7.47369
20 5 3.1525 4.07664 0.959581
21 5 3.16012 0.166247 5.69719
22 5 1.55484 9.41744 2.70811
23 5 8.59946 4.9371 7.06518
24 5 5.19823 4.51102 1.36808
25 3 8.12269 7.69008 2.14506
26 3 5.64464 1.78674 6.37617
27 3 7.81352 2.76633 1.9927
28 3 5.88106 6.74067 6.29855
29 3 6.22077 7.07235 2.83087
30 3 7.60833 2.35969 5.70919
31 3 0.70848 2.26271 1.40609
32 3 3.91556 7.27796 6.93742
33 6 2.16462 0.223012 4.89293
34 6 2.5347 9.32189 3.48315
35 6 0.482767 5.02336 7.85703
36 6 4.24857 4.43127 0.579798
37 4 0.101592 7.42914 1.83556
38 4 4.66163 1.77959 6.87198
39 4 6.82129 2.59682 2.37634
40 4 6.89429 6.76859 5.97986
41 4 5.21013 6.73967 2.68396
42 4 8.59698 2.70505 5.99284
43 4 1.65441 1.78162 1.29366
44 4 2.94669 7.81974 6.88437
45 1 4.55956 0.386117 12.3506
46 1 0.841535 9.15295 13.3525
47 1 2.96415 5.22601 9.01711
48 1 2.431 4.20962 16.6804
49 2 3.59007 8.32217 12.075
50 2 1.71537 0.925839 13.827
51 2 4.03657 3.75164 9.73469
52 2 1.45093 5.92451 16.1153
53 2 2.13811 8.1969 12.0396
54 2 3.10142 1.12675 13.7199
55 2 5.29616 3.34203 9.26711
56 2 9.21955 6.32539 16.5244
57 2 3.07379 6.65074 10.6514
58 2 2.40747 2.79832 15.3383
59 2 4.5004 1.72554 10.8354
60 2 0.754412 7.61681 14.6689
61 5 5.80915 0.495691 13.8341
62 5 8.47839 9.15054 12.1454
63 5 6.31387 5.6003 16.3023
64 5 8.15527 3.88205 9.52594
65 5 7.87397 0.181975 14.3171
66 5 6.32771 9.51031 11.4694
67 5 4.26586 5.02135 15.7631
68 5 1.07417 4.52312 10.0409
69 3 4.18488 7.12688 11.4562
70 3 1.45778 1.85964 14.9152
71 3 3.55341 2.71298 10.6076
72 3 1.83228 6.88593 15.1358
73 3 1.95897 6.97542 11.4563
74 3 3.34356 2.36284 14.3991
75 3 5.54397 2.16266 10.0623
76 3 8.85222 7.30084 15.6321
77 6 6.9695 0.181593 13.5491
78 6 7.25352 9.24771 12.3
79 6 5.19288 5.19046 16.582
80 6 9.21615 4.38188 9.2477
81 4 4.86171 7.49335 10.8061
82 4 9.52805 1.86433 15.3419
83 4 2.73432 2.93758 11.3306
84 4 2.57313 6.56453 14.4058
85 4 0.928423 6.68308 11.3377
86 4 4.34644 2.5901 14.5888
87 4 6.53083 1.69514 9.82976
88 4 7.92957 7.78708 15.606
89 1 8.71261 10.2251 3.68611
90 1 5.04498 19.0082 4.68421
91 1 7.13084 15.1371 0.410789
92 1 6.65338 14.0626 8.0334
93 2 7.78596 18.5027 3.10671
94 2 5.87637 11.2753 4.97106
95 2 8.12791 13.4641 0.903851
96 2 5.55203 15.7139 7.34836
97 2 6.41713 18.2016 3.36596
98 2 7.32748 11.3495 4.83023
99 2 0.391947 13.0881 0.596181
100 2 4.34877 16.2667 7.80713
101 2 7.16833 16.6561 1.73549
102 2 6.64478 12.7259 6.50288
103 2 8.62141 11.6767 2.35396
104 2 5.05162 17.5923 6.12191
105 5 1.1573 10.4967 5.08604
106 5 3.63129 18.9685 3.1642
107 5 1.46119 15.3987 7.59226
108 5 3.2349 13.9487 0.84312
109 5 3.09303 10.0373 5.80078
110 5 1.52777 19.2089 2.65126
111 5 8.47996 14.9259 7.04973
112 5 5.23383 14.3576 1.37988
113 3 8.12369 17.5764 2.06849
114 3 5.67966 11.7649 6.28057
115 3 7.74975 12.6392 1.99645
116 3 6.00391 16.6349 6.45461
117 3 6.2269 16.9655 2.65343
118 3 7.69687 12.3717 5.63444
119 3 0.554049 12.0232 1.46655
120 3 3.98295 17.2439 6.94159
121 6 2.27097 10.1011 4.89901
122 6 2.44752 19.3457 3.42321
123 6 0.36546 15.0655 7.8083
124 6 4.34145 14.3715 0.597162
125 4 0.116147 17.33 1.92987
126 4 4.7038 12.1506 6.47684
127 4 6.69097 12.6072 2.32603
128 4 6.89284 16.6043 5.89121
129 4 5.21097 16.5648 2.73629
130 4 8.69792 12.9571 5.54406
131 4 1.39197 11.3096 1.3293
132 4 3.20858 18.0068 7.15957
133 1 4.46084 10.2043 12.3126
134 1 0.805655 18.9696 13.4444
135 1 2.8723 15.0737 9.09111
136 1 2.38966 14.0892 16.6544
137 2 3.42154 18.459 11.7822
138 2 1.86627 10.7208 14.007
139 2 3.9094 13.4967 9.63775
140 2 1.4289 15.656 16.0787
141 2 2.05132 18.1437 12.1282
142 2 3.16663 11.1091 13.6419
143 2 5.17494 13.0982 9.21135
144 2 9.25021 16.0528 16.5084
145 2 2.98089 16.58 10.4273
146 2 2.39082 12.6441 15.2525
147 2 4.70396 11.8515 11.0754
148 2 0.751233 17.5793 14.8619
149 5 6.00999 10.3381 13.8453
150 5 8.52981 18.9087 11.8737
151 5 6.30557 15.5255 16.3019
152 5 8.19059 13.9412 9.43486
153 5 8.03681 10.0488 14.3058
154 5 6.40387 19.1382 11.3994
155 5 4.38786 15.0531 15.7584
156 5 1.15656 14.3301 10.0249
157 3 3.96672 17.4382 10.8809
158 3 1.52985 11.6277 15.0266
159 3 3.695 12.7024 10.7045
160 3 1.67443 16.6392 15.093
161 3 1.89558 17.0614 11.2501
162 3 3.41244 12.169 14.449
163 3 5.45551 12.0197 9.97961
164 3 8.90986 17.1661 15.7584
165 6 7.05954 9.87182 13.6432
166 6 7.34818 19.1263 12.1562
167 6 5.24355 15.0249 16.5773
168 6 9.21054 14.4946 9.30392
169 4 4.94236 17.5091 10.4238
170 4 0.565639 11.5921 15.5419
171 4 3.07154 13.0958 11.5385
172 4 2.68714 16.7792 14.8028
173 4 1.0996 16.3652 11.4284
174 4 4.17068 12.9662 14.204
175 4 6.43757 11.6599 9.97382
176 4 7.87304 17.5974 15.8294
177 7 2.99124 9.78886 9.75102
178 8 3.1412 9.21375 8.69782
179 8 2.41103 10.39 10.5907
180 7 9.14551 11.6572 10.6186
181 8 8.39082 11.6427 11.5251
182 8 0.707968 11.8336 9.68527
183 7 7.26994 6.6693 9.98786
184 8 7.35773 6.24894 8.95132
185 8 7.12296 7.13042 11.0128
186 7 1.80726 10.5789 7.9388
187 8 1.02647 9.79566 7.59826
188 8 2.61512 11.337 8.32717
189 7 6.36005 9.18174 7.28351
190 8 7.15867 8.90481 6.37351
191 8 5.67945 8.975 8.25234
192 7 0.196814 7.71648 6.95662
193 8 0.895015 7.3318 6.08163
194 8 8.40626 7.88696 7.7279
195 7 0.939784 8.30208 9.47922
196 8 0.882449 7.28511 9.04121
197 8 0.73073 9.34965 9.9492
198 7 7.78462 10.3642 8.58709
199 8 8.3104 11.1102 7.88837
200 8 7.51198 9.45815 9.21203
201 7 6.16768 14.6826 12.5313
202 8 6.10929 15.5996 13.2638
203 8 6.17931 14.0896 11.5477
204 7 7.07643 13.5701 14.6739
205 8 7.906 13.9507 13.9104
206 8 6.56052 12.8485 15.4655
207 7 6.1727 4.4278 13.3188
208 8 5.5734 4.76017 12.3275
209 8 6.79071 3.94518 14.1688
210 7 8.96553 4.23324 12.7388
211 8 9.23629 4.8022 13.7524
212 8 8.71119 3.32367 12.0492
213 7 3.60122 4.55294 5.37261
214 8 2.89437 3.81109 5.92471
215 8 4.15305 5.42124 4.76942
216 7 4.31248 2.25552 2.71972
217 8 4.36691 1.69822 1.67919
218 8 4.26461 2.58534 3.86292
219 7 2.26308 13.521 4.5804
220 8 2.05719 13.5795 5.72803
221 8 2.65557 13.5253 3.47123
222 7 3.75083 15.6779 4.77966
223 8 4.69418 14.9643 4.67876
224 8 2.77882 16.3787 4.74046
ITEM: TIMESTEP
62
ITEM: NUMBER OF ATOMS
224
ITEM: BOX BOUNDS xy xz yz pp pp pp
-7.7553808421252590e-02 9.6327068129915485e+00 0.0000000000000000e+00
-1.6867504098468977e-01 1.9555674140984717e+01 6.4135280457029897e-01
-1.4845366327512721e-01 1.7211268763275108e+01 0.0000000000000000e+00
ITEM: ATOMS id type x y z
1 1 8.78441 0.365643 3.62551
2 1 4.97808 9.19778 4.71573
3 1 7.09037 5.33928 0.317656
4 1 6.65005 4.21107 8.03642
5 2 7.78516 8.64421 3.07582
6 2 6.16621 0.940316 5.33998
7 2 8.14269 3.6424 0.967917
8 2 5.54303 5.83376 7.29125
9 2 6.5163 8.19665 3.52065
10 2 7.39586 1.35617 4.84478
11 2 0.402731 3.32886 0.607943
12 2 4.31239 6.28465 7.83872
13 2 7.15817 6.74051 1.86452
14 2 6.60058 2.6916 6.67957
15 2 8.78574 1.80622 2.27659
16 2 4.78116 7.60838 5.85494
17 5 1.09208 0.630042 5.2004
18 5 3.6571 8.97593 3.20248
19 5 1.50097 5.41855 7.47188
20 5 3.15279 4.07606 0.957905
21 5 3.15877 0.162642 5.69589
22 5 1.55577 9.41774 2.70694
23 5 8.60205 4.93241 7.06352
24 5 5.19653 4.51011 1.36461
25 3 8.12333 7.68878 2.14332
26 3 5.64764 1.7839 6.37552
27 3 7.81747 2.76227 1.99016
28 3 5.8763 6.73892 6.29527
29 3 6.22285 7.07104 2.83133
30 3 7.61072 2.35779 5.70806
31 3 0.707432 2.25994 1.4035
32 3 3.91577 7.27327 6.9353
33 6 2.16263 0.219079 4.88762
34 6 2.53446 9.322 3.48276
35 6 0.483035 5.01745 7.8598
36 6 4.24759 4.43008 0.57559
37 4 0.103435 7.4243 1.83619
38 4 4.66428 1.77757 6.87287
39 4 6.82926 2.58539 2.37372
40 4 6.8862 6.75745 5.9704
41 4 5.21279 6.73941 2.68304
42 4 8.59774 2.70564 5.99845
43 4 1.65118 1.78012 1.28887
44 4 2.94131 7.81121 6.88096
45 1 4.56024 0.382136 12.3523
46 1 0.840068 9.15294 13.3537
47 1 2.96399 5.22279 9.01675
48 1 2.43058 4.20755 16.6839
49 2 3.59056 8.31449 12.082
50 2 1.71487 0.92253 13.8282
51 2 4.03982 3.74992 9.73533
52 2 1.44894 5.92344 16.1191
53 2 2.13823 8.19593 12.0427
54 2 3.09927 1.12188 13.7233
55 2 5.29523 3.34101 9.26763
56 2 9.22242 6.32479 16.5276
57 2 3.07897 6.64562 10.6587
58 2 2.40595 2.79482 15.3401
59 2 4.50068 1.72133 10.8343
60 2 0.751797 7.61689 14.6695
61 5 5.80881 0.490364 13.8363
62 5 8.47761 9.15304 12.1504
63 5 6.31316 5.60055 16.3056
64 5 8.15992 3.87692 9.52659
65 5 7.87236 0.17876 14.3184
66 5 6.329 9.51292 11.4748
67 5 4.26631 5.01888 15.7661
68 5 1.0726 4.5223 10.0412
69 3 4.18409 7.1179 11.4657
70 3 1.45723 1.85776 14.9174
71 3 3.55502 2.70848 10.6078
72 3 1.83088 6.88684 15.1388
73 3 1.96021 6.97061 11.461
74 3 3.34231 2.35888 14.4019
75 3 5.54311 2.15786 10.0642
76 3 8.85438 7.29977 15.6348
77 6 6.9703 0.177015 13.5492
78 6 7.2534 9.24656 12.3045
79 6 5.1912 5.18793 16.591
80 6 9.21958 4.37845 9.24646
81 4 4.86698 7.48715 10.8254
82 4 9.52931 1.86391 15.3394
83 4 2.734 2.93505 11.3351
84 4 2.57219 6.55712 14.41
85 4 0.928706 6.68252 11.3369
86 4 4.33952 2.58304 14.5965
87 4 6.53125 1.69044 9.82523
88 4 7.9384 7.78439 15.6046
89 1 8.71417 10.2251 3.68447
90 1 5.04523 19.0123 4.68204
91 1 7.1317 15.1387 0.407801
92 1 6.65475 14.0644 8.03362
93 2 7.78681 18.5071 3.10501
94 2 5.87785 11.2811 4.96322
95 2 8.12865 13.4653 0.900967
96 2 5.55036 15.7149 7.34934
97 2 6.41836 18.2056 3.36238
98 2 7.32606 11.3531 4.82693
99 2 0.390199 13.0884 0.593136
100 2 4.34866 16.2701 7.80746
101 2 7.16982 16.6581 1.73288
102 2 6.64573 12.7314 6.5006
103 2 8.62192 11.6752 2.353
104 2 5.05353 17.5985 6.11989
105 5 1.15747 10.4985 5.08313
106 5 3.63068 18.9747 3.16034
107 5 1.45796 15.4016 7.5922
108 5 3.23502 13.9513 0.840481
109 5 3.09084 10.0375 5.79945
110 5 1.52825 19.2125 2.64944
111 5 8.48318 14.9277 7.05089
112 5 5.23311 14.3604 1.3771
113 3 8.12479 17.5794 2.06534
114 3 5.67958 11.7697 6.27805
115 3 7.75147 12.6407 1.99351
116 3 6.00511 16.6408 6.45366
117 3 6.23004 16.9693 2.65035
118 3 7.69617 12.3754 5.63108
119 3 0.550692 12.0241 1.46399
120 3 3.98319 17.2483 6.94194
121 6 2.27153 10.1014 4.89551
122 6 2.44409 19.3526 3.42311
123 6 0.363601 15.0697 7.8078
124 6 4.34264 14.3751 0.592668
125 4 0.116504 17.3326 1.93464
126 4 4.71077 12.1624 6.47513
127 4 6.68586 12.6133 2.31519
128 4 6.88569 16.6134 5.88813
129 4 5.21097 16.5762 2.73707
130 4 8.70743 12.9646 5.53809
131 4 1.39048 11.3051 1.32498
132 4 3.21003 18.0174 7.16324
133 1 4.46028 10.2038 12.314
134 1 0.803535 18.9731 13.4469
135 1 2.87073 15.0743 9.09166
136 1 2.38876 14.0913 16.6574
137 2 3.42122 18.4619 11.7827
138 2 1.86582 10.7197 14.0101
139 2 3.90871 13.5006 9.63772
140 2 1.42585 15.656 16.0839
141 2 2.0493 18.1466 12.1286
142 2 3.16654 11.1088 13.6442
143 2 5.17575 13.0989 9.20925
144 2 9.25325 16.0542 16.5119
145 2 2.98007 16.5814 10.4288
146 2 2.39028 12.6478 15.256
147 2 4.7065 11.8528 11.0796
148 2 0.75016 17.5839 14.8647
149 5 6.01143 10.3372 13.848
150 5 8.53019 18.9145 11.8748
151 5 6.30551 15.531 16.3064
152 5 8.19534 13.9444 9.43454
153 5 8.03799 10.0494 14.3066
154 5 6.40637 19.1405 11.4018
155 5 4.38871 15.0566 15.762
156 5 1.15507 14.3342 10.0239
157 3 3.96404 17.4408 10.8848
158 3 1.5299 11.6273 15.0294
159 3 3.69743 12.705 10.7076
160 3 1.67266 16.644 15.0937
161 3 1.89554 17.0655 11.2502
162 3 3.41197 12.1684 14.451
163 3 5.45557 12.0187 9.97792
164 3 8.91144 17.1691 15.7631
165 6 7.06067 9.86962 13.6468
166 6 7.34912 19.1293 12.1583
167 6 5.2433 15.0291 16.584
168 6 9.21262 14.4997 9.30563
169 4 4.9404 17.5174 10.4346
170 4 0.559786 11.5857 15.5396
171 4 3.07433 13.1077 11.5458
172 4 2.68362 16.7866 14.8074
173 4 1.10268 16.3671 11.4267
174 4 4.1676 12.9736 14.2041
175 4 6.43483 11.6664 9.97378
176 4 7.86752 17.6006 15.8388
177 7 2.98838 9.79279 9.74667
178 8 3.13859 9.22329 8.69279
179 8 2.40793 10.3888 10.59
180 7 9.14653 11.6579 10.6194
181 8 8.39345 11.6497 11.5262
182 8 0.70626 11.8299 9.68503
183 7 7.27134 6.66769 9.98705
184 8 7.35851 6.24793 8.94859
185 8 7.1227 7.12737 11.0175
186 7 1.80724 10.5806 7.93872
187 8 1.02545 9.79482 7.60048
188 8 2.61582 11.3392 8.32369
189 7 6.36286 9.18316 7.28367
190 8 7.16284 8.9008 6.3743
191 8 5.67859 8.98061 8.25577
192 7 0.196561 7.71483 6.95416
193 8 0.892326 7.33101 6.07847
194 8 8.40956 7.88441 7.72455
195 7 0.937428 8.30483 9.47906
196 8 0.878031 7.28606 9.04065
197 8 0.730355 9.3481 9.94908
198 7 7.78756 10.3654 8.58809
199 8 8.31422 11.1119 7.89066
200 8 7.51304 9.4555 9.21275
201 7 6.16811 14.6882 12.5337
202 8 6.11065 15.6045 13.2635
203 8 6.17952 14.0924 11.5498
204 7 7.07998 13.5696 14.6753
205 8 7.90816 13.9518 13.9129
206 8 6.56534 12.8462 15.4641
207 7 6.17204 4.42615 13.3203
208 8 5.57372 4.75843 12.3306
209 8 6.79171 3.94169 14.1713
210 7 8.96797 4.23193 12.7414
211 8 9.23928 4.80138 13.7538
212 8 8.71181 3.32027 12.0528
213 7 3.59931 4.5514 5.37025
214 8 2.89018 3.80702 5.92556
215 8 4.14964 5.4167 4.76491
216 7 4.31344 2.2523 2.71811
217 8 4.36902 1.69293 1.67469
218 8 4.26492 2.58192 3.8619
219 7 2.26262 13.5203 4.57806
220 8 2.05727 13.5791 5.72774
221 8 2.65534 13.5247 3.46907
222 7 3.74929 15.6801 4.77606
223 8 4.69021 14.9626 4.67263
224 8 2.77915 16.3827 4.73829
ITEM: TIMESTEP
63
ITEM: NUMBER OF ATOMS
224
ITEM: BOX BOUNDS xy xz yz pp pp pp
-7.9386440399959568e-02 9.6347986522933482e+00 0.0000000000000000e+00
-1.7266090938252887e-01 1.9559660009382558e+01 6.4161201189339168e-01
-1.5196169126514469e-01 1.7214776791265123e+01 0.0000000000000000e+00
ITEM: ATOMS id type x y z
1 1 8.78709 0.36165 3.62301
2 1 4.97729 9.19862 4.71397
3 1 7.0906 5.33777 0.313538
4 1 6.65152 4.20886 8.03678
5 2 7.7874 8.64482 3.0745
6 2 6.16964 0.935312 5.33761
7 2 8.14366 3.64124 0.964423
8 2 5.54073 5.83039 7.28867
9 2 6.51716 8.19615 3.51965
10 2 7.39485 1.35184 4.84345
11 2 0.402145 3.32675 0.604879
12 2 4.31039 6.28589 7.83644
13 2 7.1604 6.73693 1.86194
14 2 6.59999 2.68883 6.6807
15 2 8.78663 1.80223 2.2746
16 2 4.77891 7.60603 5.85107
17 5 1.0922 0.6268 5.19991
18 5 3.65552 8.97642 3.1998
19 5 1.50057 5.4131 7.4701
20 5 3.15307 4.0755 0.9562
21 5 3.15736 0.159046 5.69453
22 5 1.55672 9.41801 2.70579
23 5 8.60466 4.92772 7.06187
24 5 5.19482 4.5092 1.36113
25 3 8.12399 7.68745 2.14155
26 3 5.6507 1.78105 6.3748
27 3 7.82146 2.75818 1.98763
28 3 5.87142 6.73715 6.29199
29 3 6.22495 7.06973 2.83172
30 3 7.61308 2.35596 5.70704
31 3 0.706353 2.25718 1.40093
32 3 3.916 7.26862 6.93309
33 6 2.1608 0.215111 4.88236
34 6 2.53413 9.32217 3.48242
35 6 0.483108 5.01144 7.86248
36 6 4.24672 4.42893 0.571445
37 4 0.104951 7.4198 1.83701
38 4 4.66703 1.77536 6.8736
39 4 6.83703 2.57414 2.37101
40 4 6.87826 6.74609 5.96048
41 4 5.21528 6.73911 2.68228
42 4 8.59865 2.70613 6.0037
43 4 1.64813 1.77842 1.28412
44 4 2.93628 7.80226 6.87793
45 1 4.56091 0.378152 12.3541
46 1 0.838596 9.15294 13.3549
47 1 2.96384 5.21958 9.01639
48 1 2.43016 4.20548 16.6875
49 2 3.59099 8.30673 12.089
50 2 1.71443 0.91929 13.8295
51 2 4.04304 3.74813 9.73597
52 2 1.4469 5.92242 16.1228
53 2 2.13848 8.19489 12.0458
54 2 3.0971 1.11711 13.7267
55 2 5.29427 3.33991 9.26822
56 2 9.22528 6.32417 16.5308
57 2 3.08416 6.64046 10.6661
58 2 2.40443 2.79125 15.3418
59 2 4.50096 1.71713 10.8333
60 2 0.749197 7.61699 14.6702
61 5 5.8085 0.485033 13.8385
62 5 8.4768 9.15552 12.1553
63 5 6.31243 5.6008 16.3088
64 5 8.16454 3.87179 9.52723
65 5 7.87081 0.175557 14.3198
66 5 6.33033 9.51551 11.4803
67 5 4.26678 5.01643 15.7692
68 5 1.07103 4.52148 10.0415
69 3 4.18308 7.1091 11.475
70 3 1.45667 1.85583 14.9196
71 3 3.55668 2.70405 10.608
72 3 1.82943 6.88767 15.1417
73 3 1.96151 6.96585 11.4658
74 3 3.34103 2.35486 14.4047
75 3 5.54227 2.15318 10.066
76 3 8.85664 7.2987 15.6375
77 6 6.97109 0.172401 13.5492
78 6 7.25326 9.24549 12.3091
79 6 5.18944 5.18536 16.6
80 6 9.22311 4.37504 9.24525
81 4 4.87307 7.48096 10.8442
82 4 9.53051 1.86363 15.3369
83 4 2.73392 2.93233 11.3394
84 4 2.5713 6.5498 14.4144
85 4 0.92898 6.68179 11.3358
86 4 4.33311 2.57613 14.6043
87 4 6.53121 1.68547 9.82104
88 4 7.94663 7.78185 15.6034
89 1 8.71573 10.2251 3.68284
90 1 5.04547 19.0163 4.67987
91 1 7.13256 15.1403 0.404813
92 1 6.6561 14.0661 8.03385
93 2 7.7876 18.5114 3.10325
94 2 5.87945 11.2868 4.9555
95 2 8.12942 13.4664 0.898149
96 2 5.5487 15.7158 7.35032
97 2 6.41966 18.2096 3.35877
98 2 7.32456 11.3567 4.82365
99 2 0.38838 13.0888 0.590127
100 2 4.34852 16.2733 7.8078
101 2 7.17132 16.66 1.7303
102 2 6.64669 12.7368 6.49831
103 2 8.62245 11.6737 2.352
104 2 5.05543 17.6047 6.11791
105 5 1.15763 10.5004 5.08024
106 5 3.63 18.9808 3.1565
107 5 1.45479 15.4045 7.5921
108 5 3.23512 13.954 0.837844
109 5 3.08869 10.0377 5.79808
110 5 1.52871 19.2161 2.64764
111 5 8.4864 14.9294 7.05204
112 5 5.23242 14.3632 1.37434
113 3 8.12589 17.5825 2.06224
114 3 5.67953 11.7747 6.27542
115 3 7.75315 12.6422 1.99054
116 3 6.00625 16.6466 6.45272
117 3 6.23312 16.9731 2.64733
118 3 7.69547 12.3792 5.62774
119 3 0.547386 12.025 1.46143
120 3 3.9835 17.2528 6.94228
121 6 2.27212 10.1016 4.89197
122 6 2.44076 19.3594 3.42303
123 6 0.361648 15.0738 7.80743
124 6 4.3438 14.3788 0.588158
125 4 0.116723 17.3352 1.9393
126 4 4.71738 12.1741 6.47352
127 4 6.68107 12.6193 2.3043
128 4 6.87901 16.6222 5.88494
129 4 5.21115 16.5873 2.73747
130 4 8.71601 12.9716 5.53218
131 4 1.38881 11.301 1.32061
132 4 3.21165 18.0276 7.16703
133 1 4.45973 10.2033 12.3155
134 1 0.801407 18.9765 13.4494
135 1 2.86916 15.075 9.09221
136 1 2.38786 14.0933 16.6604
137 2 3.42087 18.4647 11.7832
138 2 1.86541 10.7186 14.0133
139 2 3.90808 13.5046 9.6377
140 2 1.42278 15.6561 16.089
141 2 2.04741 18.1494 12.129
142 2 3.16639 11.1084 13.6464
143 2 5.17654 13.0995 9.20716
144 2 9.25625 16.0557 16.5153
145 2 2.97921 16.5829 10.4304
146 2 2.38977 12.6514 15.2594
147 2 4.70898 11.8541 11.0837
148 2 0.749094 17.5885 14.8675
149 5 6.0128 10.3363 13.8506
150 5 8.53055 18.9204 11.8758
151 5 6.30547 15.5365 16.3109
152 5 8.20001 13.9476 9.43426
153 5 8.03922 10.0501 14.3074
154 5 6.40885 19.1427 11.4042
155 5 4.38948 15.0602 15.7656
156 5 1.15356 14.3383 10.0229
157 3 3.96125 17.4435 10.8887
158 3 1.52993 11.6269 15.0321
159 3 3.69983 12.7076 10.7107
160 3 1.67093 16.6488 15.0944
161 3 1.89554 17.0695 11.2504
162 3 3.41152 12.168 14.453
163 3 5.45565 12.0176 9.97624
164 3 8.91296 17.172 15.7678
165 6 7.06181 9.86739 13.6504
166 6 7.35003 19.1324 12.1605
167 6 5.24308 15.0334 16.5907
168 6 9.21481 14.5049 9.30726
169 4 4.9385 17.5256 10.4453
170 4 0.554003 11.5793 15.5372
171 4 3.07719 13.1194 11.5527
172 4 2.68038 16.7941 14.8118
173 4 1.10551 16.369 11.4251
174 4 4.16433 12.9804 14.2042
175 4 6.4325 11.6728 9.97376
176 4 7.86254 17.6037 15.848
177 7 2.98546 9.7967 9.74229
178 8 3.13605 9.23279 8.68791
179 8 2.40495 10.3875 10.5893
180 7 9.14747 11.6587 10.6203
181 8 8.39611 11.6568 11.5273
182 8 0.704583 11.8262 9.68479
183 7 7.27273 6.66611 9.98626
184 8 7.35928 6.24692 8.94582
185 8 7.12244 7.12428 11.0222
186 7 1.80725 10.5824 7.93864
187 8 1.02445 9.79398 7.60266
188 8 2.61647 11.3414 8.32015
189 7 6.36569 9.18443 7.28379
190 8 7.16688 8.89694 6.37516
191 8 5.67773 8.98624 8.25909
192 7 0.196295 7.71313 6.95165
193 8 0.889609 7.33027 6.07531
194 8 8.41289 7.88184 7.72117
195 7 0.935014 8.30773 9.47897
196 8 0.873675 7.28691 9.04009
197 8 0.729957 9.34652 9.94897
198 7 7.79058 10.3666 8.58909
199 8 8.31798 11.1137 7.89294
200 8 7.51408 9.45286 9.21352
201 7 6.16853 14.6939 12.5361
202 8 6.112 15.6093 13.2632
203 8 6.17975 14.0951 11.552
204 7 7.08362 13.569 14.6767
205 8 7.91029 13.9529 13.9154
206 8 6.57016 12.844 15.4626
207 7 6.17133 4.42449 13.3217
208 8 5.57408 4.75668 12.3338
209 8 6.79269 3.9382 14.1738
210 7 8.97043 4.23057 12.744
211 8 9.24225 4.80056 13.7551
212 8 8.71242 3.3169 12.0564
213 7 3.59738 4.54992 5.36785
214 8 2.88602 3.80294 5.9264
215 8 4.1462 5.41206 4.76039
216 7 4.31441 2.24901 2.71654
217 8 4.37113 1.68767 1.67023
218 8 4.26523 2.5785 3.86082
219 7 2.2622 13.5195 4.57571
220 8 2.05733 13.5786 5.72742
221 8 2.65508 13.5241 3.46694
222 7 3.74773 15.6823 4.77242
223 8 4.6862 14.961 4.66652
224 8 2.77953 16.3866 4.73613
ITEM: TIMESTEP
64
ITEM: NUMBER OF ATOMS
224
ITEM: BOX BOUNDS xy xz yz pp pp pp
-8.1216150290211786e-02 9.6368871562067291e+00 0.0000000000000000e+00
-1.7664042240724065e-01 1.9563639522407271e+01 6.4187080591652279e-01
-1.5546412578729374e-01 1.7218279225787274e+01 0.0000000000000000e+00
ITEM: ATOMS id type x y z
1 1 8.78976 0.357668 3.6205
2 1 4.97649 9.19946 4.71222
3 1 7.09084 5.33626 0.309435
4 1 6.65299 4.20665 8.03714
5 2 7.78961 8.64538 3.0732
6 2 6.17299 0.930301 5.33527
7 2 8.14465 3.64007 0.960936
8 2 5.53837 5.82705 7.28608
9 2 6.51803 8.19569 3.51863
10 2 7.39383 1.34749 4.84218
11 2 0.40152 3.32464 0.601854
12 2 4.30841 6.28709 7.83407
13 2 7.16263 6.73336 1.8594
14 2 6.59945 2.68607 6.68178
15 2 8.78752 1.79828 2.27257
16 2 4.77676 7.60364 5.84734
17 5 1.09229 0.623567 5.19941
18 5 3.65395 8.97691 3.1971
19 5 1.50025 5.40764 7.46836
20 5 3.15332 4.07494 0.954468
21 5 3.15589 0.155459 5.69311
22 5 1.55771 9.41828 2.70465
23 5 8.60728 4.92302 7.06024
24 5 5.19311 4.5083 1.35762
25 3 8.12467 7.6861 2.13975
26 3 5.65382 1.77819 6.37403
27 3 7.82548 2.75407 1.98509
28 3 5.86642 6.73537 6.28874
29 3 6.22707 7.06842 2.83203
30 3 7.61538 2.35422 5.70613
31 3 0.70524 2.25442 1.39838
32 3 3.91623 7.26402 6.9308
33 6 2.15914 0.211112 4.87716
34 6 2.53371 9.32241 3.48211
35 6 0.482985 5.00536 7.86508
36 6 4.24595 4.42781 0.567369
37 4 0.106096 7.41566 1.83804
38 4 4.66991 1.77296 6.87414
39 4 6.84458 2.56308 2.36819
40 4 6.87046 6.73454 5.95009
41 4 5.21757 6.73879 2.68168
42 4 8.59969 2.7065 6.00857
43 4 1.64529 1.77649 1.2794
44 4 2.93163 7.79288 6.87526
45 1 4.56157 0.374169 12.3558
46 1 0.837119 9.15293 13.3561
47 1 2.96368 5.21639 9.01603
48 1 2.42974 4.20342 16.691
49 2 3.59135 8.2989 12.096
50 2 1.71406 0.916122 13.8309
51 2 4.04624 3.74627 9.73663
52 2 1.44483 5.92145 16.1265
53 2 2.13886 8.19378 12.049
54 2 3.0949 1.11243 13.7301
55 2 5.29328 3.33872 9.26889
56 2 9.22814 6.32354 16.534
57 2 3.08934 6.63527 10.6736
58 2 2.4029 2.78763 15.3434
59 2 4.50124 1.71294 10.8322
60 2 0.746614 7.61711 14.671
61 5 5.80822 0.479699 13.8407
62 5 8.47596 9.15798 12.1601
63 5 6.31168 5.60106 16.3121
64 5 8.16913 3.86666 9.52784
65 5 7.8693 0.172366 14.3213
66 5 6.33169 9.5181 11.4857
67 5 4.26728 5.014 15.7722
68 5 1.06946 4.52066 10.0417
69 3 4.18186 7.10048 11.4843
70 3 1.45609 1.85385 14.9217
71 3 3.55837 2.6997 10.6081
72 3 1.82794 6.88844 15.1447
73 3 1.96286 6.96115 11.4706
74 3 3.33972 2.35079 14.4074
75 3 5.54147 2.14863 10.0677
76 3 8.859 7.29764 15.6401
77 6 6.97186 0.167754 13.5492
78 6 7.25311 9.24449 12.3137
79 6 5.1876 5.18276 16.6089
80 6 9.22676 4.37165 9.24407
81 4 4.87998 7.4748 10.8625
82 4 9.53164 1.8635 15.3344
83 4 2.73412 2.9294 11.3433
84 4 2.57043 6.54262 14.4187
85 4 0.929256 6.68087 11.3344
86 4 4.32727 2.5694 14.6122
87 4 6.53069 1.68023 9.8172
88 4 7.9542 7.77949 15.6023
89 1 8.7173 10.225 3.6812
90 1 5.04572 19.0204 4.6777
91 1 7.13341 15.1419 0.401828
92 1 6.65746 14.0678 8.03407
93 2 7.78833 18.5156 3.10144
94 2 5.88116 11.2923 4.94789
95 2 8.13023 13.4675 0.895396
96 2 5.54705 15.7169 7.35129
97 2 6.42103 18.2134 3.35512
98 2 7.32299 11.3603 4.82039
99 2 0.386489 13.0891 0.587156
100 2 4.34837 16.2765 7.80815
101 2 7.17284 16.6619 1.72775
102 2 6.64767 12.7423 6.49601
103 2 8.62299 11.6722 2.35095
104 2 5.05732 17.6109 6.11596
105 5 1.15775 10.5022 5.07735
106 5 3.62926 18.987 3.15266
107 5 1.45169 15.4075 7.59196
108 5 3.23522 13.9567 0.835207
109 5 3.08656 10.0378 5.79667
110 5 1.52914 19.2198 2.64584
111 5 8.48962 14.9311 7.05318
112 5 5.23179 14.366 1.37161
113 3 8.12699 17.5857 2.05921
114 3 5.67951 11.7797 6.27265
115 3 7.75478 12.6438 1.98753
116 3 6.0073 16.6525 6.45179
117 3 6.23615 16.9771 2.64438
118 3 7.69478 12.383 5.62442
119 3 0.544135 12.0259 1.45887
120 3 3.98387 17.2573 6.94262
121 6 2.27272 10.1017 4.8884
122 6 2.43755 19.3662 3.42297
123 6 0.359602 15.0779 7.80719
124 6 4.34493 14.3824 0.583638
125 4 0.11678 17.3377 1.94386
126 4 4.7236 12.1856 6.47201
127 4 6.67664 12.6253 2.29339
128 4 6.87288 16.6308 5.88161
129 4 5.2115 16.5982 2.7375
130 4 8.72356 12.9779 5.52633
131 4 1.38692 11.2972 1.31619
132 4 3.21346 18.0375 7.17093
133 1 4.4592 10.2028 12.317
134 1 0.799269 18.9799 13.4518
135 1 2.86759 15.0757 9.09275
136 1 2.38698 14.0954 16.6634
137 2 3.42051 18.4674 11.7836
138 2 1.86504 10.7175 14.0165
139 2 3.90752 13.5085 9.63769
140 2 1.41971 15.6563 16.0941
141 2 2.04567 18.1523 12.1293
142 2 3.16618 11.108 13.6487
143 2 5.1773 13.1001 9.2051
144 2 9.25921 16.0571 16.5188
145 2 2.97832 16.5844 10.4321
146 2 2.38928 12.655 15.2629
147 2 4.71141 11.8554 11.0878
148 2 0.748033 17.5931 14.8702
149 5 6.01411 10.3354 13.8534
150 5 8.5309 18.9262 11.8768
151 5 6.30546 15.542 16.3155
152 5 8.20461 13.9507 9.43402
153 5 8.04049 10.0507 14.3082
154 5 6.41132 19.1449 11.4065
155 5 4.39019 15.0637 15.7691
156 5 1.15201 14.3424 10.0219
157 3 3.95837 17.4463 10.8927
158 3 1.52992 11.6265 15.0347
159 3 3.70219 12.7101 10.7139
160 3 1.66923 16.6535 15.0952
161 3 1.89559 17.0736 11.2505
162 3 3.41109 12.1677 14.455
163 3 5.45574 12.0165 9.97456
164 3 8.91442 17.1748 15.7725
165 6 7.06297 9.86512 13.654
166 6 7.35093 19.1355 12.1628
167 6 5.24288 15.0377 16.5973
168 6 9.21711 14.5101 9.30882
169 4 4.93667 17.5338 10.4559
170 4 0.548329 11.573 15.5346
171 4 3.08017 13.131 11.5592
172 4 2.67742 16.8016 14.816
173 4 1.10809 16.371 11.4236
174 4 4.16085 12.9865 14.2043
175 4 6.43062 11.679 9.97375
176 4 7.85815 17.6066 15.8572
177 7 2.98246 9.80058 9.73787
178 8 3.13357 9.24226 8.68317
179 8 2.40209 10.3862 10.5887
180 7 9.14831 11.6595 10.6213
181 8 8.39881 11.6639 11.5284
182 8 0.702935 11.8225 9.68453
183 7 7.27412 6.66457 9.98552
184 8 7.36004 6.24591 8.94303
185 8 7.12219 7.12115 11.0269
186 7 1.80727 10.5842 7.93854
187 8 1.02347 9.79316 7.60482
188 8 2.61709 11.3436 8.31654
189 7 6.36857 9.18555 7.28386
190 8 7.17081 8.89322 6.37609
191 8 5.67687 8.99191 8.2623
192 7 0.196015 7.71138 6.9491
193 8 0.886865 7.32958 6.07215
194 8 8.41624 7.87927 7.71774
195 7 0.932545 8.31077 9.47894
196 8 0.869381 7.28766 9.03955
197 8 0.729534 9.3449 9.94885
198 7 7.79369 10.3678 8.59008
199 8 8.32171 11.1156 7.89522
200 8 7.51513 9.45022 9.21436
201 7 6.16894 14.6997 12.5384
202 8 6.11334 15.6141 13.2629
203 8 6.18001 14.0979 11.5541
204 7 7.08735 13.5683 14.6782
205 8 7.91237 13.954 13.918
206 8 6.57498 12.8419 15.4611
207 7 6.17057 4.42282 13.323
208 8 5.57447 4.75492 12.3371
209 8 6.79366 3.93473 14.1762
210 7 8.97292 4.22915 12.7468
211 8 9.24522 4.79974 13.7564
212 8 8.71304 3.31357 12.06
213 7 3.59543 4.54849 5.36543
214 8 2.88191 3.79888 5.92722
215 8 4.14273 5.40733 4.75589
216 7 4.31537 2.24567 2.71499
217 8 4.37324 1.68247 1.66584
218 8 4.26554 2.57508 3.85966
219 7 2.26182 13.5187 4.57335
220 8 2.0574 13.5782 5.72708
221 8 2.65479 13.5235 3.46486
222 7 3.74616 15.6845 4.76874
223 8 4.68214 14.9593 4.66042
224 8 2.77997 16.3904 4.73396
ITEM: TIMESTEP
65
ITEM: NUMBER OF ATOMS
224
ITEM: BOX BOUNDS xy xz yz pp pp pp
-8.3042093417619256e-02 9.6389713605866270e+00 0.0000000000000000e+00
-1.8061174294095572e-01 1.9567610842940987e+01 6.4212906716901308e-01
-1.5895934996407846e-01 1.7221774449964059e+01 0.0000000000000000e+00
ITEM: ATOMS id type x y z
1 1 8.79243 0.353699 3.618
2 1 4.97569 9.2003 4.71045
3 1 7.09107 5.33475 0.305347
4 1 6.65446 4.20444 8.0375
5 2 7.79176 8.64588 3.07193
6 2 6.17627 0.925285 5.33296
7 2 8.14568 3.63891 0.957458
8 2 5.53593 5.82375 7.28349
9 2 6.51891 8.19527 3.51758
10 2 7.39281 1.34314 4.84097
11 2 0.400854 3.32253 0.59887
12 2 4.30645 6.28827 7.83163
13 2 7.16486 6.72981 1.85691
14 2 6.59896 2.68332 6.6828
15 2 8.78841 1.79437 2.27049
16 2 4.77469 7.60123 5.84376
17 5 1.09233 0.620345 5.19891
18 5 3.65239 8.97739 3.1944
19 5 1.50003 5.40217 7.46666
20 5 3.15356 4.0744 0.95271
21 5 3.15437 0.151882 5.69164
22 5 1.55872 9.41853 2.70353
23 5 8.60991 4.91832 7.05862
24 5 5.1914 4.50739 1.35411
25 3 8.12538 7.68471 2.13791
26 3 5.65701 1.77531 6.37319
27 3 7.82954 2.74994 1.98256
28 3 5.8613 6.73358 6.2855
29 3 6.22921 7.0671 2.83226
30 3 7.61764 2.35255 5.70533
31 3 0.704091 2.25166 1.39586
32 3 3.91646 7.25948 6.92841
33 6 2.15765 0.207086 4.87203
34 6 2.5332 9.32271 3.48185
35 6 0.482665 4.99919 7.86757
36 6 4.24528 4.42672 0.563369
37 4 0.106829 7.41189 1.83929
38 4 4.6729 1.77036 6.8745
39 4 6.85186 2.55223 2.36528
40 4 6.86282 6.72282 5.93923
41 4 5.21966 6.73843 2.68125
42 4 8.60087 2.70674 6.01305
43 4 1.64266 1.77434 1.27472
44 4 2.92741 7.78309 6.87296
45 1 4.56223 0.370188 12.3576
46 1 0.835638 9.15292 13.3573
47 1 2.96352 5.2132 9.01568
48 1 2.42933 4.20138 16.6945
49 2 3.59166 8.291 12.1029
50 2 1.71374 0.913027 13.8324
51 2 4.0494 3.74435 9.7373
52 2 1.44273 5.92054 16.1302
53 2 2.13936 8.19258 12.0523
54 2 3.09269 1.10784 13.7335
55 2 5.29228 3.33744 9.26963
56 2 9.23099 6.32288 16.5371
57 2 3.09452 6.63003 10.6811
58 2 2.40138 2.78396 15.3449
59 2 4.50151 1.70876 10.8312
60 2 0.744048 7.61724 14.6718
61 5 5.80797 0.474364 13.8429
62 5 8.4751 9.16042 12.1648
63 5 6.31091 5.60131 16.3154
64 5 8.1737 3.86151 9.52844
65 5 7.86785 0.169189 14.3228
66 5 6.33308 9.52067 11.4912
67 5 4.26782 5.01159 15.7753
68 5 1.06791 4.51983 10.042
69 3 4.18043 7.09205 11.4935
70 3 1.4555 1.85181 14.9237
71 3 3.56011 2.69544 10.6083
72 3 1.82642 6.88912 15.1477
73 3 1.96426 6.9565 11.4753
74 3 3.33837 2.34666 14.4102
75 3 5.54071 2.14421 10.0693
76 3 8.86147 7.29659 15.6427
77 6 6.9726 0.163077 13.549
78 6 7.25294 9.24356 12.3183
79 6 5.18568 5.18013 16.6178
80 6 9.23051 4.36828 9.24293
81 4 4.88769 7.46863 10.8805
82 4 9.53272 1.86353 15.3319
83 4 2.73464 2.92625 11.347
84 4 2.56958 6.53558 14.4232
85 4 0.929545 6.67979 11.3327
86 4 4.32204 2.56285 14.6202
87 4 6.52967 1.67472 9.81371
88 4 7.96105 7.77732 15.6014
89 1 8.71886 10.225 3.67956
90 1 5.04597 19.0244 4.67554
91 1 7.13427 15.1434 0.398846
92 1 6.65881 14.0696 8.03428
93 2 7.78901 18.5198 3.09958
94 2 5.88296 11.2978 4.94042
95 2 8.13109 13.4686 0.89271
96 2 5.54541 15.7179 7.35226
97 2 6.42246 18.2172 3.35144
98 2 7.32135 11.3639 4.81715
99 2 0.384525 13.0894 0.584224
100 2 4.34819 16.2796 7.80851
101 2 7.17438 16.6638 1.72521
102 2 6.64866 12.7478 6.49369
103 2 8.62356 11.6706 2.34985
104 2 5.05919 17.6171 6.11405
105 5 1.15786 10.5041 5.07448
106 5 3.62844 18.9932 3.14885
107 5 1.44866 15.4104 7.59177
108 5 3.2353 13.9593 0.832572
109 5 3.08447 10.0379 5.79521
110 5 1.52954 19.2234 2.64405
111 5 8.49284 14.9328 7.05429
112 5 5.2312 14.3688 1.3689
113 3 8.12811 17.5889 2.05623
114 3 5.67953 11.7849 6.26975
115 3 7.75637 12.6454 1.98448
116 3 6.00826 16.6585 6.45086
117 3 6.23912 16.9812 2.64151
118 3 7.69412 12.3869 5.62113
119 3 0.540943 12.0267 1.45632
120 3 3.9843 17.2619 6.94296
121 6 2.27335 10.1018 4.88479
122 6 2.43448 19.373 3.42291
123 6 0.357464 15.0819 7.80709
124 6 4.346 14.386 0.579114
125 4 0.116653 17.3402 1.9483
126 4 4.72937 12.1969 6.47059
127 4 6.67263 12.631 2.28246
128 4 6.86734 16.639 5.87811
129 4 5.21203 16.6089 2.73713
130 4 8.72998 12.9836 5.52055
131 4 1.38477 11.2939 1.31173
132 4 3.21549 18.0469 7.17493
133 1 4.45868 10.2023 12.3185
134 1 0.797124 18.9834 13.4542
135 1 2.86603 15.0764 9.09328
136 1 2.3861 14.0974 16.6664
137 2 3.42013 18.4701 11.784
138 2 1.86471 10.7165 14.0198
139 2 3.90704 13.5125 9.63769
140 2 1.41663 15.6565 16.0991
141 2 2.04406 18.155 12.1295
142 2 3.16592 11.1076 13.6509
143 2 5.17804 13.1008 9.20306
144 2 9.26211 16.0586 16.5222
145 2 2.9774 16.5859 10.4338
146 2 2.38881 12.6586 15.2663
147 2 4.71377 11.8566 11.0919
148 2 0.746974 17.5978 14.873
149 5 6.01534 10.3346 13.8561
150 5 8.53122 18.932 11.8779
151 5 6.30546 15.5475 16.32
152 5 8.20913 13.9538 9.43382
153 5 8.04179 10.0514 14.3091
154 5 6.41378 19.1471 11.4088
155 5 4.39084 15.0672 15.7726
156 5 1.15044 14.3465 10.0209
157 3 3.95539 17.4491 10.8966
158 3 1.52988 11.626 15.0373
159 3 3.70452 12.7127 10.7171
160 3 1.66756 16.658 15.096
161 3 1.89567 17.0776 11.2506
162 3 3.41069 12.1676 14.457
163 3 5.45583 12.0155 9.97288
164 3 8.9158 17.1777 15.7773
165 6 7.06412 9.86282 13.6575
166 6 7.35179 19.1386 12.1652
167 6 5.24271 15.0421 16.6039
168 6 9.21952 14.5154 9.3103
169 4 4.93492 17.5418 10.4664
170 4 0.542804 11.5668 15.532
171 4 3.0833 13.1423 11.5652
172 4 2.67477 16.8093 14.82
173 4 1.1104 16.373 11.4221
174 4 4.15714 12.9919 14.2042
175 4 6.42925 11.685 9.97374
176 4 7.85442 17.6095 15.8663
177 7 2.9794 9.80445 9.73342
178 8 3.13116 9.25169 8.67856
179 8 2.39936 10.385 10.588
180 7 9.14908 11.6603 10.6223
181 8 8.40152 11.6709 11.5295
182 8 0.701316 11.8187 9.68427
183 7 7.2755 6.66306 9.98482
184 8 7.3608 6.2449 8.94022
185 8 7.12195 7.11796 11.0317
186 7 1.8073 10.5861 7.93843
187 8 1.02252 9.79234 7.60695
188 8 2.61767 11.3459 8.31287
189 7 6.37146 9.18653 7.2839
190 8 7.17461 8.88966 6.37709
191 8 5.67602 8.99761 8.26539
192 7 0.195723 7.7096 6.94649
193 8 0.884098 7.32894 6.06899
194 8 8.41962 7.87668 7.71427
195 7 0.930022 8.31392 9.47895
196 8 0.865153 7.28832 9.03902
197 8 0.729085 9.34325 9.94873
198 7 7.79688 10.369 8.59108
199 8 8.32538 11.1175 7.89748
200 8 7.51618 9.4476 9.21524
201 7 6.16932 14.7056 12.5407
202 8 6.11467 15.6189 13.2627
203 8 6.18028 14.1006 11.5563
204 7 7.09115 13.5675 14.6797
205 8 7.91442 13.955 13.9206
206 8 6.57978 12.8398 15.4596
207 7 6.16977 4.42115 13.3242
208 8 5.57491 4.75316 12.3404
209 8 6.79461 3.93128 14.1787
210 7 8.97542 4.22767 12.7496
211 8 9.24817 4.79893 13.7575
212 8 8.71365 3.31027 12.0635
213 7 3.59343 4.54711 5.36299
214 8 2.87785 3.79483 5.92803
215 8 4.13923 5.40251 4.75138
216 7 4.31633 2.24227 2.71347
217 8 4.37535 1.67731 1.6615
218 8 4.26586 2.57167 3.85842
219 7 2.26148 13.5179 4.57099
220 8 2.05746 13.5777 5.72669
221 8 2.65447 13.5228 3.46282
222 7 3.74456 15.6868 4.76503
223 8 4.67804 14.9577 4.65435
224 8 2.78047 16.3942 4.73179
ITEM: TIMESTEP
66
ITEM: NUMBER OF ATOMS
224
ITEM: BOX BOUNDS xy xz yz pp pp pp
-8.4863470085084103e-02 9.6410503526268467e+00 0.0000000000000000e+00
-1.8457313168880773e-01 1.9571572231688837e+01 6.4238668254176778e-01
-1.6244583301363136e-01 1.7225260933013615e+01 0.0000000000000000e+00
ITEM: ATOMS id type x y z
1 1 8.7951 0.349743 3.61551
2 1 4.9749 9.20115 4.70869
3 1 7.09131 5.33324 0.301276
4 1 6.65593 4.20223 8.03786
5 2 7.79387 8.64632 3.07068
6 2 6.17945 0.920268 5.33069
7 2 8.14674 3.63774 0.953992
8 2 5.53342 5.82048 7.28091
9 2 6.51981 8.19489 3.51651
10 2 7.39179 1.33878 4.83982
11 2 0.400147 3.32042 0.595928
12 2 4.30451 6.2894 7.82911
13 2 7.16709 6.72628 1.85446
14 2 6.59852 2.68057 6.68376
15 2 8.78932 1.7905 2.26838
16 2 4.77273 7.59879 5.84032
17 5 1.09233 0.617135 5.19841
18 5 3.65084 8.97786 3.19169
19 5 1.49989 5.39669 7.46499
20 5 3.15377 4.07387 0.950926
21 5 3.15279 0.148318 5.69009
22 5 1.55977 9.41876 2.70243
23 5 8.61256 4.91362 7.05703
24 5 5.18968 4.5065 1.35058
25 3 8.12611 7.6833 2.13605
26 3 5.66026 1.77242 6.37228
27 3 7.83363 2.74579 1.98003
28 3 5.85608 6.73178 6.28228
29 3 6.23138 7.06578 2.83242
30 3 7.61983 2.35096 5.70465
31 3 0.702903 2.2489 1.39337
32 3 3.91669 7.255 6.92594
33 6 2.15633 0.203039 4.86699
34 6 2.53261 9.32307 3.48163
35 6 0.482147 4.99296 7.86995
36 6 4.24471 4.42565 0.559451
37 4 0.107117 7.40851 1.84075
38 4 4.67603 1.76758 6.87466
39 4 6.85886 2.54159 2.36227
40 4 6.85534 6.71095 5.9279
41 4 5.22156 6.73804 2.681
42 4 8.60218 2.70684 6.01711
43 4 1.64028 1.77195 1.27009
44 4 2.92363 7.77288 6.87104
45 1 4.56288 0.36621 12.3593
46 1 0.834153 9.15291 13.3585
47 1 2.96337 5.21003 9.01534
48 1 2.42891 4.19934 16.6981
49 2 3.59189 8.28303 12.1098
50 2 1.71348 0.910008 13.834
51 2 4.05251 3.74237 9.73799
52 2 1.4406 5.91967 16.1338
53 2 2.13999 8.19131 12.0555
54 2 3.09046 1.10336 13.7369
55 2 5.29126 3.33607 9.27046
56 2 9.23383 6.32221 16.5401
57 2 3.09968 6.62476 10.6887
58 2 2.39986 2.78024 15.3463
59 2 4.50179 1.7046 10.8303
60 2 0.741502 7.61739 14.6727
61 5 5.80775 0.469028 13.845
62 5 8.47421 9.16285 12.1695
63 5 6.31012 5.60157 16.3186
64 5 8.17825 3.85636 9.52902
65 5 7.86646 0.166028 14.3243
66 5 6.33451 9.52323 11.4967
67 5 4.26838 5.00919 15.7784
68 5 1.06635 4.519 10.0423
69 3 4.17881 7.0838 11.5026
70 3 1.45489 1.84972 14.9257
71 3 3.56188 2.69126 10.6084
72 3 1.82485 6.88972 15.1507
73 3 1.96571 6.9519 11.4801
74 3 3.33699 2.34249 14.413
75 3 5.53999 2.13993 10.0708
76 3 8.86404 7.29555 15.6452
77 6 6.97333 0.158374 13.5488
78 6 7.25275 9.24271 12.323
79 6 5.1837 5.17749 16.6265
80 6 9.23437 4.36492 9.24183
81 4 4.89617 7.46246 10.898
82 4 9.53374 1.86371 15.3295
83 4 2.73549 2.92288 11.3502
84 4 2.56872 6.52872 14.4278
85 4 0.929862 6.67852 11.3308
86 4 4.31747 2.55648 14.6283
87 4 6.52813 1.66896 9.81059
88 4 7.96713 7.77537 15.6007
89 1 8.72042 10.225 3.67793
90 1 5.04621 19.0284 4.67338
91 1 7.13512 15.145 0.395869
92 1 6.66016 14.0713 8.03449
93 2 7.78964 18.5239 3.09766
94 2 5.88485 11.3031 4.93308
95 2 8.13198 13.4696 0.89009
96 2 5.54379 15.719 7.35321
97 2 6.42395 18.2209 3.34772
98 2 7.31965 11.3675 4.81393
99 2 0.382487 13.0898 0.581334
100 2 4.34799 16.2826 7.80888
101 2 7.17593 16.6656 1.7227
102 2 6.64966 12.7532 6.49137
103 2 8.62413 11.6691 2.34869
104 2 5.06105 17.6232 6.11218
105 5 1.15795 10.506 5.07163
106 5 3.62755 18.9995 3.14505
107 5 1.44571 15.4134 7.59155
108 5 3.23538 13.962 0.829938
109 5 3.08242 10.038 5.79371
110 5 1.52991 19.2271 2.64227
111 5 8.49605 14.9346 7.05539
112 5 5.23066 14.3716 1.36623
113 3 8.12923 17.5921 2.05332
114 3 5.67959 11.7901 6.26672
115 3 7.75789 12.6471 1.98141
116 3 6.00914 16.6645 6.44996
117 3 6.24202 16.9855 2.63871
118 3 7.69348 12.3909 5.61787
119 3 0.537813 12.0275 1.45378
120 3 3.9848 17.2665 6.9433
121 6 2.27398 10.1019 4.88115
122 6 2.43153 19.3797 3.42286
123 6 0.355236 15.0858 7.80712
124 6 4.34703 14.3896 0.574593
125 4 0.116323 17.3427 1.95262
126 4 4.73466 12.208 6.46927
127 4 6.66908 12.6367 2.27151
128 4 6.86242 16.6469 5.87443
129 4 5.21275 16.6193 2.73636
130 4 8.7352 12.9886 5.51487
131 4 1.38234 11.291 1.30724
132 4 3.21776 18.0559 7.17903
133 1 4.45817 10.2018 12.3201
134 1 0.794972 18.9868 13.4566
135 1 2.86447 15.0772 9.0938
136 1 2.38523 14.0994 16.6694
137 2 3.41973 18.4727 11.7844
138 2 1.86442 10.7155 14.023
139 2 3.90662 13.5165 9.6377
140 2 1.41356 15.6568 16.104
141 2 2.0426 18.1577 12.1297
142 2 3.16561 11.1072 13.6531
143 2 5.17875 13.1015 9.20104
144 2 9.26496 16.06 16.5256
145 2 2.97644 16.5875 10.4356
146 2 2.38836 12.6621 15.2696
147 2 4.71608 11.8578 11.0959
148 2 0.745915 17.6024 14.8757
149 5 6.01651 10.3339 13.8589
150 5 8.53152 18.9378 11.8789
151 5 6.30548 15.5529 16.3246
152 5 8.21358 13.9568 9.43366
153 5 8.04314 10.052 14.3099
154 5 6.41621 19.1493 11.4111
155 5 4.39141 15.0707 15.7761
156 5 1.14885 14.3507 10.0198
157 3 3.95233 17.452 10.9006
158 3 1.5298 11.6255 15.0399
159 3 3.70681 12.7153 10.7204
160 3 1.66592 16.6625 15.0969
161 3 1.89579 17.0815 11.2507
162 3 3.41032 12.1675 14.4591
163 3 5.45592 12.0145 9.97121
164 3 8.91712 17.1806 15.782
165 6 7.06529 9.86049 13.661
166 6 7.35264 19.1418 12.1676
167 6 5.24256 15.0464 16.6105
168 6 9.22203 14.5208 9.3117
169 4 4.93326 17.5498 10.4768
170 4 0.537462 11.5607 15.5291
171 4 3.08661 13.1534 11.5707
172 4 2.67245 16.8171 14.8238
173 4 1.11243 16.375 11.4206
174 4 4.15319 12.9967 14.2041
175 4 6.42843 11.6908 9.97375
176 4 7.85141 17.6122 15.8753
177 7 2.97627 9.80829 9.72895
178 8 3.12881 9.26107 8.67408
179 8 2.39675 10.3837 10.5873
180 7 9.14976 11.6611 10.6233
181 8 8.40426 11.678 11.5306
182 8 0.699725 11.815 9.684
183 7 7.27687 6.66161 9.98417
184 8 7.36155 6.24389 8.9374
185 8 7.12172 7.11471 11.0365
186 7 1.80735 10.588 7.93831
187 8 1.02159 9.79155 7.60906
188 8 2.61822 11.3483 8.30912
189 7 6.37439 9.18735 7.28391
190 8 7.17829 8.88624 6.37815
191 8 5.67518 9.00335 8.26835
192 7 0.195416 7.70778 6.94385
193 8 0.881311 7.32835 6.06582
194 8 8.42301 7.87409 7.71077
195 7 0.927449 8.31717 9.47899
196 8 0.860992 7.28889 9.03851
197 8 0.728608 9.3416 9.94863
198 7 7.80015 10.3702 8.59208
199 8 8.32901 11.1195 7.89973
200 8 7.51723 9.445 9.21617
201 7 6.1697 14.7117 12.5429
202 8 6.11598 15.6236 13.2624
203 8 6.18057 14.1033 11.5585
204 7 7.09505 13.5666 14.6812
205 8 7.91643 13.9561 13.9232
206 8 6.58456 12.8378 15.458
207 7 6.16894 4.41946 13.3254
208 8 5.57537 4.75139 12.3438
209 8 6.79554 3.92784 14.1811
210 7 8.97794 4.22614 12.7526
211 8 9.25111 4.79812 13.7586
212 8 8.71426 3.30702 12.0671
213 7 3.5914 4.54577 5.36055
214 8 2.87385 3.79081 5.92881
215 8 4.1357 5.39761 4.74688
216 7 4.31729 2.23881 2.71196
217 8 4.37745 1.67221 1.65724
218 8 4.26617 2.56826 3.85711
219 7 2.26119 13.5171 4.56864
220 8 2.05752 13.5773 5.72627
221 8 2.65411 13.5221 3.46082
222 7 3.74296 15.689 4.76127
223 8 4.67389 14.9562 4.64829
224 8 2.78101 16.3979 4.72962
ITEM: TIMESTEP
67
ITEM: NUMBER OF ATOMS
224
ITEM: BOX BOUNDS xy xz yz pp pp pp
-8.6679529444159797e-02 9.6431232752789970e+00 0.0000000000000000e+00
-1.8852295559892163e-01 1.9575522055598949e+01 6.4264354583484173e-01
-1.6592213766027797e-01 1.7228737237660262e+01 0.0000000000000000e+00
ITEM: ATOMS id type x y z
1 1 8.79775 0.345804 3.61302
2 1 4.9741 9.20201 4.70693
3 1 7.09155 5.33173 0.297224
4 1 6.6574 4.20003 8.03822
5 2 7.79592 8.6467 3.06946
6 2 6.18255 0.915253 5.32846
7 2 8.14783 3.63657 0.950539
8 2 5.53083 5.81725 7.27832
9 2 6.52071 8.19456 3.51542
10 2 7.39079 1.33443 4.83872
11 2 0.399396 3.31831 0.593031
12 2 4.3026 6.29049 7.82652
13 2 7.1693 6.72278 1.85207
14 2 6.59815 2.67784 6.68466
15 2 8.79024 1.78667 2.26622
16 2 4.77085 7.59632 5.83704
17 5 1.0923 0.613938 5.1979
18 5 3.64931 8.97832 3.18898
19 5 1.49985 5.39119 7.46337
20 5 3.15397 4.07335 0.949118
21 5 3.15115 0.144767 5.68848
22 5 1.56084 9.41898 2.70135
23 5 8.61523 4.90893 7.05546
24 5 5.18796 4.5056 1.34704
25 3 8.12688 7.68187 2.13416
26 3 5.66356 1.76951 6.37132
27 3 7.83776 2.74163 1.97749
28 3 5.85075 6.72997 6.27908
29 3 6.23357 7.06444 2.83249
30 3 7.62197 2.34944 5.70408
31 3 0.701676 2.24615 1.39091
32 3 3.91691 7.25059 6.92337
33 6 2.15518 0.198974 4.86204
34 6 2.53192 9.32348 3.48144
35 6 0.481434 4.98665 7.8722
36 6 4.24424 4.42461 0.555622
37 4 0.106931 7.4055 1.84245
38 4 4.67929 1.76459 6.87463
39 4 6.86554 2.53117 2.35917
40 4 6.848 6.69895 5.9161
41 4 5.22326 6.73761 2.68091
42 4 8.60363 2.70678 6.02076
43 4 1.63813 1.76932 1.26549
44 4 2.92031 7.76228 6.86949
45 1 4.56353 0.362237 12.3611
46 1 0.832665 9.1529 13.3597
47 1 2.96322 5.20687 9.01501
48 1 2.4285 4.19732 16.7016
49 2 3.59206 8.275 12.1166
50 2 1.71327 0.907066 13.8357
51 2 4.05559 3.74032 9.7387
52 2 1.43844 5.91887 16.1374
53 2 2.14074 8.18995 12.0589
54 2 3.08823 1.09899 13.7403
55 2 5.29023 3.3346 9.27136
56 2 9.23665 6.32153 16.5431
57 2 3.10483 6.61945 10.6964
58 2 2.39834 2.77648 15.3477
59 2 4.50206 1.70044 10.8294
60 2 0.738979 7.61755 14.6736
61 5 5.80756 0.463692 13.8472
62 5 8.47329 9.16527 12.174
63 5 6.30929 5.60182 16.3219
64 5 8.18277 3.85121 9.52958
65 5 7.86511 0.162883 14.3259
66 5 6.33597 9.52578 11.5023
67 5 4.26898 5.00681 15.7816
68 5 1.06481 4.51817 10.0426
69 3 4.17699 7.07574 11.5116
70 3 1.45426 1.84756 14.9277
71 3 3.56369 2.68718 10.6084
72 3 1.82325 6.89024 15.1537
73 3 1.96722 6.94737 11.4849
74 3 3.33555 2.33825 14.4158
75 3 5.5393 2.13579 10.0721
76 3 8.86673 7.29451 15.6477
77 6 6.97402 0.15365 13.5486
78 6 7.25254 9.24192 12.3277
79 6 5.18165 5.17483 16.6352
80 6 9.23834 4.36158 9.24078
81 4 4.90538 7.45625 10.9152
82 4 9.53471 1.86405 15.3271
83 4 2.7367 2.91928 11.3531
84 4 2.56784 6.52204 14.4324
85 4 0.930223 6.67709 11.3285
86 4 4.31358 2.55029 14.6364
87 4 6.52608 1.66294 9.80784
88 4 7.97241 7.77364 15.6002
89 1 8.72198 10.225 3.6763
90 1 5.04646 19.0324 4.67123
91 1 7.13598 15.1466 0.392898
92 1 6.6615 14.073 8.0347
93 2 7.79021 18.5279 3.09568
94 2 5.88683 11.3083 4.92589
95 2 8.13293 13.4706 0.887537
96 2 5.54218 15.7202 7.35414
97 2 6.42551 18.2245 3.34397
98 2 7.31789 11.3711 4.81072
99 2 0.380374 13.0902 0.578485
100 2 4.34777 16.2855 7.80926
101 2 7.17751 16.6674 1.72022
102 2 6.65067 12.7587 6.48903
103 2 8.62472 11.6676 2.34748
104 2 5.06288 17.6294 6.11035
105 5 1.15802 10.5079 5.06878
106 5 3.62659 19.0057 3.14127
107 5 1.44282 15.4164 7.59128
108 5 3.23546 13.9647 0.827307
109 5 3.0804 10.0381 5.79216
110 5 1.53024 19.2308 2.64051
111 5 8.49926 14.9363 7.05647
112 5 5.23016 14.3744 1.36358
113 3 8.13035 17.5954 2.05048
114 3 5.67971 11.7955 6.26355
115 3 7.75936 12.6488 1.9783
116 3 6.00991 16.6705 6.44907
117 3 6.24487 16.9898 2.63598
118 3 7.69287 12.3949 5.61463
119 3 0.534748 12.0282 1.45125
120 3 3.98536 17.2712 6.94363
121 6 2.27463 10.1019 4.8775
122 6 2.42873 19.3864 3.4228
123 6 0.35292 15.0896 7.80729
124 6 4.34801 14.3932 0.570079
125 4 0.115771 17.3452 1.95682
126 4 4.73945 12.219 6.46804
127 4 6.66601 12.6422 2.26057
128 4 6.85818 16.6545 5.87055
129 4 5.21364 16.6295 2.73519
130 4 8.73916 12.9929 5.50928
131 4 1.3796 11.2886 1.30271
132 4 3.22029 18.0644 7.18321
133 1 4.45768 10.2013 12.3216
134 1 0.792812 18.9902 13.459
135 1 2.86291 15.0779 9.09432
136 1 2.38437 14.1015 16.6723
137 2 3.41929 18.4752 11.7848
138 2 1.86418 10.7146 14.0263
139 2 3.90628 13.5205 9.63773
140 2 1.4105 15.6572 16.1089
141 2 2.04128 18.1604 12.1298
142 2 3.16524 11.1067 13.6554
143 2 5.17943 13.1021 9.19905
144 2 9.26776 16.0615 16.529
145 2 2.97545 16.5891 10.4375
146 2 2.38794 12.6656 15.273
147 2 4.71832 11.8589 11.0998
148 2 0.744855 17.6071 14.8785
149 5 6.01761 10.3331 13.8617
150 5 8.5318 18.9436 11.8799
151 5 6.30552 15.5584 16.3292
152 5 8.21795 13.9598 9.43355
153 5 8.04453 10.0527 14.3108
154 5 6.41863 19.1515 11.4133
155 5 4.39193 15.0742 15.7795
156 5 1.14723 14.3549 10.0188
157 3 3.94917 17.455 10.9047
158 3 1.52968 11.625 15.0425
159 3 3.70905 12.718 10.7238
160 3 1.6643 16.6668 15.0979
161 3 1.89595 17.0854 11.2507
162 3 3.40997 12.1676 14.4611
163 3 5.456 12.0134 9.96955
164 3 8.91836 17.1834 15.7867
165 6 7.06645 9.85813 13.6644
166 6 7.35347 19.145 12.1701
167 6 5.24245 15.0508 16.617
168 6 9.22464 14.5262 9.31301
169 4 4.93168 17.5576 10.4869
170 4 0.532339 11.5547 15.5262
171 4 3.09013 13.1641 11.5756
172 4 2.67047 16.825 14.8274
173 4 1.11418 16.377 11.4193
174 4 4.14901 13.0007 14.2039
175 4 6.42818 11.6963 9.97376
176 4 7.84916 17.6148 15.8842
177 7 2.97307 9.81212 9.72447
178 8 3.12653 9.2704 8.66973
179 8 2.39428 10.3824 10.5866
180 7 9.15037 11.6619 10.6244
181 8 8.40702 11.6851 11.5316
182 8 0.69816 11.8113 9.68374
183 7 7.27823 6.6602 9.98358
184 8 7.3623 6.24288 8.93457
185 8 7.1215 7.11141 11.0412
186 7 1.8074 10.59 7.93816
187 8 1.02069 9.79077 7.61114
188 8 2.61872 11.3507 8.30531
189 7 6.37733 9.18802 7.2839
190 8 7.18183 8.88296 6.3793
191 8 5.67435 9.00911 8.27118
192 7 0.195094 7.70592 6.94116
193 8 0.878506 7.32781 6.06264
194 8 8.42642 7.87149 7.70724
195 7 0.924828 8.32048 9.47907
196 8 0.856899 7.28938 9.03802
197 8 0.728101 9.33993 9.94855
198 7 7.80348 10.3713 8.5931
199 8 8.33258 11.1215 7.90197
200 8 7.51828 9.44243 9.21714
201 7 6.17006 14.7177 12.5451
202 8 6.11727 15.6283 13.2622
203 8 6.18088 14.1059 11.5607
204 7 7.09902 13.5656 14.6828
205 8 7.9184 13.9572 13.9258
206 8 6.58934 12.8357 15.4564
207 7 6.16808 4.41775 13.3264
208 8 5.57587 4.74961 12.3472
209 8 6.79645 3.92443 14.1835
210 7 8.98047 4.22453 12.7557
211 8 9.25404 4.79732 13.7595
212 8 8.71487 3.30381 12.0706
213 7 3.5893 4.54444 5.3581
214 8 2.86991 3.78682 5.92956
215 8 4.13215 5.39264 4.74238
216 7 4.31824 2.23529 2.71047
217 8 4.37955 1.66716 1.65305
218 8 4.26648 2.56486 3.85572
219 7 2.26093 13.5164 4.56631
220 8 2.05758 13.5768 5.72581
221 8 2.65373 13.5215 3.45885
222 7 3.74135 15.6912 4.75748
223 8 4.66969 14.9547 4.64226
224 8 2.78161 16.4016 4.72745
ITEM: TIMESTEP
68
ITEM: NUMBER OF ATOMS
224
ITEM: BOX BOUNDS xy xz yz pp pp pp
-8.8489573334884497e-02 9.6451893316354251e+00 0.0000000000000000e+00
-1.9245969621382031e-01 1.9579458796213849e+01 6.4289955830054468e-01
-1.6938692748474615e-01 1.7232202027484728e+01 0.0000000000000000e+00
ITEM: ATOMS id type x y z
1 1 8.8004 0.341882 3.61055
2 1 4.9733 9.20286 4.70517
3 1 7.09179 5.33023 0.293192
4 1 6.65886 4.19784 8.03858
5 2 7.79792 8.64702 3.06827
6 2 6.18555 0.91024 5.32627
7 2 8.14896 3.63539 0.947104
8 2 5.52817 5.81406 7.27573
9 2 6.52163 8.19427 3.5143
10 2 7.3898 1.33008 4.83769
11 2 0.398599 3.31621 0.590179
12 2 4.30072 6.29153 7.82386
13 2 7.17152 6.7193 1.84973
14 2 6.59783 2.67512 6.68549
15 2 8.79118 1.78287 2.26401
16 2 4.76905 7.59381 5.8339
17 5 1.09222 0.610755 5.19738
18 5 3.6478 8.97877 3.18627
19 5 1.49988 5.38569 7.46179
20 5 3.15414 4.07285 0.947285
21 5 3.14946 0.141231 5.6868
22 5 1.56194 9.41919 2.70029
23 5 8.61792 4.90423 7.05392
24 5 5.18623 4.50472 1.3435
25 3 8.12768 7.68041 2.13225
26 3 5.66691 1.76659 6.37028
27 3 7.8419 2.73746 1.97496
28 3 5.84533 6.72814 6.2759
29 3 6.23579 7.0631 2.83249
30 3 7.62404 2.34801 5.70364
31 3 0.700409 2.24341 1.38848
32 3 3.91711 7.24626 6.92071
33 6 2.1542 0.194896 4.85719
34 6 2.53116 9.32395 3.48128
35 6 0.480526 4.98028 7.87432
36 6 4.24386 4.4236 0.551886
37 4 0.10625 7.40289 1.84437
38 4 4.68269 1.7614 6.8744
39 4 6.87188 2.52098 2.35597
40 4 6.84079 6.68684 5.90384
41 4 5.22477 6.73715 2.681
42 4 8.6052 2.70654 6.02396
43 4 1.63624 1.76644 1.26095
44 4 2.91747 7.75129 6.86832
45 1 4.56418 0.35827 12.3628
46 1 0.831175 9.15289 13.3609
47 1 2.96307 5.20372 9.01468
48 1 2.42809 4.1953 16.7051
49 2 3.59217 8.26691 12.1234
50 2 1.71311 0.904202 13.8376
51 2 4.05861 3.73821 9.73944
52 2 1.43625 5.91812 16.1409
53 2 2.14161 8.1885 12.0623
54 2 3.08598 1.09471 13.7437
55 2 5.28919 3.33304 9.27233
56 2 9.23947 6.32083 16.5461
57 2 3.10995 6.6141 10.7042
58 2 2.39683 2.77267 15.349
59 2 4.50232 1.6963 10.8285
60 2 0.73648 7.61772 14.6746
61 5 5.8074 0.458357 13.8493
62 5 8.47234 9.16766 12.1785
63 5 6.30843 5.60206 16.3251
64 5 8.18726 3.84606 9.53012
65 5 7.86382 0.159756 14.3275
66 5 6.33747 9.52831 11.5078
67 5 4.26962 5.00445 15.7847
68 5 1.06328 4.51733 10.0428
69 3 4.17499 7.06788 11.5205
70 3 1.45361 1.84535 14.9296
71 3 3.56552 2.6832 10.6085
72 3 1.82162 6.89068 15.1567
73 3 1.96878 6.9429 11.4896
74 3 3.33408 2.33397 14.4186
75 3 5.53866 2.1318 10.0734
76 3 8.86953 7.29348 15.6501
77 6 6.97468 0.148906 13.5482
78 6 7.25232 9.2412 12.3325
79 6 5.17953 5.17216 16.6437
80 6 9.2424 4.35825 9.23977
81 4 4.91526 7.45 10.932
82 4 9.53563 1.86455 15.3246
83 4 2.7383 2.91545 11.3556
84 4 2.56692 6.51557 14.4372
85 4 0.930646 6.67549 11.3261
86 4 4.31039 2.54428 14.6447
87 4 6.52349 1.65667 9.80546
88 4 7.97685 7.77214 15.5999
89 1 8.72353 10.225 3.67467
90 1 5.0467 19.0364 4.66908
91 1 7.13683 15.1482 0.389935
92 1 6.66283 14.0748 8.0349
93 2 7.79073 18.5318 3.09365
94 2 5.88889 11.3134 4.91883
95 2 8.13391 13.4716 0.885052
96 2 5.5406 15.7213 7.35505
97 2 6.42713 18.228 3.3402
98 2 7.31608 11.3747 4.80754
99 2 0.378186 13.0905 0.575679
100 2 4.34753 16.2884 7.80965
101 2 7.17909 16.6692 1.71777
102 2 6.65169 12.7641 6.48668
103 2 8.62533 11.6661 2.34622
104 2 5.0647 17.6355 6.10857
105 5 1.15807 10.5098 5.06595
106 5 3.62554 19.012 3.13752
107 5 1.44002 15.4195 7.59097
108 5 3.23553 13.9673 0.824677
109 5 3.07842 10.0382 5.79057
110 5 1.53054 19.2344 2.63876
111 5 8.50245 14.938 7.05753
112 5 5.22971 14.3772 1.36095
113 3 8.13148 17.5988 2.0477
114 3 5.67987 11.8009 6.26023
115 3 7.76077 12.6505 1.97517
116 3 6.01059 16.6765 6.44821
117 3 6.24765 16.9943 2.63334
118 3 7.6923 12.399 5.61141
119 3 0.531749 12.0288 1.44874
120 3 3.98599 17.2759 6.94395
121 6 2.27529 10.1019 4.87382
122 6 2.42608 19.393 3.42273
123 6 0.350518 15.0933 7.8076
124 6 4.34893 14.3967 0.56558
125 4 0.11498 17.3477 1.96089
126 4 4.7437 12.2297 6.46689
127 4 6.66346 12.6475 2.24963
128 4 6.85463 16.6617 5.86645
129 4 5.21473 16.6395 2.7336
130 4 8.74183 12.9965 5.5038
131 4 1.37653 11.2868 1.29816
132 4 3.22308 18.0724 7.18747
133 1 4.45719 10.2008 12.3231
134 1 0.790647 18.9937 13.4614
135 1 2.86136 15.0786 9.09483
136 1 2.38353 14.1035 16.6753
137 2 3.41883 18.4777 11.7852
138 2 1.86398 10.7137 14.0297
139 2 3.90602 13.5244 9.63778
140 2 1.40744 15.6577 16.1137
141 2 2.04011 18.163 12.1299
142 2 3.16481 11.1063 13.6576
143 2 5.18006 13.1028 9.19709
144 2 9.27049 16.063 16.5324
145 2 2.97443 16.5908 10.4395
146 2 2.38753 12.6689 15.2762
147 2 4.72051 11.8601 11.1037
148 2 0.743792 17.6118 14.8812
149 5 6.01863 10.3325 13.8645
150 5 8.53206 18.9493 11.8809
151 5 6.30557 15.5638 16.3338
152 5 8.22224 13.9628 9.43347
153 5 8.04596 10.0534 14.3118
154 5 6.42103 19.1536 11.4156
155 5 4.39238 15.0776 15.783
156 5 1.14559 14.359 10.0178
157 3 3.94592 17.458 10.9087
158 3 1.52953 11.6244 15.0451
159 3 3.71125 12.7206 10.7272
160 3 1.66271 16.671 15.0989
161 3 1.89614 17.0893 11.2508
162 3 3.40965 12.1678 14.4632
163 3 5.45608 12.0124 9.9679
164 3 8.91953 17.1862 15.7915
165 6 7.06761 9.85573 13.6679
166 6 7.35427 19.1483 12.1726
167 6 5.24236 15.0552 16.6234
168 6 9.22736 14.5316 9.31424
169 4 4.9302 17.5652 10.4969
170 4 0.527464 11.5489 15.5231
171 4 3.09387 13.1746 11.5799
172 4 2.66883 16.8329 14.8307
173 4 1.11564 16.3791 11.418
174 4 4.14459 13.004 14.2037
175 4 6.42854 11.7016 9.97378
176 4 7.8477 17.6172 15.8929
177 7 2.96982 9.81594 9.71998
178 8 3.12432 9.27968 8.6655
179 8 2.39193 10.3811 10.586
180 7 9.15091 11.6628 10.6255
181 8 8.4098 11.6922 11.5327
182 8 0.696621 11.8076 9.68347
183 7 7.27958 6.65884 9.98305
184 8 7.36304 6.24188 8.93173
185 8 7.12129 7.10805 11.046
186 7 1.80746 10.592 7.938
187 8 1.01983 9.79001 7.6132
188 8 2.61919 11.3531 8.30144
189 7 6.38029 9.18854 7.28387
190 8 7.18524 8.87984 6.38051
191 8 5.67353 9.01491 8.27387
192 7 0.194756 7.70402 6.93843
193 8 0.875687 7.32731 6.05946
194 8 8.42984 7.86889 7.70367
195 7 0.922162 8.32383 9.47916
196 8 0.852877 7.28979 9.03756
197 8 0.727563 9.33828 9.94848
198 7 7.80689 10.3724 8.59415
199 8 8.33611 11.1235 7.9042
200 8 7.51935 9.43989 9.21815
201 7 6.17041 14.7239 12.5472
202 8 6.11856 15.633 13.262
203 8 6.18121 14.1086 11.5629
204 7 7.10307 13.5645 14.6843
205 8 7.92033 13.9583 13.9284
206 8 6.59409 12.8338 15.4548
207 7 6.1672 4.41602 13.3274
208 8 5.5764 4.74783 12.3507
209 8 6.79733 3.92105 14.1859
210 7 8.98301 4.22286 12.7588
211 8 9.25695 4.79653 13.7604
212 8 8.71547 3.30065 12.0742
213 7 3.58715 4.54314 5.35566
214 8 2.86604 3.78287 5.93028
215 8 4.12857 5.38759 4.73788
216 7 4.3192 2.2317 2.70898
217 8 4.38164 1.66218 1.64895
218 8 4.2668 2.56147 3.85426
219 7 2.26071 13.5156 4.56399
220 8 2.05764 13.5763 5.7253
221 8 2.65331 13.5208 3.45694
222 7 3.73973 15.6934 4.75366
223 8 4.66545 14.9532 4.63624
224 8 2.78226 16.4052 4.72528
ITEM: TIMESTEP
69
ITEM: NUMBER OF ATOMS
224
ITEM: BOX BOUNDS xy xz yz pp pp pp
-9.0292959196343503e-02 9.6472477882514500e+00 0.0000000000000000e+00
-1.9638195600073693e-01 1.9583381056000764e+01 6.4315462905511145e-01
-1.7283897249558677e-01 1.7235654072495567e+01 0.0000000000000000e+00
ITEM: ATOMS id type x y z
1 1 8.80304 0.337979 3.60808
2 1 4.9725 9.20373 4.70341
3 1 7.09203 5.32873 0.28918
4 1 6.66033 4.19565 8.03895
5 2 7.79985 8.64727 3.0671
6 2 6.18845 0.905234 5.32413
7 2 8.15013 3.6342 0.943686
8 2 5.52542 5.81091 7.27314
9 2 6.52256 8.19402 3.51317
10 2 7.38883 1.32575 4.83671
11 2 0.397757 3.31412 0.587375
12 2 4.29887 6.29252 7.82113
13 2 7.17372 6.71585 1.84746
14 2 6.59759 2.67242 6.68626
15 2 8.79214 1.77912 2.26176
16 2 4.76734 7.59128 5.8309
17 5 1.09211 0.607586 5.19686
18 5 3.6463 8.97922 3.18356
19 5 1.5 5.38019 7.46025
20 5 3.15429 4.07236 0.94543
21 5 3.1477 0.13771 5.68505
22 5 1.56307 9.41938 2.69925
23 5 8.62063 4.89954 7.05242
24 5 5.18451 4.50384 1.33994
25 3 8.12851 7.67892 2.13031
26 3 5.67032 1.76364 6.36918
27 3 7.84608 2.73328 1.97243
28 3 5.83982 6.7263 6.27274
29 3 6.23803 7.06175 2.8324
30 3 7.62604 2.34665 5.70331
31 3 0.6991 2.24067 1.38608
32 3 3.91731 7.24201 6.91795
33 6 2.15339 0.19081 4.85246
34 6 2.53031 9.32447 3.48115
35 6 0.479426 4.97386 7.87631
36 6 4.24359 4.4226 0.548248
37 4 0.105058 7.40066 1.84652
38 4 4.68623 1.75801 6.87396
39 4 6.87788 2.51103 2.35268
40 4 6.83369 6.67464 5.89112
41 4 5.22609 6.73666 2.68126
42 4 8.60689 2.70613 6.02672
43 4 1.63459 1.76331 1.25646
44 4 2.91512 7.73994 6.86751
45 1 4.56482 0.354311 12.3645
46 1 0.829684 9.15288 13.3621
47 1 2.96293 5.20059 9.01435
48 1 2.42768 4.1933 16.7086
49 2 3.59221 8.25877 12.1302
50 2 1.713 0.901418 13.8395
51 2 4.06158 3.73604 9.74019
52 2 1.43404 5.91744 16.1443
53 2 2.14261 8.18696 12.0657
54 2 3.08374 1.09055 13.7471
55 2 5.28816 3.33137 9.27338
56 2 9.24226 6.32011 16.549
57 2 3.11504 6.60871 10.712
58 2 2.39531 2.76882 15.3501
59 2 4.50259 1.69216 10.8276
60 2 0.734007 7.6179 14.6757
61 5 5.80728 0.453024 13.8514
62 5 8.47137 9.17005 12.1829
63 5 6.30753 5.6023 16.3284
64 5 8.19172 3.84091 9.53064
65 5 7.86259 0.156649 14.3291
66 5 6.33899 9.53083 11.5133
67 5 4.27029 5.00211 15.7879
68 5 1.06175 4.5165 10.0431
69 3 4.17283 7.0602 11.5294
70 3 1.45294 1.84307 14.9314
71 3 3.56739 2.67931 10.6085
72 3 1.81995 6.89103 15.1598
73 3 1.9704 6.93849 11.4944
74 3 3.33256 2.32963 14.4214
75 3 5.53807 2.12797 10.0745
76 3 8.87245 7.29246 15.6525
77 6 6.9753 0.144148 13.5479
78 6 7.25209 9.24055 12.3372
79 6 5.17736 5.1695 16.6521
80 6 9.24656 4.35493 9.23883
81 4 4.92576 7.44367 10.9484
82 4 9.5365 1.86523 15.3222
83 4 2.74028 2.91139 11.3577
84 4 2.56595 6.50932 14.442
85 4 0.931148 6.67372 11.3233
86 4 4.30792 2.53845 14.6531
87 4 6.52038 1.65015 9.80345
88 4 7.98044 7.77087 15.5998
89 1 8.72508 10.225 3.67305
90 1 5.04694 19.0404 4.66694
91 1 7.13768 15.1497 0.386981
92 1 6.66416 14.0765 8.03511
93 2 7.7912 18.5356 3.09156
94 2 5.89102 11.3183 4.91193
95 2 8.13495 13.4725 0.882633
96 2 5.53904 15.7226 7.35593
97 2 6.42881 18.2315 3.3364
98 2 7.31422 11.3783 4.80437
99 2 0.375922 13.0909 0.572918
100 2 4.34726 16.2911 7.81006
101 2 7.1807 16.6709 1.71534
102 2 6.65273 12.7695 6.48433
103 2 8.62594 11.6646 2.34491
104 2 5.06649 17.6416 6.10683
105 5 1.15811 10.5117 5.06313
106 5 3.62441 19.0182 3.1338
107 5 1.43728 15.4225 7.59061
108 5 3.2356 13.97 0.822049
109 5 3.07648 10.0383 5.78894
110 5 1.53081 19.2381 2.63702
111 5 8.50564 14.9397 7.05857
112 5 5.22931 14.3801 1.35836
113 3 8.13263 17.6022 2.045
114 3 5.68009 11.8065 6.25677
115 3 7.76212 12.6522 1.97202
116 3 6.01116 16.6825 6.44737
117 3 6.25036 16.9989 2.63077
118 3 7.69177 12.4031 5.60822
119 3 0.528819 12.0294 1.44624
120 3 3.98668 17.2807 6.94427
121 6 2.27595 10.1018 4.87012
122 6 2.42359 19.3995 3.42265
123 6 0.348032 15.097 7.80805
124 6 4.3498 14.4002 0.5611
125 4 0.113937 17.3501 1.96483
126 4 4.74739 12.2403 6.46582
127 4 6.66146 12.6526 2.23872
128 4 6.8518 16.6686 5.86214
129 4 5.216 16.6491 2.73159
130 4 8.74316 12.9993 5.49844
131 4 1.37311 11.2854 1.29359
132 4 3.22616 18.08 7.19179
133 1 4.45673 10.2003 12.3247
134 1 0.788476 18.9971 13.4638
135 1 2.85981 15.0793 9.09533
136 1 2.38269 14.1055 16.6783
137 2 3.41833 18.4801 11.7856
138 2 1.86383 10.7128 14.033
139 2 3.90585 13.5284 9.63784
140 2 1.40441 15.6583 16.1184
141 2 2.03909 18.1656 12.1299
142 2 3.16432 11.1058 13.6598
143 2 5.18066 13.1034 9.19515
144 2 9.27315 16.0645 16.5357
145 2 2.97338 16.5924 10.4415
146 2 2.38715 12.6723 15.2795
147 2 4.72263 11.8612 11.1075
148 2 0.742722 17.6165 14.8839
149 5 6.01959 10.3318 13.8673
150 5 8.5323 18.9551 11.8819
151 5 6.30564 15.5692 16.3384
152 5 8.22645 13.9657 9.43343
153 5 8.04743 10.0541 14.3127
154 5 6.4234 19.1558 11.4177
155 5 4.39277 15.081 15.7864
156 5 1.14394 14.3632 10.0167
157 3 3.9426 17.4611 10.9128
158 3 1.52934 11.6238 15.0476
159 3 3.7134 12.7233 10.7307
160 3 1.66114 16.6751 15.1001
161 3 1.89637 17.0931 11.2508
162 3 3.40935 12.1681 14.4654
163 3 5.45615 12.0114 9.96627
164 3 8.92063 17.189 15.7962
165 6 7.06876 9.85331 13.6713
166 6 7.35505 19.1516 12.1752
167 6 5.2423 15.0597 16.6298
168 6 9.23017 14.5372 9.31537
169 4 4.9288 17.5727 10.5067
170 4 0.522869 11.5433 15.5199
171 4 3.09787 13.1847 11.5837
172 4 2.66753 16.841 14.8339
173 4 1.11682 16.3812 11.4168
174 4 4.13995 13.0065 14.2034
175 4 6.42952 11.7066 9.9738
176 4 7.84708 17.6194 15.9015
177 7 2.96649 9.81974 9.71548
178 8 3.12219 9.2889 8.6614
179 8 2.38971 10.3797 10.5853
180 7 9.15138 11.6637 10.6267
181 8 8.4126 11.6993 11.5337
182 8 0.695106 11.8038 9.6832
183 7 7.28091 6.65753 9.98259
184 8 7.36377 6.24089 8.92889
185 8 7.1211 7.10462 11.0507
186 7 1.8075 10.594 7.9378
187 8 1.019 9.78928 7.61523
188 8 2.61962 11.3556 8.29749
189 7 6.38326 9.18891 7.28382
190 8 7.18852 8.87685 6.3818
191 8 5.67272 9.02074 8.27642
192 7 0.194401 7.70209 6.93566
193 8 0.872856 7.32685 6.05627
194 8 8.43328 7.86628 7.70007
195 7 0.919453 8.32721 9.47925
196 8 0.848928 7.29014 9.03712
197 8 0.726992 9.33664 9.94845
198 7 7.81036 10.3734 8.59522
199 8 8.33958 11.1256 7.90641
200 8 7.52042 9.4374 9.21919
201 7 6.17074 14.7301 12.5492
202 8 6.11982 15.6377 13.2618
203 8 6.18155 14.1112 11.5651
204 7 7.10721 13.5633 14.6859
205 8 7.92223 13.9593 13.9311
206 8 6.59883 12.8319 15.4532
207 7 6.1663 4.41427 13.3283
208 8 5.57695 4.74605 12.3543
209 8 6.79818 3.91769 14.1883
210 7 8.98556 4.22112 12.762
211 8 9.25985 4.79575 13.7613
212 8 8.71608 3.29754 12.0778
213 7 3.58492 4.54183 5.35323
214 8 2.86225 3.77896 5.93096
215 8 4.12497 5.38247 4.73338
216 7 4.32016 2.22804 2.70749
217 8 4.38373 1.65727 1.64493
218 8 4.26711 2.55809 3.85273
219 7 2.26053 13.5148 4.5617
220 8 2.0577 13.5758 5.72475
221 8 2.65286 13.5201 3.45506
222 7 3.7381 15.6956 4.74979
223 8 4.66116 14.9517 4.63026
224 8 2.78296 16.4087 4.72311
ITEM: TIMESTEP
70
ITEM: NUMBER OF ATOMS
224
ITEM: BOX BOUNDS xy xz yz pp pp pp
-9.2089102615964258e-02 9.6492979780552322e+00 0.0000000000000000e+00
-2.0028846389617350e-01 1.9587287563896201e+01 6.4340867543927360e-01
-1.7627715400901778e-01 1.7239092254008995e+01 0.0000000000000000e+00
ITEM: ATOMS id type x y z
1 1 8.80568 0.334095 3.60562
2 1 4.97171 9.2046 4.70165
3 1 7.09227 5.32723 0.28519
4 1 6.66179 4.19347 8.03931
5 2 7.80173 8.64746 3.06597
6 2 6.19125 0.900236 5.32205
7 2 8.15134 3.633 0.940289
8 2 5.52261 5.80782 7.27055
9 2 6.52351 8.19382 3.51201
10 2 7.38789 1.32143 4.83579
11 2 0.396867 3.31204 0.584619
12 2 4.29706 6.29344 7.81834
13 2 7.17591 6.71242 1.84525
14 2 6.59741 2.66973 6.68697
15 2 8.79313 1.77541 2.25947
16 2 4.76572 7.58872 5.82805
17 5 1.09196 0.604432 5.19632
18 5 3.64482 8.97966 3.18085
19 5 1.5002 5.37467 7.45877
20 5 3.15442 4.07189 0.943551
21 5 3.14588 0.134206 5.68323
22 5 1.56422 9.41956 2.69823
23 5 8.62337 4.89484 7.05095
24 5 5.18278 4.50297 1.33638
25 3 8.12938 7.67741 2.12834
26 3 5.67377 1.76067 6.36801
27 3 7.85027 2.7291 1.9699
28 3 5.83423 6.72444 6.26961
29 3 6.2403 7.06038 2.83223
30 3 7.62797 2.34536 5.7031
31 3 0.697749 2.23795 1.38372
32 3 3.91748 7.23784 6.9151
33 6 2.15275 0.186719 4.84784
34 6 2.52938 9.32505 3.48106
35 6 0.478138 4.96738 7.87814
36 6 4.2434 4.42163 0.544714
37 4 0.103349 7.39883 1.84889
38 4 4.6899 1.75441 6.87332
39 4 6.88351 2.50132 2.3493
40 4 6.82667 6.66238 5.87796
41 4 5.22723 6.73612 2.68169
42 4 8.60869 2.70553 6.02903
43 4 1.6332 1.75993 1.25202
44 4 2.91324 7.72825 6.86706
45 1 4.56545 0.35036 12.3663
46 1 0.828191 9.15287 13.3632
47 1 2.96278 5.19748 9.01403
48 1 2.42728 4.19132 16.7122
49 2 3.59218 8.25058 12.1369
50 2 1.71293 0.898715 13.8416
51 2 4.06449 3.73381 9.74097
52 2 1.43181 5.91681 16.1477
53 2 2.14373 8.18532 12.0692
54 2 3.08149 1.08649 13.7504
55 2 5.28713 3.32959 9.27451
56 2 9.24504 6.31938 16.5518
57 2 3.12009 6.60328 10.7199
58 2 2.39381 2.76494 15.3513
59 2 4.50284 1.68804 10.8268
60 2 0.731563 7.61809 14.6768
61 5 5.80719 0.447693 13.8535
62 5 8.47038 9.17242 12.1872
63 5 6.30658 5.60254 16.3317
64 5 8.19616 3.83577 9.53113
65 5 7.86141 0.153562 14.3308
66 5 6.34054 9.53334 11.5189
67 5 4.27099 4.99979 15.7911
68 5 1.06024 4.51567 10.0433
69 3 4.17051 7.05273 11.5382
70 3 1.45224 1.84074 14.9332
71 3 3.56929 2.67553 10.6085
72 3 1.81824 6.8913 15.1628
73 3 1.97207 6.93416 11.4992
74 3 3.331 2.32525 14.4241
75 3 5.53751 2.12428 10.0755
76 3 8.87547 7.29144 15.6548
77 6 6.97588 0.139378 13.5474
78 6 7.25183 9.23997 12.3421
79 6 5.17514 5.16684 16.6603
80 6 9.25081 4.35162 9.23794
81 4 4.93681 7.43724 10.9646
82 4 9.53734 1.86607 15.3198
83 4 2.74267 2.9071 11.3594
84 4 2.56491 6.50333 14.447
85 4 0.93175 6.6718 11.3203
86 4 4.30615 2.5328 14.6615
87 4 6.51674 1.64338 9.80181
88 4 7.98317 7.76984 15.5999
89 1 8.72663 10.225 3.67144
90 1 5.04718 19.0444 4.6648
91 1 7.13853 15.1513 0.384037
92 1 6.66549 14.0782 8.0353
93 2 7.79162 18.5394 3.08941
94 2 5.89322 11.3232 4.90519
95 2 8.13603 13.4734 0.880282
96 2 5.53751 15.7239 7.35678
97 2 6.43055 18.2348 3.33258
98 2 7.31231 11.3819 4.80122
99 2 0.373582 13.0913 0.570203
100 2 4.34697 16.2938 7.81047
101 2 7.18233 16.6726 1.71294
102 2 6.65377 12.7749 6.48196
103 2 8.62657 11.6631 2.34353
104 2 5.06825 17.6476 6.10515
105 5 1.15814 10.5137 5.06033
106 5 3.62319 19.0245 3.13011
107 5 1.43462 15.4256 7.59022
108 5 3.23567 13.9726 0.819423
109 5 3.07457 10.0383 5.78726
110 5 1.53103 19.2417 2.6353
111 5 8.50881 14.9414 7.05958
112 5 5.22895 14.3829 1.35579
113 3 8.13378 17.6056 2.04236
114 3 5.68037 11.8122 6.25317
115 3 7.76339 12.654 1.96884
116 3 6.01163 16.6886 6.44657
117 3 6.25301 17.0036 2.62828
118 3 7.69127 12.4074 5.60505
119 3 0.525958 12.03 1.44376
120 3 3.98743 17.2856 6.94458
121 6 2.27661 10.1018 4.86642
122 6 2.42126 19.406 3.42254
123 6 0.345467 15.1006 7.80865
124 6 4.3506 14.4037 0.556647
125 4 0.112628 17.3525 1.96863
126 4 4.75053 12.2507 6.46483
127 4 6.66002 12.6575 2.22784
128 4 6.84968 16.675 5.8576
129 4 5.21745 16.6584 2.72916
130 4 8.74316 13.0014 5.49319
131 4 1.36935 11.2846 1.28901
132 4 3.22952 18.087 7.19618
133 1 4.45627 10.1999 12.3263
134 1 0.786299 19.0005 13.4661
135 1 2.85827 15.08 9.09583
136 1 2.38187 14.1074 16.6812
137 2 3.41779 18.4824 11.7859
138 2 1.86373 10.712 14.0364
139 2 3.90576 13.5324 9.63792
140 2 1.40139 15.6589 16.123
141 2 2.03822 18.1681 12.1298
142 2 3.16378 11.1053 13.662
143 2 5.18122 13.1041 9.19325
144 2 9.27575 16.066 16.539
145 2 2.9723 16.5942 10.4436
146 2 2.38678 12.6755 15.2827
147 2 4.7247 11.8622 11.1113
148 2 0.741645 17.6211 14.8867
149 5 6.02049 10.3312 13.8701
150 5 8.53252 18.9608 11.8829
151 5 6.30572 15.5746 16.343
152 5 8.23059 13.9685 9.43343
153 5 8.04894 10.0548 14.3137
154 5 6.42575 19.1579 11.4199
155 5 4.3931 15.0844 15.7898
156 5 1.14227 14.3674 10.0157
157 3 3.9392 17.4643 10.9168
158 3 1.52911 11.6232 15.0501
159 3 3.71551 12.726 10.7343
160 3 1.6596 16.6791 15.1013
161 3 1.89663 17.0968 11.2507
162 3 3.40907 12.1686 14.4675
163 3 5.45621 12.0104 9.96465
164 3 8.92166 17.1918 15.801
165 6 7.06991 9.85085 13.6746
166 6 7.35581 19.155 12.1779
167 6 5.24227 15.0641 16.636
168 6 9.23308 14.5428 9.31642
169 4 4.92749 17.58 10.5163
170 4 0.518576 11.5378 15.5166
171 4 3.10213 13.1944 11.5868
172 4 2.66658 16.8491 14.8369
173 4 1.1177 16.3834 11.4158
174 4 4.13509 13.0083 14.2029
175 4 6.43113 11.7114 9.97383
176 4 7.84729 17.6214 15.91
177 7 2.96311 9.82353 9.71099
178 8 3.12013 9.29805 8.6574
179 8 2.38762 10.3784 10.5846
180 7 9.15179 11.6647 10.6278
181 8 8.4154 11.7064 11.5348
182 8 0.693613 11.8001 9.68294
183 7 7.28222 6.65627 9.9822
184 8 7.36449 6.23991 8.92606
185 8 7.12093 7.10113 11.0554
186 7 1.80754 10.596 7.93758
187 8 1.01821 9.78858 7.61724
188 8 2.62002 11.3581 8.29349
189 7 6.38623 9.18913 7.28376
190 8 7.19166 8.87401 6.38316
191 8 5.67194 9.0266 8.27883
192 7 0.194028 7.70012 6.93285
193 8 0.870018 7.32644 6.05307
194 8 8.43673 7.86366 7.69643
195 7 0.916704 8.33057 9.47934
196 8 0.845052 7.29042 9.03671
197 8 0.726385 9.33503 9.94844
198 7 7.8139 10.3744 8.59632
199 8 8.343 11.1277 7.90861
200 8 7.52151 9.43495 9.22026
201 7 6.17106 14.7364 12.551
202 8 6.12108 15.6424 13.2616
203 8 6.18191 14.1139 11.5674
204 7 7.11142 13.562 14.6874
205 8 7.9241 13.9604 13.9337
206 8 6.60354 12.83 15.4515
207 7 6.1654 4.41249 13.3292
208 8 5.57753 4.74428 12.3579
209 8 6.79899 3.91437 14.1907
210 7 8.98811 4.2193 12.7654
211 8 9.26273 4.79498 13.762
212 8 8.71668 3.29448 12.0813
213 7 3.58261 4.54052 5.35082
214 8 2.85853 3.7751 5.93161
215 8 4.12136 5.37729 4.72888
216 7 4.32112 2.22432 2.706
217 8 4.38581 1.65243 1.64101
218 8 4.26743 2.55471 3.85112
219 7 2.26039 13.514 4.55944
220 8 2.05776 13.5752 5.72415
221 8 2.65238 13.5194 3.45322
222 7 3.73647 15.6978 4.7459
223 8 4.65683 14.9503 4.62429
224 8 2.7837 16.4122 4.72095
ITEM: TIMESTEP
71
ITEM: NUMBER OF ATOMS
224
ITEM: BOX BOUNDS xy xz yz pp pp pp
-9.3877478909359269e-02 9.6513393021510652e+00 0.0000000000000000e+00
-2.0417807874198601e-01 1.9591177178742015e+01 6.4366162324171261e-01
-1.7970046767308467e-01 1.7242515567673060e+01 0.0000000000000000e+00
ITEM: ATOMS id type x y z
1 1 8.8083 0.330233 3.60317
2 1 4.97091 9.20547 4.6999
3 1 7.09251 5.32574 0.281223
4 1 6.66325 4.1913 8.03967
5 2 7.80355 8.64758 3.06486
6 2 6.19394 0.895248 5.32002
7 2 8.15259 3.63179 0.936915
8 2 5.51971 5.80477 7.26796
9 2 6.52448 8.19367 3.51084
10 2 7.38699 1.31713 4.83493
11 2 0.395929 3.30996 0.581913
12 2 4.29529 6.2943 7.8155
13 2 7.17809 6.70903 1.8431
14 2 6.59731 2.66706 6.68761
15 2 8.79414 1.77175 2.25714
16 2 4.76417 7.58614 5.82535
17 5 1.09178 0.601292 5.19577
18 5 3.64336 8.98009 3.17814
19 5 1.50047 5.36916 7.45733
20 5 3.15454 4.07143 0.94165
21 5 3.144 0.130718 5.68133
22 5 1.5654 9.41973 2.69724
23 5 8.62612 4.89015 7.04953
24 5 5.18106 4.50212 1.33281
25 3 8.13029 7.67588 2.12635
26 3 5.67726 1.75768 6.36678
27 3 7.85449 2.72492 1.96737
28 3 5.82857 6.72257 6.26651
29 3 6.24258 7.05901 2.83198
30 3 7.62981 2.34415 5.70302
31 3 0.696357 2.23524 1.38139
32 3 3.91763 7.23376 6.91216
33 6 2.15228 0.182629 4.84336
34 6 2.52838 9.32567 3.48098
35 6 0.476666 4.96085 7.87981
36 6 4.24331 4.42067 0.541286
37 4 0.101121 7.39738 1.85148
38 4 4.69372 1.75061 6.87247
39 4 6.88876 2.49187 2.34582
40 4 6.81971 6.65006 5.86438
41 4 5.2282 6.73556 2.6823
42 4 8.6106 2.70472 6.03088
43 4 1.63205 1.7563 1.24765
44 4 2.91184 7.71624 6.86696
45 1 4.56608 0.34642 12.368
46 1 0.826697 9.15285 13.3644
47 1 2.96264 5.19438 9.01372
48 1 2.42688 4.18935 16.7157
49 2 3.59209 8.24234 12.1435
50 2 1.71291 0.896092 13.8438
51 2 4.06733 3.73152 9.74178
52 2 1.42955 5.91624 16.151
53 2 2.14496 8.18359 12.0727
54 2 3.07925 1.08253 13.7538
55 2 5.2861 3.32771 9.27571
56 2 9.24779 6.31864 16.5546
57 2 3.12509 6.59781 10.7278
58 2 2.3923 2.76102 15.3523
59 2 4.5031 1.68393 10.826
60 2 0.729149 7.61829 14.678
61 5 5.80714 0.442365 13.8555
62 5 8.46937 9.17478 12.1914
63 5 6.30559 5.60277 16.335
64 5 8.20057 3.83063 9.5316
65 5 7.86028 0.150495 14.3325
66 5 6.34212 9.53583 11.5244
67 5 4.27173 4.99749 15.7943
68 5 1.05874 4.51483 10.0436
69 3 4.16804 7.04545 11.5469
70 3 1.45152 1.83834 14.9349
71 3 3.57122 2.67185 10.6084
72 3 1.81651 6.89147 15.1658
73 3 1.97379 6.92989 11.5039
74 3 3.3294 2.32082 14.4269
75 3 5.53701 2.12076 10.0764
76 3 8.87861 7.29044 15.657
77 6 6.97642 0.134599 13.547
78 6 7.25156 9.23946 12.3469
79 6 5.17287 5.16419 16.6684
80 6 9.25515 4.34833 9.23711
81 4 4.94834 7.43068 10.9805
82 4 9.53814 1.86709 15.3174
83 4 2.74546 2.90258 11.3606
84 4 2.56379 6.49759 14.452
85 4 0.932472 6.66972 11.3171
86 4 4.30509 2.52732 14.67
87 4 6.5126 1.63638 9.80053
88 4 7.98504 7.76904 15.6001
89 1 8.72817 10.2251 3.66983
90 1 5.04743 19.0484 4.66268
91 1 7.13938 15.1529 0.381104
92 1 6.66681 14.0799 8.0355
93 2 7.79199 18.5431 3.0872
94 2 5.89547 11.3279 4.8986
95 2 8.13716 13.4743 0.877997
96 2 5.53601 15.7252 7.35759
97 2 6.43235 18.2381 3.32873
98 2 7.31037 11.3854 4.79809
99 2 0.371166 13.0917 0.567534
100 2 4.34665 16.2964 7.8109
101 2 7.18397 16.6742 1.71057
102 2 6.65482 12.7803 6.47958
103 2 8.6272 11.6616 2.3421
104 2 5.06998 17.6537 6.10352
105 5 1.15816 10.5157 5.05753
106 5 3.62189 19.0308 3.12645
107 5 1.43204 15.4288 7.58978
108 5 3.23574 13.9753 0.816799
109 5 3.07271 10.0383 5.78554
110 5 1.53122 19.2454 2.6336
111 5 8.51196 14.9431 7.06057
112 5 5.22864 14.3857 1.35325
113 3 8.13494 17.6091 2.03981
114 3 5.68071 11.8179 6.24941
115 3 7.76461 12.6558 1.96565
116 3 6.01199 16.6946 6.44581
117 3 6.25558 17.0084 2.62587
118 3 7.69081 12.4116 5.6019
119 3 0.523168 12.0304 1.4413
120 3 3.98826 17.2905 6.94488
121 6 2.27727 10.1016 4.86272
122 6 2.41911 19.4124 3.4224
123 6 0.342826 15.1041 7.8094
124 6 4.35135 14.4071 0.552224
125 4 0.111046 17.3549 1.97229
126 4 4.75308 12.2608 6.4639
127 4 6.65915 12.6622 2.21702
128 4 6.84829 16.6811 5.85284
129 4 5.21909 16.6675 2.7263
130 4 8.74181 13.0027 5.48808
131 4 1.36523 11.2843 1.28441
132 4 3.23317 18.0934 7.20063
133 1 4.45583 10.1994 12.3278
134 1 0.784118 19.0039 13.4684
135 1 2.85673 15.0808 9.09632
136 1 2.38105 14.1094 16.6842
137 2 3.41721 18.4847 11.7863
138 2 1.86368 10.7112 14.0397
139 2 3.90576 13.5363 9.63802
140 2 1.39839 15.6597 16.1275
141 2 2.03749 18.1706 12.1296
142 2 3.16318 11.1048 13.6641
143 2 5.18174 13.1048 9.19139
144 2 9.27828 16.0675 16.5423
145 2 2.97119 16.5959 10.4458
146 2 2.38643 12.6787 15.2859
147 2 4.72671 11.8633 11.1149
148 2 0.740558 17.6258 14.8894
149 5 6.02132 10.3306 13.873
150 5 8.53273 18.9666 11.8838
151 5 6.30581 15.58 16.3477
152 5 8.23464 13.9713 9.43348
153 5 8.05049 10.0555 14.3146
154 5 6.42807 19.16 11.422
155 5 4.39337 15.0877 15.7932
156 5 1.14059 14.3715 10.0146
157 3 3.93572 17.4675 10.9209
158 3 1.52884 11.6226 15.0525
159 3 3.71757 12.7287 10.7379
160 3 1.65808 16.6829 15.1026
161 3 1.89693 17.1005 11.2507
162 3 3.40881 12.1692 14.4697
163 3 5.45625 12.0094 9.96305
164 3 8.92261 17.1945 15.8057
165 6 7.07104 9.84837 13.678
166 6 7.35655 19.1583 12.1806
167 6 5.24227 15.0686 16.6422
168 6 9.23607 14.5484 9.31737
169 4 4.92625 17.5871 10.5257
170 4 0.51461 11.5326 15.5132
171 4 3.10667 13.2037 11.5894
172 4 2.66597 16.8573 14.8397
173 4 1.11829 16.3856 11.4148
174 4 4.13003 13.0094 14.2024
175 4 6.43338 11.7159 9.97387
176 4 7.84836 17.6233 15.9183
177 7 2.95966 9.82731 9.70651
178 8 3.11814 9.30714 8.65351
179 8 2.38566 10.3771 10.5839
180 7 9.15214 11.6656 10.629
181 8 8.41822 11.7135 11.5359
182 8 0.692141 11.7964 9.68269
183 7 7.28351 6.65507 9.98188
184 8 7.3652 6.23895 8.92324
185 8 7.12077 7.09757 11.06
186 7 1.80756 10.5981 7.93733
187 8 1.01747 9.78791 7.61922
188 8 2.62038 11.3607 8.28941
189 7 6.38921 9.18919 7.2837
190 8 7.19467 8.87131 6.3846
191 8 5.67118 9.03249 8.28109
192 7 0.193636 7.69811 6.93001
193 8 0.867176 7.32607 6.04986
194 8 8.44019 7.86104 7.69277
195 7 0.913917 8.3339 9.47942
196 8 0.841252 7.29065 9.03634
197 8 0.725741 9.33347 9.94848
198 7 7.81749 10.3753 8.59746
199 8 8.34636 11.1299 7.9108
200 8 7.52262 9.43256 9.22136
201 7 6.17137 14.7427 12.5528
202 8 6.12231 15.6471 13.2615
203 8 6.18229 14.1165 11.5698
204 7 7.11571 13.5606 14.689
205 8 7.92593 13.9615 13.9364
206 8 6.60823 12.8281 15.4498
207 7 6.1645 4.41067 13.3301
208 8 5.57813 4.7425 12.3615
209 8 6.79977 3.91109 14.193
210 7 8.99067 4.2174 12.7688
211 8 9.2656 4.79423 13.7627
212 8 8.71728 3.29148 12.0849
213 7 3.58022 4.53919 5.34845
214 8 2.85489 3.77129 5.93222
215 8 4.11772 5.37205 4.72438
216 7 4.32208 2.22053 2.7045
217 8 4.38788 1.64766 1.63719
218 8 4.26774 2.55135 3.84944
219 7 2.26028 13.5133 4.55722
220 8 2.05783 13.5747 5.72349
221 8 2.65187 13.5187 3.45142
222 7 3.73484 15.6999 4.74196
223 8 4.65245 14.949 4.61836
224 8 2.7845 16.4156 4.71879
ITEM: TIMESTEP
72
ITEM: NUMBER OF ATOMS
224
ITEM: BOX BOUNDS xy xz yz pp pp pp
-9.5657623952883242e-02 9.6533712307696931e+00 0.0000000000000000e+00
-2.0804979109612631e-01 1.9595048891096155e+01 6.4391340681681652e-01
-1.8310802506132795e-01 1.7245923125061303e+01 0.0000000000000000e+00
ITEM: ATOMS id type x y z
1 1 8.81091 0.326392 3.60073
2 1 4.97011 9.20635 4.69814
3 1 7.09276 5.32426 0.27728
4 1 6.66471 4.18913 8.04003
5 2 7.80531 8.64764 3.06377
6 2 6.19652 0.890272 5.31804
7 2 8.15389 3.63056 0.933565
8 2 5.51673 5.80178 7.26536
9 2 6.52547 8.19356 3.50964
10 2 7.38612 1.31286 4.83412
11 2 0.39494 3.30789 0.579258
12 2 4.29356 6.29509 7.81259
13 2 7.18026 6.70567 1.84103
14 2 6.59728 2.66442 6.68818
15 2 8.79518 1.76812 2.25476
16 2 4.7627 7.58352 5.82278
17 5 1.09156 0.598168 5.19521
18 5 3.64191 8.98052 3.17543
19 5 1.50081 5.36363 7.45595
20 5 3.15463 4.07099 0.939728
21 5 3.14206 0.127247 5.67936
22 5 1.5666 9.41989 2.69627
23 5 8.6289 4.88546 7.04814
24 5 5.17934 4.50127 1.32924
25 3 8.13123 7.67433 2.12435
26 3 5.6808 1.75466 6.36548
27 3 7.85872 2.72074 1.96484
28 3 5.82284 6.72067 6.26343
29 3 6.24489 7.05763 2.83164
30 3 7.63158 2.34301 5.70305
31 3 0.694924 2.23254 1.3791
32 3 3.91776 7.22977 6.90912
33 6 2.15198 0.178542 4.83902
34 6 2.5273 9.32633 3.48094
35 6 0.475016 4.95429 7.88132
36 6 4.2433 4.41973 0.53797
37 4 0.09838 7.39631 1.85428
38 4 4.69767 1.7466 6.87141
39 4 6.89363 2.48269 2.34225
40 4 6.81276 6.63771 5.85039
41 4 5.229 6.73495 2.68308
42 4 8.61262 2.70371 6.03225
43 4 1.63113 1.75241 1.24333
44 4 2.9109 7.70394 6.8672
45 1 4.5667 0.34249 12.3697
46 1 0.825203 9.15284 13.3656
47 1 2.9625 5.19129 9.01342
48 1 2.42648 4.18739 16.7192
49 2 3.59193 8.23406 12.1502
50 2 1.71293 0.893551 13.8461
51 2 4.07011 3.72917 9.74262
52 2 1.42728 5.91574 16.1543
53 2 2.14632 8.18175 12.0762
54 2 3.07701 1.07869 13.7571
55 2 5.2851 3.32573 9.27698
56 2 9.25052 6.31788 16.5573
57 2 3.13005 6.59229 10.7358
58 2 2.39081 2.75707 15.3532
59 2 4.50335 1.67983 10.8253
60 2 0.726768 7.6185 14.6792
61 5 5.80712 0.43704 13.8576
62 5 8.46833 9.17712 12.1955
63 5 6.30456 5.60298 16.3383
64 5 8.20496 3.8255 9.53205
65 5 7.85921 0.14745 14.3342
66 5 6.34373 9.53831 11.53
67 5 4.2725 4.99521 15.7975
68 5 1.05725 4.514 10.0439
69 3 4.16544 7.03838 11.5555
70 3 1.45078 1.83588 14.9366
71 3 3.57317 2.66828 10.6084
72 3 1.81473 6.89156 15.1689
73 3 1.97556 6.92569 11.5087
74 3 3.32776 2.31634 14.4297
75 3 5.53654 2.11739 10.0771
76 3 8.88185 7.28945 15.6592
77 6 6.97692 0.129815 13.5464
78 6 7.25128 9.239 12.3518
79 6 5.17057 5.16156 16.6763
80 6 9.25958 4.34504 9.23635
81 4 4.96024 7.42396 10.9961
82 4 9.53891 1.86827 15.3151
83 4 2.74866 2.89784 11.3614
84 4 2.56259 6.49213 14.4572
85 4 0.933336 6.6675 11.3136
86 4 4.30472 2.52199 14.6786
87 4 6.50795 1.62913 9.79961
88 4 7.98605 7.76846 15.6006
89 1 8.7297 10.2251 3.66822
90 1 5.04767 19.0523 4.66056
91 1 7.14022 15.1544 0.378182
92 1 6.66812 14.0816 8.03569
93 2 7.79231 18.5467 3.08494
94 2 5.89777 11.3325 4.89218
95 2 8.13834 13.4751 0.875778
96 2 5.53454 15.7267 7.35837
97 2 6.43421 18.2413 3.32487
98 2 7.30839 11.389 4.79497
99 2 0.368674 13.0921 0.564913
100 2 4.34631 16.2989 7.81134
101 2 7.18563 16.6758 1.70823
102 2 6.65588 12.7857 6.47719
103 2 8.62784 11.6602 2.3406
104 2 5.07167 17.6597 6.10194
105 5 1.15817 10.5177 5.05475
106 5 3.6205 19.0371 3.12282
107 5 1.42954 15.4319 7.5893
108 5 3.23582 13.9779 0.814176
109 5 3.07088 10.0383 5.78378
110 5 1.53138 19.2491 2.63191
111 5 8.5151 14.9448 7.06154
112 5 5.22837 14.3886 1.35074
113 3 8.13611 17.6126 2.03733
114 3 5.6811 11.8238 6.2455
115 3 7.76576 12.6577 1.96243
116 3 6.01224 16.7007 6.44508
117 3 6.25809 17.0133 2.62353
118 3 7.69039 12.416 5.59878
119 3 0.520446 12.0309 1.43886
120 3 3.98915 17.2955 6.94517
121 6 2.27793 10.1015 4.85901
122 6 2.41712 19.4187 3.42223
123 6 0.340113 15.1075 7.8103
124 6 4.35203 14.4105 0.547839
125 4 0.109182 17.3572 1.97581
126 4 4.75507 12.2708 6.46303
127 4 6.65887 12.6666 2.20627
128 4 6.84761 16.6868 5.84787
129 4 5.22089 16.6762 2.72302
130 4 8.73916 13.0033 5.4831
131 4 1.36076 11.2845 1.2798
132 4 3.23711 18.0994 7.20513
133 1 4.4554 10.1989 12.3294
134 1 0.781932 19.0073 13.4707
135 1 2.8552 15.0815 9.0968
136 1 2.38025 14.1114 16.6871
137 2 3.41659 18.4869 11.7866
138 2 1.86368 10.7104 14.0431
139 2 3.90584 13.5403 9.63814
140 2 1.39543 15.6605 16.1319
141 2 2.03692 18.173 12.1294
142 2 3.16253 11.1043 13.6663
143 2 5.18221 13.1054 9.18955
144 2 9.28073 16.069 16.5455
145 2 2.97007 16.5977 10.448
146 2 2.3861 12.6818 15.289
147 2 4.72867 11.8643 11.1185
148 2 0.73946 17.6305 14.8921
149 5 6.02208 10.3301 13.8759
150 5 8.53291 18.9723 11.8848
151 5 6.30591 15.5854 16.3523
152 5 8.23862 13.974 9.43356
153 5 8.05209 10.0562 14.3157
154 5 6.43037 19.1621 11.4241
155 5 4.39359 15.091 15.7966
156 5 1.13889 14.3757 10.0136
157 3 3.93217 17.4708 10.925
158 3 1.52854 11.622 15.0549
159 3 3.71958 12.7315 10.7415
160 3 1.65659 16.6865 15.1039
161 3 1.89724 17.1041 11.2506
162 3 3.40857 12.1699 14.4719
163 3 5.45628 12.0085 9.96147
164 3 8.9235 17.1973 15.8105
165 6 7.07216 9.84586 13.6813
166 6 7.35728 19.1617 12.1834
167 6 5.24229 15.0731 16.6483
168 6 9.23916 14.5541 9.31823
169 4 4.92509 17.594 10.5348
170 4 0.510989 11.5275 15.5097
171 4 3.11148 13.2126 11.5913
172 4 2.66569 16.8656 14.8423
173 4 1.11859 16.3879 11.4139
174 4 4.12479 13.0097 14.2019
175 4 6.43625 11.7201 9.97391
176 4 7.85027 17.625 15.9265
177 7 2.95615 9.83108 9.70205
178 8 3.11624 9.31615 8.64973
179 8 2.38383 10.3757 10.5831
180 7 9.15244 11.6666 10.6302
181 8 8.42104 11.7206 11.5369
182 8 0.690688 11.7927 9.68245
183 7 7.28479 6.65392 9.98164
184 8 7.3659 6.238 8.92044
185 8 7.12064 7.09394 11.0646
186 7 1.80757 10.6002 7.93705
187 8 1.01676 9.78727 7.62119
188 8 2.6207 11.3633 8.28528
189 7 6.39219 9.18911 7.28363
190 8 7.19753 8.86876 6.3861
191 8 5.67044 9.03841 8.2832
192 7 0.193223 7.69607 6.92713
193 8 0.864333 7.32573 6.04663
194 8 8.44366 7.85841 7.68909
195 7 0.911096 8.33717 9.47946
196 8 0.837528 7.29083 9.03601
197 8 0.725058 9.33196 9.94856
198 7 7.82115 10.3761 8.59863
199 8 8.34967 11.1321 7.91297
200 8 7.52373 9.43023 9.22248
201 7 6.17167 14.749 12.5545
202 8 6.12353 15.6518 13.2614
203 8 6.18268 14.1191 11.5721
204 7 7.12007 13.5591 14.6906
205 8 7.92774 13.9626 13.9391
206 8 6.61289 12.8263 15.4481
207 7 6.16361 4.40882 13.3309
208 8 5.57875 4.74074 12.3652
209 8 6.80051 3.90784 14.1953
210 7 8.99323 4.21543 12.7722
211 8 9.26845 4.79349 13.7633
212 8 8.71789 3.28854 12.0884
213 7 3.57773 4.53784 5.34611
214 8 2.85134 3.76754 5.93278
215 8 4.11407 5.36675 4.71988
216 7 4.32304 2.21667 2.703
217 8 4.38996 1.64296 1.63346
218 8 4.26806 2.548 3.84768
219 7 2.26021 13.5125 4.55504
220 8 2.0579 13.5741 5.72279
221 8 2.65134 13.5179 3.44966
222 7 3.73322 15.7021 4.738
223 8 4.64802 14.9476 4.61244
224 8 2.78533 16.419 4.71663
ITEM: TIMESTEP
73
ITEM: NUMBER OF ATOMS
224
ITEM: BOX BOUNDS xy xz yz pp pp pp
-9.7429134297668085e-02 9.6553933033984709e+00 0.0000000000000000e+00
-2.1190272348067651e-01 1.9598901823480706e+01 6.4416396910080909e-01
-1.8649905389107424e-01 1.7249314153891049e+01 0.0000000000000000e+00
ITEM: ATOMS id type x y z
1 1 8.81351 0.322574 3.59831
2 1 4.96931 9.20723 4.69639
3 1 7.093 5.32278 0.273361
4 1 6.66617 4.18697 8.0404
5 2 7.807 8.64762 3.06272
6 2 6.19899 0.885309 5.31613
7 2 8.15522 3.62932 0.930242
8 2 5.51367 5.79885 7.26277
9 2 6.52648 8.19349 3.50843
10 2 7.3853 1.30862 4.83338
11 2 0.393901 3.30584 0.576654
12 2 4.29188 6.29581 7.80963
13 2 7.18242 6.70235 1.83902
14 2 6.59734 2.66179 6.68869
15 2 8.79626 1.76454 2.25233
16 2 4.76131 7.58088 5.82036
17 5 1.09131 0.595059 5.19464
18 5 3.64047 8.98094 3.17274
19 5 1.50123 5.35811 7.45462
20 5 3.1547 4.07057 0.937783
21 5 3.14007 0.123794 5.67731
22 5 1.56782 9.42003 2.69532
23 5 8.6317 4.88078 7.0468
24 5 5.17763 4.50043 1.32566
25 3 8.13221 7.67276 2.12232
26 3 5.68437 1.75161 6.3641
27 3 7.86296 2.71658 1.96231
28 3 5.81705 6.71875 6.26037
29 3 6.24722 7.05623 2.83121
30 3 7.63326 2.34195 5.70321
31 3 0.693449 2.22985 1.37684
32 3 3.91786 7.22587 6.90599
33 6 2.15183 0.174464 4.83482
34 6 2.52616 9.32705 3.48091
35 6 0.473192 4.94768 7.88266
36 6 4.24338 4.4188 0.534768
37 4 0.0951397 7.39562 1.85729
38 4 4.70176 1.74238 6.87015
39 4 6.89812 2.47376 2.33857
40 4 6.80579 6.62534 5.83602
41 4 5.22966 6.73432 2.68403
42 4 8.61474 2.70249 6.03316
43 4 1.63043 1.74829 1.23908
44 4 2.91039 7.69139 6.86777
45 1 4.56732 0.338571 12.3714
46 1 0.823709 9.15282 13.3668
47 1 2.96237 5.18823 9.01312
48 1 2.42609 4.18545 16.7226
49 2 3.5917 8.22575 12.1568
50 2 1.71298 0.891091 13.8485
51 2 4.07281 3.72676 9.74349
52 2 1.42499 5.9153 16.1575
53 2 2.14778 8.17981 12.0798
54 2 3.07479 1.07495 13.7604
55 2 5.28411 3.32363 9.27832
56 2 9.25322 6.31711 16.56
57 2 3.13495 6.58674 10.7438
58 2 2.38931 2.7531 15.3541
59 2 4.50359 1.67573 10.8246
60 2 0.724422 7.61871 14.6805
61 5 5.80714 0.431717 13.8596
62 5 8.46727 9.17946 12.1995
63 5 6.30346 5.60319 16.3416
64 5 8.20932 3.82037 9.53247
65 5 7.85819 0.144426 14.336
66 5 6.34537 9.54077 11.5355
67 5 4.2733 4.99294 15.8008
68 5 1.05578 4.51317 10.0441
69 3 4.16273 7.03151 11.5641
70 3 1.45 1.83335 14.9382
71 3 3.57516 2.66482 10.6083
72 3 1.81293 6.89155 15.1719
73 3 1.97738 6.92157 11.5134
74 3 3.32608 2.31182 14.4325
75 3 5.53612 2.11418 10.0777
76 3 8.8852 7.28848 15.6613
77 6 6.97737 0.12503 13.5459
78 6 7.25098 9.23862 12.3567
79 6 5.16822 5.15895 16.684
80 6 9.26408 4.34176 9.23566
81 4 4.97242 7.41705 11.0116
82 4 9.53966 1.86963 15.3127
83 4 2.75225 2.89288 11.3618
84 4 2.56129 6.48697 14.4624
85 4 0.934363 6.66514 11.31
86 4 4.30502 2.51681 14.6873
87 4 6.50281 1.62165 9.79904
88 4 7.98625 7.76807 15.6013
89 1 8.73123 10.2251 3.66662
90 1 5.0479 19.0563 4.65844
91 1 7.14106 15.1559 0.375273
92 1 6.66942 14.0833 8.03588
93 2 7.79259 18.5502 3.08261
94 2 5.90012 11.337 4.88592
95 2 8.13957 13.4759 0.873624
96 2 5.5331 15.7281 7.3591
97 2 6.43612 18.2444 3.32099
98 2 7.30638 11.3926 4.79188
99 2 0.366106 13.0925 0.56234
100 2 4.34594 16.3013 7.81179
101 2 7.18731 16.6774 1.70593
102 2 6.65695 12.7911 6.47479
103 2 8.62848 11.6587 2.33905
104 2 5.07333 17.6656 6.10043
105 5 1.15818 10.5197 5.05198
106 5 3.61902 19.0434 3.11923
107 5 1.42711 15.4351 7.58878
108 5 3.2359 13.9805 0.811554
109 5 3.0691 10.0383 5.78197
110 5 1.53149 19.2527 2.63025
111 5 8.51821 14.9465 7.06248
112 5 5.22815 14.3915 1.34826
113 3 8.13729 17.6162 2.03492
114 3 5.68156 11.8297 6.24144
115 3 7.76684 12.6595 1.9592
116 3 6.01238 16.7067 6.44439
117 3 6.26052 17.0183 2.62128
118 3 7.69 12.4204 5.59568
119 3 0.517793 12.0312 1.43644
120 3 3.99012 17.3006 6.94546
121 6 2.27857 10.1013 4.8553
122 6 2.41532 19.4249 3.42201
123 6 0.337331 15.1109 7.81134
124 6 4.35265 14.4138 0.543495
125 4 0.107034 17.3595 1.97918
126 4 4.75648 12.2805 6.4622
127 4 6.65917 12.6708 2.19559
128 4 6.84764 16.6921 5.8427
129 4 5.22287 16.6846 2.71932
130 4 8.73522 13.0032 5.47826
131 4 1.35595 11.2852 1.27518
132 4 3.24134 18.1048 7.20967
133 1 4.45499 10.1984 12.331
134 1 0.779742 19.0106 13.473
135 1 2.85368 15.0822 9.09727
136 1 2.37946 14.1133 16.69
137 2 3.41593 18.4891 11.787
138 2 1.86373 10.7097 14.0466
139 2 3.90602 13.5442 9.63828
140 2 1.3925 15.6615 16.1362
141 2 2.0365 18.1754 12.1292
142 2 3.16182 11.1038 13.6684
143 2 5.18263 13.1061 9.18776
144 2 9.2831 16.0705 16.5487
145 2 2.96891 16.5995 10.4503
146 2 2.38579 12.6849 15.292
147 2 4.73056 11.8653 11.122
148 2 0.738348 17.6352 14.8949
149 5 6.02278 10.3296 13.8788
150 5 8.53308 18.978 11.8857
151 5 6.30602 15.5907 16.357
152 5 8.24252 13.9767 9.43368
153 5 8.05373 10.0569 14.3167
154 5 6.43263 19.1642 11.4262
155 5 4.39375 15.0942 15.8
156 5 1.13719 14.3799 10.0125
157 3 3.92856 17.4741 10.9291
158 3 1.52819 11.6213 15.0573
159 3 3.72154 12.7343 10.7453
160 3 1.65511 16.69 15.1054
161 3 1.89759 17.1077 11.2505
162 3 3.40834 12.1707 14.4742
163 3 5.45629 12.0076 9.95992
164 3 8.92432 17.2 15.8152
165 6 7.07326 9.84332 13.6846
166 6 7.35798 19.1652 12.1862
167 6 5.24234 15.0777 16.6543
168 6 9.24232 14.5598 9.31899
169 4 4.92398 17.6006 10.5437
170 4 0.507726 11.5228 15.506
171 4 3.11656 13.2211 11.5927
172 4 2.66571 16.8739 14.8448
173 4 1.11862 16.3903 11.4131
174 4 4.11941 13.0094 14.2012
175 4 6.43974 11.724 9.97396
176 4 7.85303 17.6266 15.9344
177 7 2.95258 9.83485 9.69761
178 8 3.11441 9.32508 8.64605
179 8 2.38213 10.3744 10.5824
180 7 9.1527 11.6676 10.6314
181 8 8.42387 11.7277 11.538
182 8 0.689251 11.789 9.68223
183 7 7.28605 6.65283 9.98148
184 8 7.36659 6.23708 8.91766
185 8 7.12053 7.09024 11.0691
186 7 1.80754 10.6023 7.93672
187 8 1.01611 9.78667 7.62313
188 8 2.62099 11.366 8.28108
189 7 6.39517 9.18888 7.28357
190 8 7.20025 8.86634 6.38769
191 8 5.66972 9.04436 8.28515
192 7 0.192789 7.694 6.92422
193 8 0.861492 7.32543 6.04339
194 8 8.44714 7.85578 7.68538
195 7 0.908242 8.34035 9.47947
196 8 0.833883 7.29097 9.03571
197 8 0.724334 9.33051 9.94869
198 7 7.82485 10.3769 8.59985
199 8 8.35293 11.1344 7.91513
200 8 7.52487 9.42796 9.22361
201 7 6.17196 14.7554 12.556
202 8 6.12474 15.6565 13.2614
203 8 6.18309 14.1217 11.5745
204 7 7.12451 13.5576 14.6922
205 8 7.92952 13.9637 13.9417
206 8 6.61753 12.8245 15.4464
207 7 6.16274 4.40692 13.3317
208 8 5.57938 4.73898 12.3689
209 8 6.80121 3.90463 14.1975
210 7 8.99579 4.21337 12.7757
211 8 9.2713 4.79277 13.7639
212 8 8.71849 3.28566 12.0919
213 7 3.57515 4.53645 5.34381
214 8 2.84788 3.76385 5.93329
215 8 4.11041 5.3614 4.71537
216 7 4.32401 2.21274 2.70148
217 8 4.39202 1.63834 1.62985
218 8 4.26838 2.54465 3.84586
219 7 2.26018 13.5117 4.55291
220 8 2.05798 13.5735 5.72202
221 8 2.65077 13.5172 3.44795
222 7 3.7316 15.7042 4.734
223 8 4.64355 14.9463 4.60656
224 8 2.78622 16.4223 4.71447
ITEM: TIMESTEP
74
ITEM: NUMBER OF ATOMS
224
ITEM: BOX BOUNDS xy xz yz pp pp pp
-9.9191666475209495e-02 9.6574051279887350e+00 0.0000000000000000e+00
-2.1573612887153537e-01 1.9602735228871563e+01 6.4441326151353218e-01
-1.8987289669419205e-01 1.7252687996694167e+01 0.0000000000000000e+00
ITEM: ATOMS id type x y z
1 1 8.8161 0.31878 3.59589
2 1 4.96851 9.20812 4.69464
3 1 7.09324 5.3213 0.269467
4 1 6.66762 4.18483 8.04076
5 2 7.80863 8.64753 3.06169
6 2 6.20134 0.880362 5.31428
7 2 8.15661 3.62805 0.926947
8 2 5.51053 5.79597 7.26017
9 2 6.52751 8.19348 3.50719
10 2 7.38452 1.3044 4.83269
11 2 0.392811 3.30379 0.574103
12 2 4.29024 6.29644 7.80661
13 2 7.18456 6.69907 1.83709
14 2 6.59747 2.65919 6.68912
15 2 8.79737 1.761 2.24986
16 2 4.75998 7.57822 5.81807
17 5 1.09103 0.591965 5.19405
18 5 3.63906 8.98136 3.17005
19 5 1.5017 5.35258 7.45335
20 5 3.15475 4.07016 0.935818
21 5 3.13802 0.120359 5.67518
22 5 1.56906 9.42017 2.6944
23 5 8.63452 4.87609 7.04551
24 5 5.17593 4.49961 1.32209
25 3 8.13322 7.67117 2.12028
26 3 5.68798 1.74853 6.36266
27 3 7.8672 2.71242 1.95977
28 3 5.81123 6.71682 6.25734
29 3 6.24957 7.05483 2.8307
30 3 7.63485 2.34094 5.70348
31 3 0.691936 2.22718 1.37463
32 3 3.91794 7.22207 6.90278
33 6 2.15185 0.170398 4.83077
34 6 2.52495 9.3278 3.4809
35 6 0.471202 4.94105 7.88382
36 6 4.24353 4.41788 0.531682
37 4 0.09142 7.39528 1.86048
38 4 4.70597 1.73795 6.86868
39 4 6.90222 2.46512 2.33479
40 4 6.79875 6.61297 5.82128
41 4 5.23019 6.73364 2.68516
42 4 8.61695 2.70105 6.03359
43 4 1.62994 1.74394 1.2349
44 4 2.9103 7.67861 6.86865
45 1 4.56793 0.334665 12.3731
46 1 0.822216 9.15281 13.3679
47 1 2.96224 5.18518 9.01282
48 1 2.4257 4.18352 16.7261
49 2 3.5914 8.2174 12.1633
50 2 1.71306 0.888711 13.851
51 2 4.07544 3.7243 9.74439
52 2 1.42269 5.91492 16.1606
53 2 2.14936 8.17775 12.0835
54 2 3.07258 1.07132 13.7637
55 2 5.28314 3.32142 9.27973
56 2 9.2559 6.31633 16.5626
57 2 3.13978 6.58115 10.7518
58 2 2.38783 2.74909 15.3549
59 2 4.50382 1.67165 10.8239
60 2 0.722113 7.61893 14.6819
61 5 5.8072 0.426398 13.8616
62 5 8.46619 9.18178 12.2035
63 5 6.30232 5.60338 16.345
64 5 8.21366 3.81525 9.53287
65 5 7.85722 0.141426 14.3378
66 5 6.34703 9.54322 11.5411
67 5 4.27414 4.99069 15.8041
68 5 1.05432 4.51235 10.0444
69 3 4.15991 7.02484 11.5725
70 3 1.4492 1.83077 14.9397
71 3 3.57717 2.66147 10.6081
72 3 1.81109 6.89146 15.175
73 3 1.97925 6.91752 11.5181
74 3 3.32437 2.30726 14.4353
75 3 5.53574 2.11114 10.0782
76 3 8.88864 7.28752 15.6634
77 6 6.97777 0.120245 13.5453
78 6 7.25066 9.23829 12.3616
79 6 5.16585 5.15637 16.6915
80 6 9.26865 4.33848 9.23504
81 4 4.98478 7.40993 11.027
82 4 9.5404 1.87116 15.3103
83 4 2.75623 2.8877 11.3617
84 4 2.55988 6.48211 14.4678
85 4 0.935576 6.66265 11.3061
86 4 4.30595 2.51178 14.696
87 4 6.49722 1.61394 9.79881
88 4 7.98564 7.76788 15.6023
89 1 8.73276 10.2252 3.66503
90 1 5.04814 19.0602 4.65634
91 1 7.1419 15.1575 0.372376
92 1 6.67072 14.085 8.03606
93 2 7.79282 18.5536 3.08023
94 2 5.90251 11.3414 4.87984
95 2 8.14086 13.4767 0.871536
96 2 5.5317 15.7297 7.35979
97 2 6.43808 18.2475 3.31709
98 2 7.30435 11.3961 4.7888
99 2 0.363463 13.0929 0.559816
100 2 4.34555 16.3036 7.81225
101 2 7.18901 16.6789 1.70366
102 2 6.65802 12.7964 6.47239
103 2 8.62913 11.6573 2.33743
104 2 5.07495 17.6716 6.09897
105 5 1.15818 10.5217 5.04922
106 5 3.61745 19.0497 3.11568
107 5 1.42476 15.4382 7.58822
108 5 3.23599 13.9832 0.808933
109 5 3.06736 10.0383 5.78012
110 5 1.53156 19.2564 2.6286
111 5 8.5213 14.9482 7.06339
112 5 5.22798 14.3943 1.3458
113 3 8.13848 17.6198 2.03259
114 3 5.68208 11.8358 6.23723
115 3 7.76785 12.6614 1.95595
116 3 6.01242 16.7127 6.44374
117 3 6.26289 17.0234 2.61909
118 3 7.68965 12.4248 5.5926
119 3 0.515208 12.0315 1.43405
120 3 3.99116 17.3057 6.94574
121 6 2.27919 10.1011 4.85161
122 6 2.41369 19.431 3.42175
123 6 0.334486 15.1142 7.81253
124 6 4.3532 14.4171 0.539198
125 4 0.104599 17.3618 1.9824
126 4 4.75732 12.29 6.4614
127 4 6.66004 12.6748 2.18501
128 4 6.84833 16.6969 5.83734
129 4 5.22501 16.6926 2.71519
130 4 8.73006 13.0024 5.47355
131 4 1.35081 11.2865 1.27056
132 4 3.24583 18.1098 7.21425
133 1 4.45459 10.1979 12.3326
134 1 0.777548 19.014 13.4753
135 1 2.85216 15.083 9.09773
136 1 2.37868 14.1153 16.6929
137 2 3.41522 18.4912 11.7873
138 2 1.86384 10.7091 14.05
139 2 3.90629 13.5481 9.63845
140 2 1.3896 15.6625 16.1404
141 2 2.03622 18.1778 12.1289
142 2 3.16105 11.1032 13.6706
143 2 5.183 13.1068 9.186
144 2 9.28539 16.072 16.5519
145 2 2.96774 16.6014 10.4527
146 2 2.38549 12.6878 15.2951
147 2 4.7324 11.8662 11.1255
148 2 0.73722 17.6399 14.8976
149 5 6.02342 10.3291 13.8817
150 5 8.53323 18.9836 11.8867
151 5 6.30614 15.596 16.3617
152 5 8.24634 13.9793 9.43385
153 5 8.05541 10.0576 14.3177
154 5 6.43487 19.1662 11.4282
155 5 4.39385 15.0975 15.8034
156 5 1.13548 14.384 10.0114
157 3 3.92489 17.4775 10.9331
158 3 1.52781 11.6206 15.0597
159 3 3.72345 12.7372 10.7491
160 3 1.65366 16.6934 15.107
161 3 1.89795 17.1111 11.2504
162 3 3.40812 12.1717 14.4764
163 3 5.45629 12.0066 9.95839
164 3 8.92509 17.2027 15.8199
165 6 7.07434 9.84075 13.6879
166 6 7.35867 19.1686 12.189
167 6 5.24242 15.0823 16.6602
168 6 9.24555 14.5657 9.31966
169 4 4.92292 17.6069 10.5524
170 4 0.504833 11.5182 15.5023
171 4 3.12192 13.2292 11.5935
172 4 2.66603 16.8823 14.847
173 4 1.11836 16.3927 11.4124
174 4 4.11389 13.0084 14.2004
175 4 6.44381 11.7277 9.974
176 4 7.85661 17.628 15.9423
177 7 2.94895 9.83862 9.6932
178 8 3.11267 9.33394 8.64246
179 8 2.38056 10.3731 10.5817
180 7 9.15292 11.6687 10.6325
181 8 8.4267 11.7348 11.5391
182 8 0.687829 11.7853 9.68202
183 7 7.28728 6.6518 9.98139
184 8 7.36727 6.23617 8.91492
185 8 7.12045 7.08647 11.0736
186 7 1.80749 10.6044 7.93636
187 8 1.0155 9.78611 7.62505
188 8 2.62124 11.3687 8.27682
189 7 6.39814 9.1885 7.28352
190 8 7.20284 8.86406 6.38934
191 8 5.66903 9.05034 8.28695
192 7 0.192332 7.6919 6.92128
193 8 0.858658 7.32516 6.04012
194 8 8.45062 7.85314 7.68164
195 7 0.905357 8.34341 9.47943
196 8 0.830316 7.29107 9.03546
197 8 0.723567 9.32915 9.94889
198 7 7.82861 10.3776 8.60112
199 8 8.35612 11.1367 7.91728
200 8 7.52603 9.42576 9.22476
201 7 6.17224 14.7618 12.5574
202 8 6.12593 15.6612 13.2614
203 8 6.18351 14.1242 11.5769
204 7 7.12902 13.5559 14.6938
205 8 7.93128 13.9648 13.9444
206 8 6.62213 12.8227 15.4447
207 7 6.16188 4.40498 13.3325
208 8 5.58002 4.73722 12.3726
209 8 6.80186 3.90147 14.1997
210 7 8.99834 4.21122 12.7793
211 8 9.27413 4.79207 13.7643
212 8 8.71909 3.28284 12.0955
213 7 3.57245 4.53502 5.34156
214 8 2.8445 3.76022 5.93376
215 8 4.10673 5.356 4.71086
216 7 4.32498 2.20874 2.69994
217 8 4.39408 1.63381 1.62634
218 8 4.2687 2.54132 3.84395
219 7 2.26018 13.5109 4.55082
220 8 2.05806 13.5728 5.7212
221 8 2.65018 13.5164 3.44627
222 7 3.72998 15.7063 4.72997
223 8 4.63904 14.9451 4.60071
224 8 2.78714 16.4256 4.71232
ITEM: TIMESTEP
75
ITEM: NUMBER OF ATOMS
224
ITEM: BOX BOUNDS xy xz yz pp pp pp
-1.0094493536343840e-01 9.6594063790907736e+00 0.0000000000000000e+00
-2.1954938714471872e-01 1.9606548487144746e+01 6.4466124372734257e-01
-1.9322900768941231e-01 1.7256044107689387e+01 0.0000000000000000e+00
ITEM: ATOMS id type x y z
1 1 8.81867 0.31501 3.59349
2 1 4.96771 9.20902 4.69289
3 1 7.09348 5.31983 0.265598
4 1 6.66907 4.18269 8.04113
5 2 7.81019 8.64736 3.06069
6 2 6.20356 0.875432 5.3125
7 2 8.15804 3.62676 0.923682
8 2 5.50731 5.79316 7.25757
9 2 6.52857 8.19351 3.50594
10 2 7.3838 1.30023 4.83206
11 2 0.391667 3.30176 0.571604
12 2 4.28865 6.297 7.80355
13 2 7.18668 6.69582 1.83523
14 2 6.59769 2.65661 6.68949
15 2 8.79852 1.7575 2.24734
16 2 4.75872 7.57554 5.81591
17 5 1.09072 0.588885 5.19345
18 5 3.63765 8.98177 3.16736
19 5 1.50224 5.34704 7.45213
20 5 3.15478 4.06978 0.933831
21 5 3.13591 0.116941 5.67298
22 5 1.57032 9.42029 2.6935
23 5 8.63736 4.87141 7.04426
24 5 5.17423 4.49879 1.31852
25 3 8.13426 7.66957 2.11823
26 3 5.69163 1.74542 6.36114
27 3 7.87145 2.70828 1.95724
28 3 5.80536 6.71485 6.25433
29 3 6.25194 7.05341 2.8301
30 3 7.63636 2.34 5.70387
31 3 0.690384 2.22452 1.37245
32 3 3.91799 7.21837 6.89947
33 6 2.15202 0.166348 4.82688
34 6 2.52368 9.32859 3.4809
35 6 0.469053 4.93438 7.8848
36 6 4.24377 4.41696 0.528715
37 4 0.0872472 7.3953 1.86385
38 4 4.71031 1.73332 6.86701
39 4 6.90595 2.45676 2.3309
40 4 6.79161 6.60062 5.80622
41 4 5.23059 6.73294 2.68646
42 4 8.61924 2.69939 6.03355
43 4 1.62963 1.73936 1.23079
44 4 2.91059 7.66564 6.86983
45 1 4.56854 0.330771 12.3748
46 1 0.820723 9.15279 13.3691
47 1 2.96211 5.18215 9.01253
48 1 2.42532 4.18161 16.7296
49 2 3.59104 8.20903 12.1699
50 2 1.71318 0.886412 13.8536
51 2 4.07799 3.72179 9.74532
52 2 1.42038 5.9146 16.1637
53 2 2.15105 8.17559 12.0871
54 2 3.07038 1.06781 13.767
55 2 5.2822 3.31911 9.28121
56 2 9.25854 6.31555 16.5651
57 2 3.14455 6.57551 10.7599
58 2 2.38635 2.74506 15.3556
59 2 4.50406 1.66758 10.8233
60 2 0.719843 7.61916 14.6833
61 5 5.8073 0.421083 13.8636
62 5 8.46509 9.1841 12.2073
63 5 6.30111 5.60356 16.3483
64 5 8.21798 3.81015 9.53323
65 5 7.85631 0.138448 14.3396
66 5 6.34872 9.54566 11.5467
67 5 4.27501 4.98847 15.8075
68 5 1.05289 4.51153 10.0446
69 3 4.157 7.01838 11.5809
70 3 1.44837 1.82812 14.9411
71 3 3.57922 2.65823 10.608
72 3 1.80921 6.89127 15.1781
73 3 1.98117 6.91354 11.5228
74 3 3.32264 2.30266 14.4381
75 3 5.5354 2.10826 10.0786
76 3 8.89218 7.28659 15.6654
77 6 6.97812 0.115464 13.5447
78 6 7.25033 9.23802 12.3665
79 6 5.16346 5.15382 16.6989
80 6 9.2733 4.3352 9.2345
81 4 4.9972 7.40256 11.0423
82 4 9.54113 1.87285 15.308
83 4 2.76057 2.88232 11.3612
84 4 2.55837 6.47757 14.4732
85 4 0.936996 6.66004 11.302
86 4 4.30746 2.50686 14.7047
87 4 6.49119 1.606 9.7989
88 4 7.98429 7.76784 15.6034
89 1 8.73427 10.2252 3.66345
90 1 5.04838 19.0641 4.65424
91 1 7.14274 15.159 0.369494
92 1 6.67201 14.0867 8.03624
93 2 7.79302 18.5569 3.07778
94 2 5.90492 11.3456 4.87393
95 2 8.14219 13.4775 0.869511
96 2 5.53033 15.7313 7.36043
97 2 6.4401 18.2505 3.31318
98 2 7.30231 11.3997 4.78575
99 2 0.360744 13.0933 0.557342
100 2 4.34512 16.3059 7.81272
101 2 7.19073 16.6804 1.70142
102 2 6.65911 12.8018 6.46997
103 2 8.62978 11.656 2.33574
104 2 5.07653 17.6774 6.09756
105 5 1.15818 10.5238 5.04647
106 5 3.61579 19.0561 3.11218
107 5 1.42248 15.4414 7.58761
108 5 3.23608 13.9858 0.806312
109 5 3.06566 10.0382 5.77823
110 5 1.5316 19.26 2.62698
111 5 8.52437 14.9499 7.06428
112 5 5.22785 14.3972 1.34337
113 3 8.13967 17.6234 2.03034
114 3 5.68266 11.8419 6.23286
115 3 7.76881 12.6633 1.95269
116 3 6.01236 16.7187 6.44314
117 3 6.26518 17.0286 2.61698
118 3 7.68931 12.4293 5.58955
119 3 0.512688 12.0317 1.43168
120 3 3.99227 17.3108 6.94601
121 6 2.2798 10.1009 4.84793
122 6 2.41225 19.4371 3.42144
123 6 0.331582 15.1174 7.81387
124 6 4.35368 14.4203 0.534953
125 4 0.101881 17.364 1.98546
126 4 4.75762 12.2992 6.46062
127 4 6.66147 12.6784 2.17455
128 4 6.84967 16.7014 5.83183
129 4 5.22729 16.7003 2.71065
130 4 8.72373 13.001 5.46897
131 4 1.34536 11.2882 1.26593
132 4 3.25059 18.1142 7.21886
133 1 4.4542 10.1974 12.3343
134 1 0.77535 19.0173 13.4775
135 1 2.85064 15.0837 9.09819
136 1 2.37791 14.1172 16.6958
137 2 3.41446 18.4933 11.7877
138 2 1.86399 10.7084 14.0534
139 2 3.90666 13.5519 9.63865
140 2 1.38674 15.6637 16.1444
141 2 2.0361 18.1801 12.1285
142 2 3.16022 11.1027 13.6727
143 2 5.18333 13.1074 9.18428
144 2 9.2876 16.0735 16.5551
145 2 2.96654 16.6033 10.4552
146 2 2.38521 12.6907 15.298
147 2 4.73418 11.8672 11.1288
148 2 0.736075 17.6446 14.9004
149 5 6.02399 10.3286 13.8846
150 5 8.53337 18.9893 11.8876
151 5 6.30627 15.6013 16.3663
152 5 8.25009 13.9818 9.43405
153 5 8.05712 10.0584 14.3188
154 5 6.43708 19.1683 11.4302
155 5 4.3939 15.1007 15.8068
156 5 1.13377 14.3882 10.0104
157 3 3.92117 17.4809 10.9372
158 3 1.52739 11.6199 15.062
159 3 3.72532 12.7401 10.7529
160 3 1.65224 16.6966 15.1086
161 3 1.89834 17.1145 11.2502
162 3 3.40792 12.1728 14.4787
163 3 5.45628 12.0057 9.9569
164 3 8.9258 17.2054 15.8246
165 6 7.0754 9.83817 13.6912
166 6 7.35935 19.1721 12.192
167 6 5.24252 15.0869 16.666
168 6 9.24886 14.5715 9.32024
169 4 4.92189 17.613 10.5608
170 4 0.502315 11.514 15.4985
171 4 3.12754 13.2369 11.5937
172 4 2.66661 16.8907 14.8492
173 4 1.11784 16.3953 11.4117
174 4 4.10829 13.0067 14.1995
175 4 6.44844 11.7311 9.97405
176 4 7.86097 17.6293 15.9499
177 7 2.94526 9.84238 9.68884
178 8 3.11101 9.3427 8.63897
179 8 2.37911 10.3717 10.581
180 7 9.1531 11.6697 10.6337
181 8 8.42953 11.7419 11.5401
182 8 0.68642 11.7816 9.68183
183 7 7.28849 6.65081 9.98137
184 8 7.36793 6.23528 8.9122
185 8 7.1204 7.08263 11.078
186 7 1.80741 10.6065 7.93595
187 8 1.01494 9.78559 7.62695
188 8 2.62146 11.3715 8.27249
189 7 6.4011 9.18797 7.28347
190 8 7.20528 8.86192 6.39107
191 8 5.66837 9.05635 8.28858
192 7 0.191851 7.68977 6.91831
193 8 0.855833 7.32493 6.03684
194 8 8.4541 7.8505 7.67789
195 7 0.902445 8.34634 9.47932
196 8 0.82683 7.29114 9.03525
197 8 0.722755 9.32787 9.94914
198 7 7.83241 10.3782 8.60244
199 8 8.35925 11.139 7.91942
200 8 7.52721 9.42363 9.22593
201 7 6.1725 14.7681 12.5587
202 8 6.1271 15.6659 13.2614
203 8 6.18395 14.1268 11.5794
204 7 7.13361 13.5541 14.6954
205 8 7.93302 13.9659 13.9471
206 8 6.6267 12.821 15.443
207 7 6.16106 4.40299 13.3334
208 8 5.58068 4.73548 12.3764
209 8 6.80247 3.89835 14.2018
210 7 9.00088 4.20898 12.7829
211 8 9.27694 4.79139 13.7648
212 8 8.71969 3.28009 12.099
213 7 3.56964 4.53354 5.33937
214 8 2.84123 3.75666 5.93417
215 8 4.10305 5.35056 4.70634
216 7 4.32595 2.20467 2.69838
217 8 4.39613 1.62935 1.62294
218 8 4.26902 2.53799 3.84198
219 7 2.26021 13.5102 4.5488
220 8 2.05815 13.5722 5.72032
221 8 2.64956 13.5156 3.44463
222 7 3.72838 15.7084 4.7259
223 8 4.63448 14.9439 4.59488
224 8 2.78811 16.4288 4.71017
ITEM: TIMESTEP
76
ITEM: NUMBER OF ATOMS
224
ITEM: BOX BOUNDS xy xz yz pp pp pp
-1.0268871247169997e-01 9.6613967958962306e+00 0.0000000000000000e+00
-2.2334200134628723e-01 1.9610341101346314e+01 6.4490788342454008e-01
-1.9656694949944864e-01 1.7259382049499422e+01 0.0000000000000000e+00
ITEM: ATOMS id type x y z
1 1 8.82124 0.311264 3.5911
2 1 4.9669 9.20992 4.69115
3 1 7.09372 5.31837 0.261755
4 1 6.67051 4.18056 8.0415
5 2 7.81169 8.64712 3.05971
6 2 6.20567 0.870519 5.31079
7 2 8.15952 3.62545 0.920449
8 2 5.50401 5.7904 7.25496
9 2 6.52964 8.19358 3.50466
10 2 7.38313 1.29609 4.8315
11 2 0.390471 3.29974 0.569159
12 2 4.28711 6.29747 7.80045
13 2 7.18879 6.69261 1.83345
14 2 6.598 2.65406 6.68979
15 2 8.79971 1.75404 2.24478
16 2 4.75753 7.57283 5.81389
17 5 1.09038 0.585819 5.19282
18 5 3.63626 8.98218 3.16469
19 5 1.50283 5.3415 7.45098
20 5 3.15479 4.06941 0.931824
21 5 3.13375 0.113541 5.6707
22 5 1.57159 9.42041 2.69262
23 5 8.64022 4.86673 7.04307
24 5 5.17254 4.498 1.31495
25 3 8.13534 7.66796 2.11617
26 3 5.69531 1.74228 6.35956
27 3 7.8757 2.70416 1.9547
28 3 5.79948 6.71286 6.25134
29 3 6.25433 7.05198 2.82941
30 3 7.63777 2.33913 5.70437
31 3 0.688795 2.22187 1.3703
32 3 3.91802 7.21476 6.89607
33 6 2.15233 0.162318 4.82316
34 6 2.52235 9.32941 3.48091
35 6 0.466753 4.9277 7.88559
36 6 4.24407 4.41606 0.525869
37 4 0.0826541 7.39565 1.86738
38 4 4.71477 1.72848 6.86515
39 4 6.9093 2.44868 2.3269
40 4 6.7843 6.5883 5.79086
41 4 5.2309 6.7322 2.68793
42 4 8.62162 2.69751 6.03303
43 4 1.62948 1.73457 1.22676
44 4 2.91121 7.65251 6.87128
45 1 4.56914 0.32689 12.3764
46 1 0.819232 9.15277 13.3702
47 1 2.96199 5.17913 9.01225
48 1 2.42494 4.17972 16.733
49 2 3.59062 8.20063 12.1764
50 2 1.71332 0.884192 13.8563
51 2 4.08045 3.71922 9.74629
52 2 1.41806 5.91435 16.1666
53 2 2.15284 8.17332 12.0908
54 2 3.06821 1.0644 13.7703
55 2 5.28129 3.31668 9.28275
56 2 9.26115 6.31475 16.5676
57 2 3.14924 6.56983 10.768
58 2 2.38488 2.74101 15.3563
59 2 4.50428 1.66352 10.8227
60 2 0.717614 7.61938 14.6847
61 5 5.80744 0.415771 13.8655
62 5 8.46397 9.1864 12.2111
63 5 6.29984 5.60372 16.3517
64 5 8.22227 3.80506 9.53357
65 5 7.85545 0.135492 14.3414
66 5 6.35043 9.54808 11.5522
67 5 4.27591 4.98625 15.8108
68 5 1.05147 4.51071 10.0448
69 3 4.15402 7.01213 11.5892
70 3 1.44751 1.8254 14.9425
71 3 3.58129 2.6551 10.6078
72 3 1.80731 6.89099 15.1811
73 3 1.98313 6.90964 11.5275
74 3 3.32088 2.29802 14.4409
75 3 5.5351 2.10553 10.0788
76 3 8.89581 7.28567 15.6673
77 6 6.97842 0.11069 13.544
78 6 7.24999 9.23781 12.3715
79 6 5.16105 5.15131 16.706
80 6 9.278 4.33193 9.23403
81 4 5.00957 7.39491 11.0575
82 4 9.54186 1.87471 15.3056
83 4 2.76526 2.87675 11.3603
84 4 2.55674 6.47335 14.4787
85 4 0.938644 6.65731 11.2978
86 4 4.30952 2.50206 14.7135
87 4 6.48475 1.59782 9.79929
88 4 7.98223 7.76794 15.6048
89 1 8.73578 10.2253 3.66188
90 1 5.04862 19.068 4.65216
91 1 7.14357 15.1605 0.366625
92 1 6.6733 14.0883 8.03642
93 2 7.79318 18.5602 3.07527
94 2 5.90736 11.3498 4.8682
95 2 8.14357 13.4782 0.867549
96 2 5.529 15.733 7.36102
97 2 6.44217 18.2534 3.30927
98 2 7.30026 11.4032 4.78271
99 2 0.357952 13.0937 0.554917
100 2 4.34467 16.308 7.8132
101 2 7.19247 16.6819 1.69922
102 2 6.6602 12.8071 6.46754
103 2 8.63043 11.6546 2.33399
104 2 5.07807 17.6833 6.09623
105 5 1.15818 10.5258 5.04374
106 5 3.61404 19.0625 3.10871
107 5 1.42028 15.4447 7.58697
108 5 3.23618 13.9884 0.803691
109 5 3.064 10.0381 5.77629
110 5 1.53159 19.2637 2.62537
111 5 8.52741 14.9515 7.06513
112 5 5.22776 14.4001 1.34096
113 3 8.14088 17.6271 2.02817
114 3 5.6833 11.8482 6.22834
115 3 7.7697 12.6652 1.94942
116 3 6.0122 16.7247 6.44258
117 3 6.2674 17.0339 2.61494
118 3 7.689 12.4338 5.58652
119 3 0.510231 12.0318 1.42934
120 3 3.99346 17.316 6.94627
121 6 2.28039 10.1007 4.84426
122 6 2.411 19.443 3.42107
123 6 0.328624 15.1206 7.81535
124 6 4.3541 14.4235 0.530765
125 4 0.0988829 17.3662 1.98836
126 4 4.75738 12.3082 6.45985
127 4 6.66344 12.6818 2.16422
128 4 6.85162 16.7055 5.82617
129 4 5.22972 16.7077 2.70571
130 4 8.71633 12.9991 5.46453
131 4 1.33963 11.2904 1.26129
132 4 3.2556 18.1182 7.2235
133 1 4.45383 10.1969 12.3359
134 1 0.77315 19.0207 13.4797
135 1 2.84913 15.0844 9.09864
136 1 2.37715 14.1191 16.6987
137 2 3.41365 18.4952 11.7881
138 2 1.86419 10.7078 14.0569
139 2 3.90713 13.5557 9.63887
140 2 1.38392 15.6649 16.1484
141 2 2.03613 18.1823 12.1281
142 2 3.15934 11.1021 13.6748
143 2 5.1836 13.1081 9.1826
144 2 9.28973 16.075 16.5583
145 2 2.96532 16.6052 10.4577
146 2 2.38494 12.6934 15.3009
147 2 4.7359 11.8681 11.1321
148 2 0.73491 17.6493 14.9031
149 5 6.02451 10.3282 13.8875
150 5 8.53348 18.9949 11.8886
151 5 6.30641 15.6065 16.371
152 5 8.25376 13.9844 9.43429
153 5 8.05889 10.0591 14.3199
154 5 6.43925 19.1703 11.4322
155 5 4.3939 15.1038 15.8101
156 5 1.13206 14.3923 10.0093
157 3 3.9174 17.4844 10.9413
158 3 1.52694 11.6192 15.0644
159 3 3.72714 12.743 10.7567
160 3 1.65084 16.6997 15.1104
161 3 1.89874 17.1179 11.25
162 3 3.40771 12.174 14.481
163 3 5.45626 12.0049 9.95543
164 3 8.92646 17.208 15.8293
165 6 7.07643 9.83556 13.6944
166 6 7.36 19.1756 12.1949
167 6 5.24265 15.0916 16.6717
168 6 9.25223 14.5774 9.32072
169 4 4.92088 17.6188 10.569
170 4 0.500175 11.51 15.4946
171 4 3.1334 13.2441 11.5934
172 4 2.66744 16.8991 14.8511
173 4 1.11707 16.3979 11.4112
174 4 4.10264 13.0045 14.1985
175 4 6.4536 11.7342 9.9741
176 4 7.86609 17.6305 15.9574
177 7 2.94152 9.84614 9.68452
178 8 3.10943 9.35138 8.63555
179 8 2.3778 10.3704 10.5803
180 7 9.15326 11.6709 10.6348
181 8 8.43235 11.749 11.5412
182 8 0.685021 11.7779 9.68167
183 7 7.28968 6.64988 9.98144
184 8 7.36858 6.23443 8.90953
185 8 7.12038 7.07871 11.0823
186 7 1.80728 10.6086 7.9355
187 8 1.01444 9.78512 7.62883
188 8 2.62164 11.3744 8.2681
189 7 6.40404 9.1873 7.28344
190 8 7.20758 8.85992 6.39287
191 8 5.66774 9.06238 8.29005
192 7 0.191344 7.68761 6.91532
193 8 0.853022 7.32472 6.03353
194 8 8.45759 7.84786 7.67411
195 7 0.899506 8.34912 9.47915
196 8 0.823426 7.29118 9.03509
197 8 0.721896 9.32669 9.94947
198 7 7.83627 10.3786 8.6038
199 8 8.36233 11.1414 7.92154
200 8 7.52842 9.42158 9.2271
201 7 6.17276 14.7745 12.5598
202 8 6.12826 15.6706 13.2615
203 8 6.1844 14.1294 11.5819
204 7 7.13826 13.5523 14.697
205 8 7.93474 13.9671 13.9497
206 8 6.63123 12.8192 15.4412
207 7 6.16027 4.40094 13.3342
208 8 5.58133 4.73376 12.3801
209 8 6.80303 3.89528 14.2039
210 7 9.00342 4.20665 12.7866
211 8 9.27975 4.79074 13.7651
212 8 8.7203 3.2774 12.1026
213 7 3.56672 4.532 5.33723
214 8 2.83805 3.75318 5.93454
215 8 4.09936 5.34508 4.70181
216 7 4.32692 2.20052 2.6968
217 8 4.39818 1.62498 1.61966
218 8 4.26934 2.53468 3.83994
219 7 2.26028 13.5094 4.54683
220 8 2.05824 13.5715 5.71937
221 8 2.64891 13.5149 3.44303
222 7 3.72679 15.7104 4.7218
223 8 4.62988 14.9427 4.58908
224 8 2.78911 16.4319 4.70803
ITEM: TIMESTEP
77
ITEM: NUMBER OF ATOMS
224
ITEM: BOX BOUNDS xy xz yz pp pp pp
-1.0442282350377408e-01 9.6633761794564457e+00 0.0000000000000000e+00
-2.2711359239205997e-01 1.9614112692392087e+01 6.4515315595268108e-01
-1.9988638848610663e-01 1.7262701488486080e+01 0.0000000000000000e+00
ITEM: ATOMS id type x y z
1 1 8.82379 0.307543 3.58872
2 1 4.9661 9.21083 4.68941
3 1 7.09396 5.31692 0.257939
4 1 6.67195 4.17844 8.04186
5 2 7.81312 8.64681 3.05876
6 2 6.20765 0.865625 5.30915
7 2 8.16105 3.62412 0.917249
8 2 5.50064 5.78771 7.25235
9 2 6.53074 8.1937 3.50337
10 2 7.38253 1.292 4.83099
11 2 0.389221 3.29774 0.566767
12 2 4.28562 6.29785 7.79729
13 2 7.19088 6.68944 1.83175
14 2 6.59839 2.65154 6.69001
15 2 8.80095 1.75061 2.24218
16 2 4.75639 7.5701 5.812
17 5 1.09001 0.582766 5.19218
18 5 3.63489 8.98258 3.16203
19 5 1.50348 5.33596 7.44989
20 5 3.15478 4.06905 0.929796
21 5 3.13154 0.110159 5.66834
22 5 1.57288 9.42052 2.69176
23 5 8.6431 4.86205 7.04192
24 5 5.17087 4.49721 1.31138
25 3 8.13643 7.66634 2.1141
26 3 5.69902 1.7391 6.3579
27 3 7.87994 2.70007 1.95216
28 3 5.79357 6.71084 6.24837
29 3 6.25673 7.05054 2.82864
30 3 7.63909 2.3383 5.70499
31 3 0.687171 2.21923 1.3682
32 3 3.91802 7.21125 6.89259
33 6 2.15279 0.158312 4.81961
34 6 2.52097 9.33027 3.48093
35 6 0.464309 4.921 7.88618
36 6 4.24444 4.41516 0.523145
37 4 0.077679 7.39632 1.87105
38 4 4.71934 1.72344 6.8631
39 4 6.9123 2.4409 2.32278
40 4 6.77678 6.57604 5.77523
41 4 5.23113 6.73142 2.68957
42 4 8.62408 2.69541 6.03205
43 4 1.62946 1.72958 1.22281
44 4 2.91214 7.63927 6.87299
45 1 4.56974 0.323023 12.3781
46 1 0.817742 9.15275 13.3714
47 1 2.96187 5.17614 9.01197
48 1 2.42456 4.17784 16.7365
49 2 3.59013 8.19222 12.1829
50 2 1.71348 0.88205 13.8592
51 2 4.08282 3.7166 9.74729
52 2 1.41572 5.91415 16.1696
53 2 2.15474 8.17092 12.0946
54 2 3.06606 1.06109 13.7735
55 2 5.28041 3.31413 9.28436
56 2 9.26374 6.31394 16.5701
57 2 3.15385 6.56411 10.7762
58 2 2.38341 2.73693 15.3568
59 2 4.5045 1.65947 10.8222
60 2 0.715429 7.61961 14.6862
61 5 5.80762 0.410462 13.8674
62 5 8.46283 9.1887 12.2147
63 5 6.2985 5.60386 16.3551
64 5 8.22655 3.79998 9.53388
65 5 7.85465 0.13256 14.3433
66 5 6.35216 9.55048 11.5578
67 5 4.27684 4.98406 15.8143
68 5 1.05008 4.5099 10.0451
69 3 4.15098 7.00608 11.5974
70 3 1.44661 1.82263 14.9439
71 3 3.5834 2.65208 10.6075
72 3 1.80537 6.89061 15.1842
73 3 1.98514 6.90581 11.5321
74 3 3.3191 2.29335 14.4437
75 3 5.53483 2.10297 10.0789
76 3 8.89952 7.28478 15.6692
77 6 6.97867 0.105925 13.5433
78 6 7.24964 9.23765 12.3765
79 6 5.15863 5.14884 16.7129
80 6 9.28276 4.32865 9.23364
81 4 5.02177 7.38696 11.0727
82 4 9.5426 1.87674 15.3033
83 4 2.77026 2.87101 11.3591
84 4 2.55499 6.46947 14.4843
85 4 0.940541 6.65448 11.2934
86 4 4.31207 2.49735 14.7223
87 4 6.47793 1.58943 9.79998
88 4 7.97952 7.76815 15.6063
89 1 8.73728 10.2253 3.66031
90 1 5.04885 19.0719 4.65008
91 1 7.1444 15.162 0.363771
92 1 6.67458 14.09 8.03659
93 2 7.7933 18.5633 3.0727
94 2 5.90982 11.3538 4.86266
95 2 8.14501 13.4788 0.86565
96 2 5.52772 15.7347 7.36155
97 2 6.44429 18.2562 3.30534
98 2 7.2982 11.4068 4.77969
99 2 0.355086 13.0941 0.552543
100 2 4.34419 16.3101 7.81369
101 2 7.19423 16.6833 1.69706
102 2 6.66129 12.8124 6.4651
103 2 8.63108 11.6533 2.33217
104 2 5.07956 17.6891 6.09495
105 5 1.15818 10.5279 5.04101
106 5 3.6122 19.0688 3.10529
107 5 1.41815 15.4479 7.58629
108 5 3.23629 13.9911 0.80107
109 5 3.06239 10.038 5.77431
110 5 1.53154 19.2673 2.6238
111 5 8.53041 14.9532 7.06596
112 5 5.22772 14.4029 1.33858
113 3 8.14209 17.6308 2.02607
114 3 5.68401 11.8546 6.22366
115 3 7.77054 12.6672 1.94614
116 3 6.01194 16.7307 6.44206
117 3 6.26955 17.0392 2.61296
118 3 7.68869 12.4384 5.58352
119 3 0.507835 12.0319 1.42703
120 3 3.99473 17.3212 6.94652
121 6 2.28095 10.1005 4.84062
122 6 2.40993 19.4489 3.42063
123 6 0.325619 15.1237 7.81697
124 6 4.35445 14.4266 0.526637
125 4 0.0956133 17.3684 1.99111
126 4 4.75664 12.3169 6.45906
127 4 6.66593 12.6848 2.15404
128 4 6.85412 16.7092 5.82042
129 4 5.23227 16.7148 2.70035
130 4 8.70795 12.9966 5.46021
131 4 1.33364 11.293 1.25665
132 4 3.26084 18.1217 7.22817
133 1 4.45347 10.1963 12.3375
134 1 0.770946 19.024 13.4819
135 1 2.84763 15.0852 9.09908
136 1 2.3764 14.121 16.7016
137 2 3.41279 18.4972 11.7885
138 2 1.86445 10.7073 14.0604
139 2 3.90769 13.5595 9.63913
140 2 1.38115 15.6663 16.1522
141 2 2.0363 18.1845 12.1276
142 2 3.15841 11.1015 13.6769
143 2 5.18381 13.1088 9.18097
144 2 9.29176 16.0766 16.5614
145 2 2.96409 16.6072 10.4602
146 2 2.38468 12.6961 15.3038
147 2 4.73757 11.869 11.1352
148 2 0.733725 17.654 14.9059
149 5 6.02496 10.3279 13.8905
150 5 8.53359 19.0005 11.8895
151 5 6.30656 15.6117 16.3758
152 5 8.25736 13.9868 9.43456
153 5 8.06069 10.0599 14.321
154 5 6.4414 19.1723 11.4341
155 5 4.39385 15.107 15.8135
156 5 1.13035 14.3965 10.0083
157 3 3.91358 17.4879 10.9453
158 3 1.52645 11.6184 15.0666
159 3 3.72893 12.746 10.7606
160 3 1.64946 16.7026 15.1122
161 3 1.89915 17.1211 11.2498
162 3 3.40751 12.1753 14.4834
163 3 5.45622 12.004 9.954
164 3 8.92708 17.2106 15.834
165 6 7.07743 9.83294 13.6977
166 6 7.36064 19.1791 12.1979
167 6 5.2428 15.0963 16.6772
168 6 9.25565 14.5834 9.3211
169 4 4.91987 17.6244 10.577
170 4 0.49841 11.5063 15.4907
171 4 3.13949 13.2509 11.5927
172 4 2.66848 16.9075 14.853
173 4 1.11604 16.4006 11.4108
174 4 4.09697 13.0017 14.1973
175 4 6.45922 11.7371 9.97414
176 4 7.87191 17.6316 15.9647
177 7 2.93772 9.84991 9.68025
178 8 3.10794 9.35996 8.63222
179 8 2.37662 10.369 10.5795
180 7 9.15339 11.672 10.636
181 8 8.43517 11.7561 11.5423
182 8 0.68363 11.7742 9.68154
183 7 7.29085 6.64901 9.98158
184 8 7.36922 6.2336 8.90691
185 8 7.1204 7.07471 11.0866
186 7 1.80712 10.6107 7.93501
187 8 1.01399 9.7847 7.63069
188 8 2.62179 11.3773 8.26365
189 7 6.40697 9.18649 7.28344
190 8 7.20973 8.85805 6.39474
191 8 5.66715 9.06844 8.29135
192 7 0.190809 7.68542 6.9123
193 8 0.850227 7.32454 6.03019
194 8 8.46107 7.84521 7.67032
195 7 0.896543 8.35171 9.47889
196 8 0.820104 7.2912 9.03497
197 8 0.720988 9.32563 9.94987
198 7 7.84017 10.379 8.60522
199 8 8.36534 11.1439 7.92365
200 8 7.52965 9.41962 9.22829
201 7 6.17301 14.7808 12.5608
202 8 6.12941 15.6753 13.2616
203 8 6.18486 14.132 11.5844
204 7 7.14298 13.5503 14.6985
205 8 7.93644 13.9682 13.9523
206 8 6.63573 12.8175 15.4395
207 7 6.15953 4.39884 13.3351
208 8 5.58199 4.73204 12.3839
209 8 6.80354 3.89226 14.2059
210 7 9.00594 4.20421 12.7903
211 8 9.28254 4.79011 13.7654
212 8 8.7209 3.27478 12.1061
213 7 3.56367 4.53039 5.33516
214 8 2.83496 3.74976 5.93484
215 8 4.09567 5.33957 4.69727
216 7 4.3279 2.1963 2.69519
217 8 4.40021 1.6207 1.6165
218 8 4.26967 2.53138 3.83782
219 7 2.26037 13.5086 4.54493
220 8 2.05834 13.5708 5.71836
221 8 2.64823 13.514 3.44146
222 7 3.72521 15.7124 4.71767
223 8 4.62523 14.9416 4.58332
224 8 2.79015 16.435 4.70589
ITEM: TIMESTEP
78
ITEM: NUMBER OF ATOMS
224
ITEM: BOX BOUNDS xy xz yz pp pp pp
-1.0614714551709259e-01 9.6653443894398610e+00 0.0000000000000000e+00
-2.3086389288907050e-01 1.9617862992889098e+01 6.4539704392277819e-01
-2.0318708931246299e-01 1.7266002189312438e+01 0.0000000000000000e+00
ITEM: ATOMS id type x y z
1 1 8.82633 0.303848 3.58635
2 1 4.9653 9.21174 4.68767
3 1 7.09419 5.31547 0.254149
4 1 6.67339 4.17633 8.04223
5 2 7.81448 8.64642 3.05783
6 2 6.2095 0.860752 5.30758
7 2 8.16263 3.62275 0.914084
8 2 5.49718 5.78508 7.24974
9 2 6.53187 8.19386 3.50205
10 2 7.38199 1.28796 4.83054
11 2 0.387917 3.29575 0.564428
12 2 4.28418 6.29814 7.7941
13 2 7.19295 6.68632 1.83012
14 2 6.59888 2.64905 6.69017
15 2 8.80224 1.74723 2.23952
16 2 4.75532 7.56736 5.81023
17 5 1.08963 0.579725 5.19151
18 5 3.63353 8.98298 3.15938
19 5 1.50417 5.33041 7.44886
20 5 3.15476 4.06872 0.927747
21 5 3.12928 0.106794 5.66591
22 5 1.57418 9.42062 2.69093
23 5 8.646 4.85737 7.04083
24 5 5.16922 4.49644 1.30782
25 3 8.13756 7.66471 2.11203
26 3 5.70276 1.73589 6.35617
27 3 7.88417 2.696 1.94962
28 3 5.78767 6.70879 6.24543
29 3 6.25914 7.04909 2.82777
30 3 7.64032 2.33753 5.70572
31 3 0.685516 2.2166 1.36613
32 3 3.918 7.20784 6.88903
33 6 2.15339 0.154332 4.81623
34 6 2.51954 9.33116 3.48096
35 6 0.461733 4.9143 7.88658
36 6 4.24487 4.41425 0.520542
37 4 0.0723656 7.39729 1.87484
38 4 4.72401 1.71819 6.86086
39 4 6.91495 2.43342 2.31854
40 4 6.769 6.56384 5.75938
41 4 5.23129 6.73061 2.69137
42 4 8.62661 2.69309 6.0306
43 4 1.62956 1.7244 1.21895
44 4 2.91331 7.62596 6.87493
45 1 4.57033 0.319169 12.3798
46 1 0.816254 9.15273 13.3725
47 1 2.96176 5.17316 9.0117
48 1 2.42419 4.17598 16.7399
49 2 3.58957 8.1838 12.1893
50 2 1.71367 0.879984 13.8621
51 2 4.0851 3.71393 9.74832
52 2 1.41339 5.91402 16.1724
53 2 2.15673 8.16842 12.0983
54 2 3.06394 1.0579 13.7768
55 2 5.27958 3.31148 9.28602
56 2 9.26628 6.31313 16.5725
57 2 3.15837 6.55835 10.7843
58 2 2.38195 2.73284 15.3573
59 2 4.50472 1.65544 10.8217
60 2 0.71329 7.61984 14.6878
61 5 5.80784 0.405156 13.8693
62 5 8.46168 9.19098 12.2183
63 5 6.29709 5.60399 16.3586
64 5 8.2308 3.79492 9.53417
65 5 7.85389 0.129651 14.3452
66 5 6.35391 9.55287 11.5633
67 5 4.2778 4.98188 15.8177
68 5 1.0487 4.50909 10.0453
69 3 4.14789 7.00024 11.6055
70 3 1.44568 1.81979 14.9451
71 3 3.58554 2.64917 10.6073
72 3 1.80339 6.89015 15.1873
73 3 1.98719 6.90206 11.5368
74 3 3.31732 2.28864 14.4465
75 3 5.5346 2.10057 10.0789
76 3 8.9033 7.28392 15.671
77 6 6.97887 0.101173 13.5426
78 6 7.24927 9.23755 12.3815
79 6 5.15621 5.14643 16.7196
80 6 9.28756 4.32537 9.23332
81 4 5.03367 7.37868 11.088
82 4 9.54336 1.87892 15.3009
83 4 2.77556 2.86509 11.3574
84 4 2.55313 6.46592 14.49
85 4 0.942706 6.65155 11.2889
86 4 4.31505 2.49272 14.731
87 4 6.47078 1.58081 9.80093
88 4 7.97623 7.76843 15.6081
89 1 8.73878 10.2254 3.65875
90 1 5.04909 19.0757 4.648
91 1 7.14523 15.1635 0.360932
92 1 6.67585 14.0917 8.03677
93 2 7.79338 18.5664 3.07007
94 2 5.91228 11.3578 4.85729
95 2 8.14649 13.4795 0.86381
96 2 5.52647 15.7366 7.36202
97 2 6.44646 18.259 3.30142
98 2 7.29615 11.4103 4.77668
99 2 0.352148 13.0946 0.550219
100 2 4.34369 16.3121 7.81418
101 2 7.19602 16.6848 1.69494
102 2 6.66239 12.8176 6.46265
103 2 8.63174 11.652 2.33029
104 2 5.081 17.6949 6.09374
105 5 1.15819 10.53 5.03829
106 5 3.61028 19.0752 3.10191
107 5 1.41609 15.4512 7.58557
108 5 3.23641 13.9937 0.798447
109 5 3.06082 10.0379 5.77228
110 5 1.53145 19.271 2.62224
111 5 8.53339 14.9548 7.06677
112 5 5.22772 14.4058 1.33622
113 3 8.1433 17.6346 2.02405
114 3 5.68477 11.861 6.21882
115 3 7.77132 12.6691 1.94285
116 3 6.01159 16.7366 6.44158
117 3 6.27163 17.0447 2.61105
118 3 7.68839 12.443 5.58053
119 3 0.505495 12.0319 1.42475
120 3 3.99608 17.3265 6.94676
121 6 2.28148 10.1003 4.83701
122 6 2.40905 19.4546 3.42013
123 6 0.322571 15.1267 7.81874
124 6 4.35473 14.4297 0.522574
125 4 0.0920825 17.3705 1.99369
126 4 4.75542 12.3252 6.45826
127 4 6.66889 12.6876 2.14402
128 4 6.85712 16.7124 5.8146
129 4 5.23493 16.7215 2.69461
130 4 8.69869 12.9938 5.45601
131 4 1.32744 11.296 1.252
132 4 3.26629 18.1247 7.23287
133 1 4.45313 10.1958 12.3392
134 1 0.768739 19.0273 13.4841
135 1 2.84613 15.0859 9.09951
136 1 2.37567 14.1229 16.7045
137 2 3.41188 18.4991 11.7889
138 2 1.86475 10.7067 14.0638
139 2 3.90835 13.5632 9.63942
140 2 1.37843 15.6677 16.1559
141 2 2.03662 18.1867 12.127
142 2 3.15743 11.1009 13.679
143 2 5.18397 13.1095 9.17937
144 2 9.29371 16.0781 16.5645
145 2 2.96284 16.6091 10.4629
146 2 2.38443 12.6987 15.3066
147 2 4.73918 11.8698 11.1383
148 2 0.732516 17.6586 14.9086
149 5 6.02537 10.3275 13.8935
150 5 8.53367 19.0061 11.8904
151 5 6.30672 15.6169 16.3805
152 5 8.26089 13.9892 9.43488
153 5 8.06253 10.0606 14.3221
154 5 6.44351 19.1742 11.436
155 5 4.39376 15.11 15.8168
156 5 1.12864 14.4006 10.0072
157 3 3.90972 17.4915 10.9494
158 3 1.52594 11.6177 15.0689
159 3 3.73067 12.749 10.7646
160 3 1.64812 16.7054 15.1141
161 3 1.89957 17.1243 11.2496
162 3 3.40731 12.1767 14.4857
163 3 5.45619 12.0032 9.95261
164 3 8.92767 17.2132 15.8386
165 6 7.07841 9.83029 13.7009
166 6 7.36127 19.1827 12.2009
167 6 5.24297 15.1011 16.6826
168 6 9.25912 14.5894 9.32139
169 4 4.91884 17.6296 10.5847
170 4 0.497014 11.503 15.4867
171 4 3.14578 13.2573 11.5915
172 4 2.6697 16.9158 14.8548
173 4 1.11478 16.4035 11.4105
174 4 4.09133 12.9984 14.196
175 4 6.46527 11.7397 9.97419
176 4 7.87837 17.6326 15.9719
177 7 2.93386 9.85367 9.67605
178 8 3.10655 9.36844 8.62895
179 8 2.37556 10.3676 10.5788
180 7 9.15351 11.6732 10.637
181 8 8.43799 11.7632 11.5435
182 8 0.682246 11.7705 9.68143
183 7 7.29199 6.64818 9.98179
184 8 7.36984 6.2328 8.90433
185 8 7.12046 7.07064 11.0907
186 7 1.8069 10.6129 7.93446
187 8 1.0136 9.78433 7.63253
188 8 2.6219 11.3803 8.25914
189 7 6.40987 9.18554 7.28345
190 8 7.21175 8.85631 6.39667
191 8 5.66658 9.07452 8.29248
192 7 0.190247 7.68321 6.90926
193 8 0.847453 7.32439 6.02683
194 8 8.46455 7.84256 7.66651
195 7 0.893557 8.3541 9.47855
196 8 0.816864 7.29119 9.03491
197 8 0.720031 9.32468 9.95036
198 7 7.84412 10.3793 8.6067
199 8 8.36829 11.1463 7.92575
200 8 7.53091 9.41773 9.22947
201 7 6.17325 14.7872 12.5616
202 8 6.13053 15.6801 13.2618
203 8 6.18534 14.1345 11.587
204 7 7.14778 13.5483 14.7001
205 8 7.93813 13.9694 13.955
206 8 6.64018 12.8158 15.4377
207 7 6.15883 4.39667 13.336
208 8 5.58265 4.73035 12.3877
209 8 6.804 3.88929 14.2079
210 7 9.00845 4.20168 12.794
211 8 9.28533 4.78951 13.7657
212 8 8.7215 3.27223 12.1097
213 7 3.5605 4.52871 5.33316
214 8 2.83198 3.74642 5.93509
215 8 4.09197 5.33403 4.69272
216 7 4.32888 2.192 2.69355
217 8 4.40224 1.6165 1.61346
218 8 4.26999 2.52809 3.83564
219 7 2.2605 13.5078 4.5431
220 8 2.05844 13.5701 5.71729
221 8 2.64753 13.5132 3.43993
222 7 3.72365 15.7144 4.71351
223 8 4.62055 14.9405 4.57758
224 8 2.79123 16.4381 4.70375
ITEM: TIMESTEP
79
ITEM: NUMBER OF ATOMS
224
ITEM: BOX BOUNDS xy xz yz pp pp pp
-1.0786160364118569e-01 9.6673013403863344e+00 0.0000000000000000e+00
-2.3459273999838537e-01 1.9621591839998416e+01 6.4563953674515828e-01
-2.0646890866130718e-01 1.7269284008661284e+01 0.0000000000000000e+00
ITEM: ATOMS id type x y z
1 1 8.82886 0.300178 3.584
2 1 4.9645 9.21265 4.68594
3 1 7.09443 5.31403 0.250385
4 1 6.67482 4.17424 8.0426
5 2 7.81578 8.64595 3.05692
6 2 6.21123 0.855899 5.30609
7 2 8.16426 3.62135 0.910955
8 2 5.49364 5.78252 7.24712
9 2 6.53301 8.19406 3.50072
10 2 7.38152 1.28397 4.83015
11 2 0.386558 3.29377 0.562143
12 2 4.2828 6.29834 7.79087
13 2 7.19501 6.68324 1.82858
14 2 6.59946 2.64659 6.69026
15 2 8.80357 1.74388 2.23683
16 2 4.7543 7.5646 5.80859
17 5 1.08922 0.576695 5.19083
18 5 3.63218 8.98338 3.15675
19 5 1.5049 5.32486 7.4479
20 5 3.15472 4.0684 0.925677
21 5 3.12697 0.103446 5.6634
22 5 1.57548 9.42071 2.69011
23 5 8.64892 4.8527 7.03979
24 5 5.16758 4.49568 1.30428
25 3 8.13869 7.66308 2.10995
26 3 5.70652 1.73263 6.35437
27 3 7.88838 2.69196 1.94707
28 3 5.78177 6.70671 6.2425
29 3 6.26157 7.04763 2.82683
30 3 7.64145 2.33681 5.70655
31 3 0.68383 2.21398 1.3641
32 3 3.91795 7.20453 6.88539
33 6 2.15412 0.150382 4.81303
34 6 2.51806 9.33207 3.48099
35 6 0.459032 4.90758 7.88677
36 6 4.24536 4.41335 0.518063
37 4 0.0667621 7.39853 1.87875
38 4 4.72877 1.71274 6.85845
39 4 6.91727 2.42624 2.31417
40 4 6.76091 6.55172 5.74334
41 4 5.23142 6.72976 2.69333
42 4 8.6292 2.69055 6.02869
43 4 1.62973 1.71906 1.21518
44 4 2.91469 7.61261 6.87709
45 1 4.57091 0.315329 12.3814
46 1 0.814768 9.15271 13.3736
47 1 2.96165 5.17021 9.01144
48 1 2.42382 4.17414 16.7433
49 2 3.58895 8.17538 12.1957
50 2 1.71387 0.877994 13.8651
51 2 4.08729 3.71122 9.7494
52 2 1.41104 5.91395 16.1752
53 2 2.15882 8.16579 12.1021
54 2 3.06185 1.05481 13.78
55 2 5.27878 3.30871 9.28774
56 2 9.26879 6.31231 16.5748
57 2 3.16281 6.55255 10.7925
58 2 2.38049 2.72873 15.3578
59 2 4.50492 1.65142 10.8212
60 2 0.711199 7.62007 14.6895
61 5 5.8081 0.399852 13.8711
62 5 8.4605 9.19326 12.2217
63 5 6.29561 5.60409 16.362
64 5 8.23504 3.78987 9.53442
65 5 7.85319 0.126764 14.3471
66 5 6.35569 9.55525 11.5688
67 5 4.27879 4.97972 15.8212
68 5 1.04736 4.50828 10.0455
69 3 4.14478 6.99461 11.6135
70 3 1.44471 1.81689 14.9463
71 3 3.58772 2.64636 10.607
72 3 1.80138 6.88959 15.1903
73 3 1.98929 6.89838 11.5414
74 3 3.31553 2.2839 14.4493
75 3 5.5344 2.09832 10.0788
76 3 8.90714 7.28309 15.6727
77 6 6.97901 0.0964344 13.542
78 6 7.2489 9.2375 12.3865
79 6 5.15379 5.14406 16.726
80 6 9.29241 4.32208 9.23309
81 4 5.04515 7.37005 11.1033
82 4 9.54415 1.88126 15.2985
83 4 2.78111 2.85903 11.3555
84 4 2.55116 6.46272 14.4957
85 4 0.945158 6.64853 11.2842
86 4 4.31839 2.48815 14.7397
87 4 6.46331 1.57197 9.80213
88 4 7.97244 7.76874 15.6101
89 1 8.74027 10.2255 3.65721
90 1 5.04932 19.0796 4.64594
91 1 7.14605 15.165 0.358107
92 1 6.67711 14.0933 8.03693
93 2 7.79344 18.5693 3.06738
94 2 5.91475 11.3616 4.85211
95 2 8.14803 13.4801 0.86203
96 2 5.52527 15.7385 7.36243
97 2 6.44867 18.2617 3.29749
98 2 7.29411 11.4139 4.7737
99 2 0.349139 13.095 0.547946
100 2 4.34315 16.3141 7.81469
101 2 7.19782 16.6861 1.69286
102 2 6.6635 12.8229 6.46019
103 2 8.63239 11.6507 2.32833
104 2 5.08239 17.7007 6.09259
105 5 1.1582 10.5321 5.03558
106 5 3.60826 19.0816 3.09858
107 5 1.41411 15.4544 7.58482
108 5 3.23654 13.9963 0.795822
109 5 3.0593 10.0377 5.77021
110 5 1.53132 19.2746 2.62072
111 5 8.53634 14.9564 7.06754
112 5 5.22777 14.4087 1.33388
113 3 8.14452 17.6383 2.02211
114 3 5.68558 11.8676 6.21383
115 3 7.77205 12.6711 1.93955
116 3 6.01115 16.7425 6.44114
117 3 6.27364 17.0502 2.6092
118 3 7.68808 12.4476 5.57758
119 3 0.503208 12.0319 1.42249
120 3 3.99752 17.3318 6.947
121 6 2.28197 10.1 4.83342
122 6 2.40836 19.4603 3.41955
123 6 0.319486 15.1297 7.82064
124 6 4.35494 14.4327 0.51858
125 4 0.0883037 17.3726 1.99611
126 4 4.75376 12.3333 6.45741
127 4 6.67229 12.6901 2.13418
128 4 6.86057 16.7153 5.80875
129 4 5.2377 16.7278 2.68848
130 4 8.68866 12.9905 5.45192
131 4 1.32104 11.2994 1.24735
132 4 3.27192 18.1274 7.23758
133 1 4.4528 10.1953 12.3408
134 1 0.766529 19.0306 13.4863
135 1 2.84463 15.0866 9.09993
136 1 2.37495 14.1248 16.7073
137 2 3.41091 18.5009 11.7893
138 2 1.86511 10.7062 14.0673
139 2 3.90911 13.5669 9.63975
140 2 1.37575 15.6693 16.1594
141 2 2.03708 18.1888 12.1264
142 2 3.15639 11.1004 13.6811
143 2 5.18407 13.1102 9.17783
144 2 9.29556 16.0797 16.5676
145 2 2.96157 16.6112 10.4655
146 2 2.38418 12.7012 15.3093
147 2 4.74074 11.8707 11.1413
148 2 0.731282 17.6633 14.9114
149 5 6.02571 10.3272 13.8964
150 5 8.53374 19.0117 11.8913
151 5 6.30688 15.6221 16.3852
152 5 8.26435 13.9916 9.43523
153 5 8.06441 10.0614 14.3232
154 5 6.44558 19.1762 11.4379
155 5 4.39361 15.1131 15.8202
156 5 1.12694 14.4048 10.0062
157 3 3.90583 17.4951 10.9534
158 3 1.5254 11.6169 15.0711
159 3 3.73238 12.752 10.7685
160 3 1.6468 16.708 15.1162
161 3 1.89999 17.1274 11.2493
162 3 3.40709 12.1783 14.4881
163 3 5.45615 12.0024 9.95126
164 3 8.92824 17.2158 15.8433
165 6 7.07934 9.82763 13.7041
166 6 7.36188 19.1862 12.204
167 6 5.24316 15.1058 16.6879
168 6 9.26264 14.5954 9.32159
169 4 4.91777 17.6344 10.5922
170 4 0.495975 11.4999 15.4828
171 4 3.15226 13.2633 11.5899
172 4 2.67105 16.9242 14.8564
173 4 1.1133 16.4065 11.4103
174 4 4.08575 12.9946 14.1945
175 4 6.47168 11.7421 9.97422
176 4 7.88543 17.6335 15.9789
177 7 2.92996 9.85744 9.67191
178 8 3.10524 9.37682 8.62576
179 8 2.37464 10.3663 10.578
180 7 9.15362 11.6744 10.6381
181 8 8.4408 11.7703 11.5446
182 8 0.680866 11.7668 9.68136
183 7 7.29311 6.6474 9.98207
184 8 7.37045 6.23203 8.90182
185 8 7.12055 7.06649 11.0948
186 7 1.80664 10.615 7.93386
187 8 1.01326 9.784 7.63435
188 8 2.62197 11.3834 8.25457
189 7 6.41275 9.18445 7.28349
190 8 7.21362 8.85471 6.39868
191 8 5.66605 9.08063 8.29344
192 7 0.189655 7.68097 6.9062
193 8 0.844703 7.32427 6.02343
194 8 8.46803 7.83991 7.66269
195 7 0.890551 8.35627 9.47811
196 8 0.813708 7.29118 9.03489
197 8 0.719022 9.32387 9.95093
198 7 7.8481 10.3795 8.60822
199 8 8.37118 11.1488 7.92784
200 8 7.5322 9.41594 9.23066
201 7 6.17349 14.7934 12.5622
202 8 6.13164 15.6849 13.2621
203 8 6.18583 14.1371 11.5897
204 7 7.15264 13.5462 14.7017
205 8 7.9398 13.9706 13.9576
206 8 6.64459 12.8141 15.436
207 7 6.1582 4.39444 13.3369
208 8 5.58331 4.72867 12.3915
209 8 6.8044 3.88637 14.2098
210 7 9.01095 4.19905 12.7978
211 8 9.2881 4.78894 13.7659
212 8 8.72211 3.26975 12.1133
213 7 3.55719 4.52695 5.33123
214 8 2.82911 3.74316 5.93528
215 8 4.08827 5.32845 4.68816
216 7 4.32986 2.18763 2.69188
217 8 4.40427 1.61238 1.61054
218 8 4.27032 2.52481 3.83338
219 7 2.26065 13.507 4.54134
220 8 2.05855 13.5694 5.71615
221 8 2.64681 13.5124 3.43843
222 7 3.72211 15.7163 4.70932
223 8 4.61582 14.9394 4.57187
224 8 2.79234 16.4411 4.70163
ITEM: TIMESTEP
80
ITEM: NUMBER OF ATOMS
224
ITEM: BOX BOUNDS xy xz yz pp pp pp
-1.0956616818508369e-01 9.6692469984054075e+00 0.0000000000000000e+00
-2.3830006914386637e-01 1.9625299169143901e+01 6.4588063022033282e-01
-2.0973178969812523e-01 1.7272546889698102e+01 0.0000000000000000e+00
ITEM: ATOMS id type x y z
1 1 8.83137 0.296533 3.58166
2 1 4.96369 9.21358 4.68421
3 1 7.09467 5.3126 0.246648
4 1 6.67625 4.17215 8.04298
5 2 7.817 8.64539 3.05603
6 2 6.21283 0.851069 5.30467
7 2 8.16594 3.61992 0.907864
8 2 5.49003 5.78003 7.24449
9 2 6.53419 8.19431 3.49936
10 2 7.38112 1.28003 4.82983
11 2 0.385145 3.29181 0.559911
12 2 4.28147 6.29843 7.78761
13 2 7.19705 6.6802 1.82711
14 2 6.60013 2.64415 6.69028
15 2 8.80496 1.74057 2.23408
16 2 4.75332 7.56182 5.80707
17 5 1.08879 0.573676 5.19011
18 5 3.63084 8.98377 3.15413
19 5 1.50566 5.3193 7.44701
20 5 3.15466 4.06811 0.923587
21 5 3.12462 0.100114 5.66082
22 5 1.57679 9.4208 2.68932
23 5 8.65185 4.84802 7.0388
24 5 5.16597 4.49494 1.30074
25 3 8.13985 7.66144 2.10788
26 3 5.71031 1.72934 6.35249
27 3 7.89257 2.68795 1.94451
28 3 5.77589 6.70459 6.23959
29 3 6.264 7.04616 2.82579
30 3 7.64248 2.33613 5.70748
31 3 0.682116 2.21137 1.3621
32 3 3.91788 7.20131 6.88167
33 6 2.15497 0.146465 4.81001
34 6 2.51655 9.33301 3.48102
35 6 0.456217 4.90087 7.88676
36 6 4.2459 4.41245 0.515705
37 4 0.0609208 7.40003 1.88273
38 4 4.73361 1.7071 6.85586
39 4 6.91929 2.41938 2.30966
40 4 6.75247 6.53971 5.72715
41 4 5.23152 6.72887 2.69544
42 4 8.63186 2.6878 6.02633
43 4 1.62995 1.71357 1.2115
44 4 2.91622 7.59927 6.87945
45 1 4.57149 0.311503 12.3831
46 1 0.813283 9.15269 13.3747
47 1 2.96154 5.16727 9.01118
48 1 2.42346 4.17231 16.7467
49 2 3.58828 8.16695 12.2021
50 2 1.71408 0.876076 13.8683
51 2 4.08938 3.70845 9.75051
52 2 1.4087 5.91394 16.1779
53 2 2.161 8.16304 12.1059
54 2 3.05979 1.05183 13.7832
55 2 5.27804 3.30583 9.28951
56 2 9.27127 6.31148 16.5771
57 2 3.16714 6.5467 10.8007
58 2 2.37904 2.72461 15.3581
59 2 4.50513 1.64741 10.8207
60 2 0.709157 7.6203 14.6912
61 5 5.8084 0.394551 13.8729
62 5 8.45932 9.19553 12.2251
63 5 6.29406 5.60417 16.3655
64 5 8.23927 3.78484 9.53464
65 5 7.85254 0.1239 14.349
66 5 6.35748 9.55761 11.5744
67 5 4.2798 4.97758 15.8248
68 5 1.04604 4.50748 10.0458
69 3 4.14165 6.98918 11.6215
70 3 1.44371 1.81393 14.9474
71 3 3.58993 2.64366 10.6067
72 3 1.79933 6.88895 15.1934
73 3 1.99143 6.89478 11.5459
74 3 3.31374 2.27914 14.4522
75 3 5.53422 2.09623 10.0786
76 3 8.91103 7.28229 15.6744
77 6 6.97911 0.0917131 13.5413
78 6 7.24852 9.23749 12.3915
79 6 5.15139 5.14175 16.7322
80 6 9.2973 4.31878 9.23294
81 4 5.05607 7.36106 11.1188
82 4 9.54496 1.88375 15.2961
83 4 2.78688 2.85284 11.3532
84 4 2.54907 6.45987 14.5015
85 4 0.947913 6.64544 11.2795
86 4 4.32203 2.48362 14.7483
87 4 6.45558 1.56291 9.80355
88 4 7.96822 7.76906 15.6124
89 1 8.74175 10.2256 3.65566
90 1 5.04955 19.0834 4.64388
91 1 7.14687 15.1665 0.355298
92 1 6.67837 14.095 8.0371
93 2 7.79347 18.5722 3.06463
94 2 5.91722 11.3653 4.84712
95 2 8.14962 13.4807 0.860308
96 2 5.52412 15.7405 7.36278
97 2 6.45092 18.2643 3.29356
98 2 7.29208 11.4175 4.77073
99 2 0.346061 13.0954 0.545724
100 2 4.34259 16.3159 7.81519
101 2 7.19964 16.6875 1.69082
102 2 6.66462 12.8281 6.45772
103 2 8.63303 11.6495 2.3263
104 2 5.08373 17.7064 6.09151
105 5 1.15822 10.5342 5.03288
106 5 3.60615 19.088 3.0953
107 5 1.41218 15.4577 7.58403
108 5 3.23668 13.999 0.793195
109 5 3.05782 10.0375 5.7681
110 5 1.53115 19.2783 2.61922
111 5 8.53924 14.958 7.06828
112 5 5.22785 14.4116 1.33157
113 3 8.14574 17.6421 2.02024
114 3 5.68645 11.8742 6.20868
115 3 7.77274 12.673 1.93624
116 3 6.01064 16.7483 6.44074
117 3 6.27558 17.0558 2.6074
118 3 7.68775 12.4522 5.57464
119 3 0.500969 12.0318 1.42027
120 3 3.99903 17.3371 6.94723
121 6 2.28243 10.0998 4.82987
122 6 2.40785 19.4658 3.4189
123 6 0.316371 15.1326 7.82267
124 6 4.35509 14.4357 0.514658
125 4 0.0842926 17.3746 1.99836
126 4 4.75169 12.341 6.45651
127 4 6.67609 12.6922 2.12453
128 4 6.86441 16.7178 5.80291
129 4 5.24056 16.7338 2.68197
130 4 8.678 12.9869 5.44794
131 4 1.31451 11.3031 1.24268
132 4 3.27772 18.1297 7.24233
133 1 4.45248 10.1948 12.3425
134 1 0.764316 19.0338 13.4884
135 1 2.84315 15.0874 9.10035
136 1 2.37424 14.1266 16.7102
137 2 3.40989 18.5027 11.7897
138 2 1.86551 10.7058 14.0708
139 2 3.90997 13.5706 9.64011
140 2 1.37313 15.671 16.1628
141 2 2.03769 18.1908 12.1258
142 2 3.1553 11.0998 13.6832
143 2 5.18412 13.1108 9.17633
144 2 9.29732 16.0812 16.5707
145 2 2.96029 16.6132 10.4683
146 2 2.38395 12.7036 15.3119
147 2 4.74223 11.8715 11.1441
148 2 0.730023 17.6679 14.9142
149 5 6.026 10.3269 13.8994
150 5 8.5338 19.0173 11.8922
151 5 6.30704 15.6273 16.39
152 5 8.26775 13.9939 9.43562
153 5 8.06633 10.0621 14.3243
154 5 6.44763 19.1781 11.4397
155 5 4.39342 15.1161 15.8235
156 5 1.12524 14.4089 10.0052
157 3 3.90191 17.4987 10.9574
158 3 1.52483 11.6161 15.0733
159 3 3.73405 12.7551 10.7724
160 3 1.64551 16.7105 15.1183
161 3 1.90041 17.1304 11.249
162 3 3.40687 12.1799 14.4906
163 3 5.45611 12.0016 9.94995
164 3 8.92878 17.2183 15.8479
165 6 7.08025 9.82496 13.7073
166 6 7.36248 19.1898 12.207
167 6 5.24337 15.1107 16.693
168 6 9.26619 14.6014 9.3217
169 4 4.91664 17.639 10.5994
170 4 0.49528 11.4972 15.4788
171 4 3.15888 13.2689 11.588
172 4 2.67252 16.9324 14.858
173 4 1.1116 16.4097 11.4101
174 4 4.08029 12.9904 14.1929
175 4 6.47839 11.7443 9.97425
176 4 7.893 17.6345 15.9857
177 7 2.926 9.86121 9.66784
178 8 3.10402 9.38508 8.62263
179 8 2.37383 10.3649 10.5773
180 7 9.15372 11.6756 10.639
181 8 8.44359 11.7774 11.5457
182 8 0.679488 11.7631 9.68133
183 7 7.2942 6.64667 9.98243
184 8 7.37105 6.23129 8.89937
185 8 7.1207 7.06226 11.0988
186 7 1.80632 10.6171 7.93321
187 8 1.01298 9.78374 7.63615
188 8 2.62201 11.3865 8.24993
189 7 6.41559 9.18323 7.28356
190 8 7.21534 8.85323 6.40075
191 8 5.66556 9.08676 8.29423
192 7 0.189032 7.67871 6.90313
193 8 0.841981 7.32417 6.02
194 8 8.4715 7.83726 7.65886
195 7 0.887524 8.35821 9.47757
196 8 0.810636 7.29115 9.03493
197 8 0.717961 9.32319 9.95159
198 7 7.85214 10.3795 8.60981
199 8 8.374 11.1514 7.92991
200 8 7.53352 9.41424 9.23186
201 7 6.17372 14.7997 12.5627
202 8 6.13274 15.6897 13.2624
203 8 6.18633 14.1396 11.5923
204 7 7.15756 13.544 14.7032
205 8 7.94147 13.9717 13.9602
206 8 6.64896 12.8124 15.4343
207 7 6.15762 4.39214 13.3379
208 8 5.58396 4.72701 12.3952
209 8 6.80475 3.8835 14.2116
210 7 9.01343 4.1963 12.8016
211 8 9.29087 4.78841 13.766
212 8 8.72272 3.26734 12.1168
213 7 3.55375 4.5251 5.32938
214 8 2.82633 3.73997 5.93541
215 8 4.08457 5.32286 4.68358
216 7 4.33085 2.18319 2.69017
217 8 4.40628 1.60836 1.60774
218 8 4.27065 2.52154 3.83105
219 7 2.26084 13.5062 4.53965
220 8 2.05867 13.5687 5.71495
221 8 2.64605 13.5115 3.43696
222 7 3.72059 15.7182 4.7051
223 8 4.61105 14.9384 4.5662
224 8 2.79347 16.4441 4.6995
ITEM: TIMESTEP
81
ITEM: NUMBER OF ATOMS
224
ITEM: BOX BOUNDS xy xz yz pp pp pp
-1.1126085076970327e-01 9.6711813767616572e+00 0.0000000000000000e+00
-2.4198590560033217e-01 1.9628985005600367e+01 6.4612032599196345e-01
-2.1297575466769736e-01 1.7275790854667676e+01 0.0000000000000000e+00
ITEM: ATOMS id type x y z
1 1 8.83387 0.292914 3.57933
2 1 4.96289 9.2145 4.68248
3 1 7.0949 5.31117 0.242937
4 1 6.67767 4.17007 8.04335
5 2 7.81817 8.64476 3.05517
6 2 6.21429 0.84626 5.30333
7 2 8.16768 3.61846 0.904811
8 2 5.48635 5.7776 7.24186
9 2 6.53538 8.19459 3.49798
10 2 7.3808 1.27615 4.82956
11 2 0.383676 3.28986 0.557732
12 2 4.2802 6.29843 7.78431
13 2 7.19907 6.67721 1.82573
14 2 6.6009 2.64175 6.69023
15 2 8.8064 1.73729 2.23129
16 2 4.7524 7.55903 5.80566
17 5 1.08834 0.570665 5.18938
18 5 3.62952 8.98417 3.15153
19 5 1.50646 5.31374 7.44618
20 5 3.15459 4.06783 0.921476
21 5 3.12222 0.0967976 5.65816
22 5 1.57811 9.42088 2.68854
23 5 8.65479 4.84335 7.03786
24 5 5.16437 4.49421 1.29721
25 3 8.14101 7.65981 2.10581
26 3 5.71412 1.726 6.35055
27 3 7.89673 2.68397 1.94196
28 3 5.77004 6.70242 6.23669
29 3 6.26644 7.04468 2.82467
30 3 7.64342 2.33549 5.70851
31 3 0.680378 2.20877 1.36014
32 3 3.91779 7.19819 6.87789
33 6 2.15594 0.142585 4.80718
34 6 2.51501 9.33396 3.48104
35 6 0.4533 4.89416 7.88654
36 6 4.24648 4.41154 0.513469
37 4 0.0548973 7.40177 1.88679
38 4 4.73853 1.70126 6.85312
39 4 6.92102 2.41283 2.30502
40 4 6.74362 6.52782 5.71085
41 4 5.23163 6.72795 2.69771
42 4 8.63457 2.68484 6.02353
43 4 1.63018 1.70794 1.20793
44 4 2.91783 7.58597 6.88197
45 1 4.57206 0.307691 12.3847
46 1 0.811801 9.15267 13.3759
47 1 2.96144 5.16435 9.01093
48 1 2.4231 4.1705 16.7501
49 2 3.58754 8.15854 12.2085
50 2 1.7143 0.87423 13.8715
51 2 4.09137 3.70564 9.75166
52 2 1.40635 5.91398 16.1806
53 2 2.16326 8.16016 12.1097
54 2 3.05777 1.04895 13.7863
55 2 5.27734 3.30284 9.29133
56 2 9.2737 6.31065 16.5793
57 2 3.17138 6.54081 10.809
58 2 2.3776 2.72047 15.3584
59 2 4.50533 1.64342 10.8203
60 2 0.707168 7.62053 14.6929
61 5 5.80874 0.389253 13.8747
62 5 8.45812 9.1978 12.2283
63 5 6.29243 5.60423 16.3691
64 5 8.24348 3.77983 9.53484
65 5 7.85195 0.121057 14.3509
66 5 6.35929 9.55996 11.5799
67 5 4.28084 4.97545 15.8283
68 5 1.04475 4.50669 10.046
69 3 4.13852 6.98396 11.6293
70 3 1.44266 1.81091 14.9485
71 3 3.59218 2.64106 10.6063
72 3 1.79725 6.88821 15.1965
73 3 1.99361 6.89125 11.5505
74 3 3.31197 2.27435 14.455
75 3 5.53407 2.09429 10.0782
76 3 8.91497 7.28153 15.676
77 6 6.97915 0.087011 13.5406
78 6 7.24813 9.23754 12.3966
79 6 5.14899 5.13951 16.7382
80 6 9.30221 4.31547 9.23287
81 4 5.06633 7.35168 11.1344
82 4 9.54581 1.88637 15.2937
83 4 2.79282 2.84652 11.3506
84 4 2.54689 6.45737 14.5074
85 4 0.950987 6.64227 11.2747
86 4 4.32589 2.47912 14.7568
87 4 6.44761 1.55364 9.80518
88 4 7.96364 7.76935 15.6148
89 1 8.74322 10.2256 3.65413
90 1 5.04978 19.0872 4.64184
91 1 7.14768 15.1679 0.352503
92 1 6.67961 14.0966 8.03726
93 2 7.79347 18.575 3.06181
94 2 5.91967 11.3689 4.84231
95 2 8.15125 13.4812 0.858643
96 2 5.52301 15.7426 7.36306
97 2 6.4532 18.2669 3.28964
98 2 7.29007 11.421 4.76779
99 2 0.342914 13.0959 0.543553
100 2 4.342 16.3177 7.81571
101 2 7.20148 16.6889 1.68883
102 2 6.66574 12.8334 6.45524
103 2 8.63368 11.6483 2.32419
104 2 5.08502 17.7121 6.09049
105 5 1.15825 10.5363 5.03019
106 5 3.60396 19.0945 3.09206
107 5 1.41033 15.461 7.5832
108 5 3.23683 14.0016 0.790565
109 5 3.05639 10.0373 5.76594
110 5 1.53093 19.2819 2.61774
111 5 8.54212 14.9596 7.06899
112 5 5.22797 14.4145 1.32927
113 3 8.14696 17.646 2.01845
114 3 5.68737 11.881 6.20338
115 3 7.77339 12.675 1.93294
116 3 6.01004 16.7541 6.44038
117 3 6.27745 17.0615 2.60565
118 3 7.68739 12.4569 5.57173
119 3 0.498775 12.0317 1.41808
120 3 4.00064 17.3425 6.94745
121 6 2.28285 10.0995 4.82636
122 6 2.40752 19.4713 3.41816
123 6 0.313231 15.1354 7.82484
124 6 4.35516 14.4386 0.510811
125 4 0.0800675 17.3766 2.00045
126 4 4.74924 12.3484 6.45552
127 4 6.68025 12.6941 2.1151
128 4 6.86857 16.7199 5.79713
129 4 5.24348 16.7395 2.67511
130 4 8.66683 12.9832 5.44405
131 4 1.30788 11.307 1.23799
132 4 3.28364 18.1317 7.24709
133 1 4.45218 10.1943 12.3442
134 1 0.7621 19.0371 13.4905
135 1 2.84167 15.0881 9.10076
136 1 2.37354 14.1285 16.713
137 2 3.40882 18.5045 11.7902
138 2 1.86596 10.7054 14.0743
139 2 3.91093 13.5742 9.64052
140 2 1.37057 15.6727 16.1661
141 2 2.03844 18.1929 12.1251
142 2 3.15416 11.0992 13.6853
143 2 5.18411 13.1115 9.17488
144 2 9.29899 16.0828 16.5737
145 2 2.95899 16.6153 10.4711
146 2 2.38372 12.7058 15.3146
147 2 4.74368 11.8723 11.1469
148 2 0.728735 17.6725 14.917
149 5 6.02624 10.3266 13.9024
150 5 8.53384 19.0228 11.8931
151 5 6.30722 15.6324 16.3948
152 5 8.27108 13.9961 9.43605
153 5 8.06829 10.0629 14.3255
154 5 6.44963 19.18 11.4415
155 5 4.39318 15.1191 15.8268
156 5 1.12356 14.413 10.0042
157 3 3.89797 17.5023 10.9614
158 3 1.52424 11.6154 15.0755
159 3 3.73569 12.7582 10.7764
160 3 1.64426 16.7128 15.1205
161 3 1.90083 17.1334 11.2488
162 3 3.40663 12.1816 14.493
163 3 5.45609 12.0009 9.94869
164 3 8.92932 17.2208 15.8524
165 6 7.08111 9.82227 13.7105
166 6 7.36307 19.1934 12.2101
167 6 5.2436 15.1155 16.6981
168 6 9.26976 14.6075 9.32171
169 4 4.91545 17.6432 10.6064
170 4 0.49491 11.4948 15.4748
171 4 3.16561 13.2741 11.5859
172 4 2.67405 16.9406 14.8595
173 4 1.10971 16.413 11.4101
174 4 4.07499 12.986 14.1911
175 4 6.48534 11.7463 9.97427
176 4 7.90103 17.6355 15.9924
177 7 2.92199 9.86499 9.66385
178 8 3.1029 9.39324 8.61957
179 8 2.37316 10.3636 10.5766
180 7 9.15383 11.6769 10.64
181 8 8.44637 11.7845 11.5469
182 8 0.678109 11.7594 9.68134
183 7 7.29527 6.64599 9.98285
184 8 7.37162 6.2306 8.89699
185 8 7.12089 7.05796 11.1026
186 7 1.80595 10.6192 7.9325
187 8 1.01277 9.78353 7.63793
188 8 2.62201 11.3897 8.24524
189 7 6.41841 9.18187 7.28367
190 8 7.21693 8.85188 6.40288
191 8 5.66511 9.09291 8.29484
192 7 0.188378 7.67643 6.90003
193 8 0.839289 7.32408 6.01654
194 8 8.47497 7.83461 7.65503
195 7 0.884478 8.3599 9.47691
196 8 0.807648 7.2911 9.03502
197 8 0.716846 9.32266 9.95235
198 7 7.85621 10.3795 8.61145
199 8 8.37676 11.1539 7.93198
200 8 7.53487 9.41263 9.23305
201 7 6.17394 14.8059 12.5631
202 8 6.13382 15.6946 13.2628
203 8 6.18684 14.1422 11.595
204 7 7.16255 13.5418 14.7048
205 8 7.94313 13.973 13.9627
206 8 6.65327 12.8107 15.4325
207 7 6.15711 4.38977 13.339
208 8 5.58459 4.72538 12.399
209 8 6.80504 3.88069 14.2134
210 7 9.01588 4.19345 12.8054
211 8 9.29363 4.7879 13.7661
212 8 8.72333 3.265 12.1204
213 7 3.55018 4.52317 5.32761
214 8 2.82366 3.73687 5.93548
215 8 4.08087 5.31724 4.67899
216 7 4.33185 2.17867 2.68843
217 8 4.40829 1.60442 1.60507
218 8 4.27098 2.51828 3.82866
219 7 2.26105 13.5055 4.53804
220 8 2.05879 13.5679 5.71367
221 8 2.64527 13.5106 3.43553
222 7 3.7191 15.72 4.70085
223 8 4.60625 14.9374 4.56055
224 8 2.79464 16.447 4.69738
ITEM: TIMESTEP
82
ITEM: NUMBER OF ATOMS
224
ITEM: BOX BOUNDS xy xz yz pp pp pp
-1.1294570123568004e-01 9.6731045323451763e+00 0.0000000000000000e+00
-2.4565035776827671e-01 1.9632649457768309e+01 6.4635863110950553e-01
-2.1620089897507100e-01 1.7279015998975048e+01 0.0000000000000000e+00
ITEM: ATOMS id type x y z
1 1 8.83636 0.289321 3.57702
2 1 4.96209 9.21544 4.68076
3 1 7.09514 5.30975 0.239253
4 1 6.67909 4.168 8.04372
5 2 7.81926 8.64405 3.05432
6 2 6.21563 0.841475 5.30206
7 2 8.16947 3.61696 0.901798
8 2 5.48259 5.77523 7.23923
9 2 6.53661 8.19491 3.49658
10 2 7.38055 1.27232 4.82936
11 2 0.382153 3.28792 0.555606
12 2 4.27898 6.29832 7.78099
13 2 7.20108 6.67426 1.82442
14 2 6.60177 2.63939 6.69011
15 2 8.8079 1.73405 2.22846
16 2 4.75152 7.55624 5.80437
17 5 1.08788 0.567663 5.18861
18 5 3.6282 8.98456 3.14895
19 5 1.50728 5.30817 7.44543
20 5 3.1545 4.06756 0.919345
21 5 3.11979 0.0934964 5.65544
22 5 1.57943 9.42096 2.68779
23 5 8.65774 4.83868 7.03698
24 5 5.16281 4.4935 1.29369
25 3 8.14217 7.65818 2.10375
26 3 5.71795 1.72262 6.34852
27 3 7.90085 2.68003 1.93939
28 3 5.76423 6.70022 6.2338
29 3 6.26888 7.0432 2.82346
30 3 7.64426 2.33489 5.70964
31 3 0.678618 2.20617 1.35822
32 3 3.91768 7.19516 6.87403
33 6 2.15702 0.138743 4.80452
34 6 2.51344 9.33493 3.48105
35 6 0.45029 4.88746 7.88612
36 6 4.2471 4.41063 0.511353
37 4 0.04875 7.40371 1.89089
38 4 4.7435 1.69523 6.85022
39 4 6.92249 2.40661 2.30023
40 4 6.73432 6.51606 5.6945
41 4 5.23176 6.72699 2.70013
42 4 8.63733 2.68169 6.0203
43 4 1.6304 1.70221 1.20445
44 4 2.91949 7.57277 6.88463
45 1 4.57263 0.303892 12.3863
46 1 0.81032 9.15265 13.377
47 1 2.96134 5.16145 9.01068
48 1 2.42274 4.1687 16.7535
49 2 3.58674 8.15013 12.2149
50 2 1.71453 0.872452 13.8748
51 2 4.09326 3.70279 9.75285
52 2 1.40401 5.91409 16.1831
53 2 2.16561 8.15716 12.1136
54 2 3.05578 1.04617 13.7895
55 2 5.2767 3.29974 9.2932
56 2 9.2761 6.30982 16.5814
57 2 3.17551 6.53488 10.8172
58 2 2.37616 2.71632 15.3587
59 2 4.50553 1.63944 10.82
60 2 0.705232 7.62076 14.6947
61 5 5.80912 0.383955 13.8764
62 5 8.4569 9.20005 12.2315
63 5 6.29072 5.60427 16.3726
64 5 8.24767 3.77484 9.535
65 5 7.8514 0.118237 14.3528
66 5 6.36112 9.56229 11.5854
67 5 4.28191 4.97333 15.8319
68 5 1.04349 4.5059 10.0463
69 3 4.13541 6.97894 11.6371
70 3 1.44158 1.80784 14.9495
71 3 3.59447 2.63856 10.6059
72 3 1.79513 6.88739 15.1995
73 3 1.99582 6.8878 11.555
74 3 3.31022 2.26955 14.4578
75 3 5.53394 2.0925 10.0778
76 3 8.91895 7.28081 15.6776
77 6 6.97914 0.0823301 13.5399
78 6 7.24774 9.23763 12.4016
79 6 5.14662 5.13732 16.7439
80 6 9.30714 4.31215 9.23288
81 4 5.0758 7.3419 11.1502
82 4 9.54671 1.88914 15.2912
83 4 2.7989 2.84011 11.3478
84 4 2.54461 6.45522 14.5132
85 4 0.954393 6.63905 11.2698
86 4 4.32989 2.47462 14.7653
87 4 6.43946 1.54416 9.80698
88 4 7.95881 7.76957 15.6175
89 1 8.74468 10.2257 3.65261
90 1 5.05001 19.091 4.6398
91 1 7.14849 15.1694 0.349723
92 1 6.68085 14.0983 8.03742
93 2 7.79346 18.5778 3.05894
94 2 5.92211 11.3724 4.8377
95 2 8.15293 13.4818 0.857032
96 2 5.52195 15.7448 7.36327
97 2 6.45553 18.2694 3.28572
98 2 7.28809 11.4246 4.76486
99 2 0.3397 13.0963 0.541433
100 2 4.34138 16.3195 7.81622
101 2 7.20335 16.6902 1.68688
102 2 6.66687 12.8386 6.45275
103 2 8.63432 11.6472 2.32201
104 2 5.08625 17.7177 6.08955
105 5 1.15829 10.5384 5.0275
106 5 3.60169 19.1009 3.08887
107 5 1.40854 15.4643 7.58235
108 5 3.23699 14.0043 0.787932
109 5 3.055 10.0371 5.76373
110 5 1.53068 19.2855 2.6163
111 5 8.54495 14.9612 7.06968
112 5 5.22814 14.4175 1.327
113 3 8.14818 17.6498 2.01672
114 3 5.68834 11.8878 6.19793
115 3 7.774 12.6769 1.92962
116 3 6.00938 16.7599 6.44005
117 3 6.27926 17.0672 2.60394
118 3 7.687 12.4615 5.56885
119 3 0.496621 12.0315 1.41592
120 3 4.00233 17.3479 6.94767
121 6 2.28322 10.0993 4.8229
122 6 2.40738 19.4766 3.41734
123 6 0.310073 15.1382 7.82713
124 6 4.35518 14.4414 0.507044
125 4 0.0756488 17.3786 2.00237
126 4 4.74647 12.3554 6.45445
127 4 6.6847 12.6956 2.10589
128 4 6.87297 16.7217 5.79146
129 4 5.24646 16.7448 2.6679
130 4 8.65528 12.9792 5.44025
131 4 1.30119 11.3112 1.23329
132 4 3.28967 18.1334 7.25188
133 1 4.45189 10.1938 12.3459
134 1 0.759882 19.0403 13.4926
135 1 2.84019 15.0888 9.10115
136 1 2.37285 14.1303 16.7158
137 2 3.4077 18.5063 11.7907
138 2 1.86646 10.705 14.0778
139 2 3.91199 13.5777 9.64096
140 2 1.36806 15.6746 16.1693
141 2 2.03932 18.1948 12.1243
142 2 3.15298 11.0986 13.6874
143 2 5.18404 13.1122 9.17347
144 2 9.30056 16.0844 16.5767
145 2 2.95769 16.6174 10.474
146 2 2.3835 12.708 15.3171
147 2 4.74507 11.8731 11.1495
148 2 0.727419 17.6771 14.9199
149 5 6.02644 10.3264 13.9054
150 5 8.53387 19.0283 11.894
151 5 6.3074 15.6375 16.3995
152 5 8.27435 13.9983 9.43651
153 5 8.07029 10.0637 14.3267
154 5 6.4516 19.1819 11.4433
155 5 4.39291 15.122 15.8302
156 5 1.12189 14.4171 10.0031
157 3 3.89401 17.506 10.9653
158 3 1.52364 11.6146 15.0776
159 3 3.73731 12.7614 10.7803
160 3 1.64303 16.715 15.1228
161 3 1.90125 17.1362 11.2484
162 3 3.40637 12.1834 14.4955
163 3 5.45607 12.0001 9.94747
164 3 8.92986 17.2233 15.857
165 6 7.08193 9.81958 13.7137
166 6 7.36364 19.1969 12.2133
167 6 5.24383 15.1204 16.7029
168 6 9.27336 14.6137 9.32165
169 4 4.91416 17.647 10.6132
170 4 0.494842 11.4928 15.4709
171 4 3.17243 13.2791 11.5835
172 4 2.67561 16.9486 14.861
173 4 1.10764 16.4164 11.4101
174 4 4.06988 12.9812 14.1891
175 4 6.49245 11.7481 9.97427
176 4 7.90942 17.6365 15.999
177 7 2.91794 9.86877 9.65994
178 8 3.10188 9.40128 8.61655
179 8 2.3726 10.3623 10.5758
180 7 9.15393 11.6782 10.6408
181 8 8.44914 11.7915 11.5481
182 8 0.676729 11.7557 9.68138
183 7 7.29631 6.64535 9.98333
184 8 7.37219 6.22993 8.89469
185 8 7.12114 7.05358 11.1064
186 7 1.80552 10.6213 7.93174
187 8 1.01261 9.78337 7.63969
188 8 2.62197 11.3929 8.24048
189 7 6.42118 9.18039 7.28382
190 8 7.21838 8.85066 6.40508
191 8 5.66469 9.09907 8.29528
192 7 0.187692 7.67413 6.89692
193 8 0.836631 7.32402 6.01303
194 8 8.47842 7.83196 7.65118
195 7 0.881414 8.36133 9.47615
196 8 0.804745 7.29105 9.03517
197 8 0.715677 9.32227 9.95321
198 7 7.86033 10.3793 8.61314
199 8 8.37945 11.1565 7.93405
200 8 7.53626 9.41111 9.23424
201 7 6.17415 14.8121 12.5632
202 8 6.13488 15.6995 13.2632
203 8 6.18737 14.1447 11.5978
204 7 7.16761 13.5395 14.7063
205 8 7.94479 13.9742 13.9653
206 8 6.65754 12.8091 15.4308
207 7 6.15668 4.38732 13.3402
208 8 5.58522 4.72377 12.4027
209 8 6.80528 3.87793 14.2152
210 7 9.01832 4.19049 12.8093
211 8 9.29639 4.78743 13.7662
212 8 8.72395 3.26272 12.124
213 7 3.54647 4.52114 5.32592
214 8 2.82109 3.73384 5.93549
215 8 4.07718 5.3116 4.67439
216 7 4.33285 2.17407 2.68664
217 8 4.41029 1.60057 1.60252
218 8 4.27132 2.51504 3.82619
219 7 2.26129 13.5047 4.5365
220 8 2.05892 13.5671 5.71233
221 8 2.64447 13.5097 3.43413
222 7 3.71762 15.7218 4.69656
223 8 4.6014 14.9365 4.55494
224 8 2.79583 16.4499 4.69527
ITEM: TIMESTEP
83
ITEM: NUMBER OF ATOMS
224
ITEM: BOX BOUNDS xy xz yz pp pp pp
-1.1462080446482759e-01 9.6750165620434547e+00 0.0000000000000000e+00
-2.4929361026073238e-01 1.9636292710260765e+01 6.4659555757863640e-01
-2.1940738510119573e-01 1.7282222485101173e+01 0.0000000000000000e+00
ITEM: ATOMS id type x y z
1 1 8.83883 0.285752 3.57472
2 1 4.96128 9.21638 4.67904
3 1 7.09537 5.30834 0.235594
4 1 6.68051 4.16594 8.0441
5 2 7.82029 8.64326 3.05349
6 2 6.21684 0.836712 5.30087
7 2 8.17132 3.61542 0.898827
8 2 5.47876 5.77294 7.23658
9 2 6.53785 8.19527 3.49516
10 2 7.38038 1.26857 4.82922
11 2 0.380576 3.286 0.553532
12 2 4.27782 6.29811 7.77763
13 2 7.20306 6.67135 1.8232
14 2 6.60273 2.63705 6.68993
15 2 8.80946 1.73084 2.22558
16 2 4.75068 7.55343 5.80318
17 5 1.08741 0.564667 5.18782
18 5 3.62689 8.98495 3.14639
19 5 1.50812 5.30259 7.44475
20 5 3.15439 4.06732 0.917192
21 5 3.11732 0.0902096 5.65264
22 5 1.58075 9.42103 2.68705
23 5 8.6607 4.834 7.03615
24 5 5.16127 4.49281 1.2902
25 3 8.14334 7.65656 2.1017
26 3 5.72179 1.7192 6.34643
27 3 7.90494 2.67614 1.93682
28 3 5.75847 6.69797 6.23092
29 3 6.27133 7.04171 2.82217
30 3 7.64501 2.33431 5.71085
31 3 0.676839 2.20358 1.35633
32 3 3.91755 7.19222 6.87011
33 6 2.15819 0.134943 4.80206
34 6 2.51185 9.33592 3.48106
35 6 0.447201 4.88077 7.88548
36 6 4.24776 4.40971 0.509355
37 4 0.0425387 7.40584 1.89501
38 4 4.74851 1.68901 6.84719
39 4 6.92372 2.40071 2.29528
40 4 6.72452 6.50445 5.67812
41 4 5.23194 6.72599 2.70268
42 4 8.64014 2.67835 6.01666
43 4 1.63056 1.69638 1.20109
44 4 2.92113 7.55969 6.88741
45 1 4.57319 0.300107 12.388
46 1 0.808842 9.15262 13.3781
47 1 2.96125 5.15857 9.01044
48 1 2.42239 4.16693 16.7569
49 2 3.58589 8.14174 12.2212
50 2 1.71476 0.87074 13.8783
51 2 4.09505 3.69989 9.75408
52 2 1.40166 5.91424 16.1856
53 2 2.16804 8.15404 12.1175
54 2 3.05384 1.0435 13.7926
55 2 5.27611 3.29653 9.29512
56 2 9.27845 6.30897 16.5835
57 2 3.17952 6.5289 10.8254
58 2 2.37473 2.71216 15.3588
59 2 4.50572 1.63548 10.8196
60 2 0.703352 7.62098 14.6966
61 5 5.80954 0.378659 13.8781
62 5 8.45567 9.20231 12.2346
63 5 6.28893 5.60428 16.3762
64 5 8.25186 3.76987 9.53513
65 5 7.8509 0.115437 14.3548
66 5 6.36296 9.56461 11.5909
67 5 4.28299 4.97123 15.8356
68 5 1.04226 4.50512 10.0465
69 3 4.13232 6.97412 11.6448
70 3 1.44045 1.8047 14.9505
71 3 3.59681 2.63616 10.6054
72 3 1.79297 6.88649 15.2026
73 3 1.99808 6.88442 11.5595
74 3 3.30849 2.26472 14.4607
75 3 5.53382 2.09085 10.0772
76 3 8.92295 7.28014 15.6791
77 6 6.97909 0.0776726 13.5392
78 6 7.24734 9.23776 12.4067
79 6 5.14428 5.13521 16.7494
80 6 9.31209 4.30881 9.23297
81 4 5.08438 7.33172 11.1662
82 4 9.54767 1.89203 15.2888
83 4 2.80507 2.83362 11.3448
84 4 2.54225 6.45341 14.5191
85 4 0.958141 6.63577 11.2649
86 4 4.33397 2.47012 14.7735
87 4 6.43115 1.53448 9.80892
88 4 7.9538 7.76967 15.6204
89 1 8.74614 10.2258 3.65109
90 1 5.05024 19.0948 4.63777
91 1 7.1493 15.1708 0.346958
92 1 6.68209 14.0999 8.03757
93 2 7.79342 18.5804 3.056
94 2 5.92452 11.3758 4.83327
95 2 8.15466 13.4823 0.855475
96 2 5.52094 15.7471 7.36342
97 2 6.45789 18.2719 3.28182
98 2 7.28615 11.4281 4.76195
99 2 0.336422 13.0967 0.539364
100 2 4.34073 16.3211 7.81674
101 2 7.20524 16.6915 1.68498
102 2 6.668 12.8437 6.45025
103 2 8.63495 11.6461 2.31975
104 2 5.08743 17.7233 6.08867
105 5 1.15834 10.5405 5.02482
106 5 3.59934 19.1073 3.08573
107 5 1.4068 15.4676 7.58146
108 5 3.23717 14.0069 0.785294
109 5 3.05366 10.0369 5.76148
110 5 1.53038 19.2892 2.61488
111 5 8.54775 14.9627 7.07034
112 5 5.22834 14.4204 1.32474
113 3 8.1494 17.6537 2.01507
114 3 5.68935 11.8948 6.19233
115 3 7.77459 12.6789 1.92631
116 3 6.00866 16.7655 6.43975
117 3 6.281 17.073 2.60228
118 3 7.68655 12.4661 5.56598
119 3 0.494502 12.0313 1.4138
120 3 4.00412 17.3532 6.94788
121 6 2.28354 10.0991 4.81947
122 6 2.40742 19.4819 3.41644
123 6 0.306903 15.141 7.82955
124 6 4.35513 14.4442 0.503358
125 4 0.0710588 17.3805 2.00412
126 4 4.74341 12.362 6.45326
127 4 6.68939 12.6968 2.09692
128 4 6.87755 16.7231 5.78594
129 4 5.24948 16.7499 2.66036
130 4 8.6435 12.9753 5.43652
131 4 1.2945 11.3155 1.22856
132 4 3.29577 18.1349 7.25669
133 1 4.45162 10.1932 12.3475
134 1 0.757661 19.0436 13.4947
135 1 2.83872 15.0896 9.10155
136 1 2.37217 14.1321 16.7186
137 2 3.40652 18.508 11.7912
138 2 1.86701 10.7046 14.0813
139 2 3.91315 13.5812 9.64146
140 2 1.36561 15.6766 16.1723
141 2 2.04034 18.1968 12.1235
142 2 3.15175 11.098 13.6895
143 2 5.18391 13.1129 9.17212
144 2 9.30204 16.086 16.5798
145 2 2.95637 16.6196 10.4769
146 2 2.38327 12.7101 15.3196
147 2 4.7464 11.8739 11.1521
148 2 0.726072 17.6817 14.9227
149 5 6.02658 10.3262 13.9085
150 5 8.53388 19.0338 11.8949
151 5 6.30759 15.6425 16.4043
152 5 8.27756 14.0005 9.437
153 5 8.07233 10.0645 14.3278
154 5 6.45353 19.1837 11.445
155 5 4.39259 15.125 15.8335
156 5 1.12023 14.4212 10.0021
157 3 3.89004 17.5098 10.9692
158 3 1.52302 11.6138 15.0798
159 3 3.7389 12.7646 10.7843
160 3 1.64184 16.7171 15.1252
161 3 1.90165 17.139 11.2481
162 3 3.40609 12.1852 14.498
163 3 5.45607 11.9994 9.9463
164 3 8.93041 17.2257 15.8614
165 6 7.08271 9.81688 13.7169
166 6 7.36421 19.2005 12.2164
167 6 5.24409 15.1254 16.7077
168 6 9.27697 14.6198 9.32149
169 4 4.91276 17.6505 10.6197
170 4 0.495052 11.4911 15.467
171 4 3.1793 13.2836 11.5809
172 4 2.67715 16.9566 14.8625
173 4 1.10539 16.4201 11.4102
174 4 4.06503 12.9762 14.187
175 4 6.49965 11.7497 9.97425
176 4 7.9181 17.6376 16.0054
177 7 2.91384 9.87256 9.65612
178 8 3.10095 9.40921 8.61359
179 8 2.37217 10.3609 10.5751
180 7 9.15405 11.6795 10.6416
181 8 8.4519 11.7986 11.5493
182 8 0.675345 11.7521 9.68148
183 7 7.29733 6.64474 9.98387
184 8 7.37273 6.22931 8.89246
185 8 7.12144 7.04912 11.1101
186 7 1.80503 10.6234 7.93092
187 8 1.01251 9.78328 7.64143
188 8 2.6219 11.3963 8.23566
189 7 6.42392 9.17879 7.28401
190 8 7.21968 8.84956 6.40734
191 8 5.66432 9.10526 8.29555
192 7 0.186972 7.6718 6.8938
193 8 0.83401 7.32397 6.00948
194 8 8.48186 7.82931 7.64734
195 7 0.878332 8.3625 9.47526
196 8 0.801926 7.29099 9.03536
197 8 0.714453 9.32204 9.95417
198 7 7.86448 10.379 8.61489
199 8 8.38207 11.1592 7.9361
200 8 7.53768 9.40969 9.23543
201 7 6.17436 14.8182 12.5632
202 8 6.13593 15.7044 13.2637
203 8 6.1879 14.1473 11.6006
204 7 7.17273 13.5371 14.7079
205 8 7.94644 13.9754 13.9678
206 8 6.66175 12.8074 15.4292
207 7 6.15632 4.38479 13.3414
208 8 5.58582 4.72218 12.4064
209 8 6.80546 3.87522 14.2168
210 7 9.02074 4.18741 12.8131
211 8 9.29914 4.78699 13.7662
212 8 8.72456 3.26052 12.1275
213 7 3.54262 4.51902 5.32431
214 8 2.81863 3.7309 5.93543
215 8 4.07349 5.30594 4.66977
216 7 4.33385 2.1694 2.68482
217 8 4.41228 1.59681 1.60009
218 8 4.27165 2.5118 3.82366
219 7 2.26155 13.5039 4.53504
220 8 2.05906 13.5663 5.71093
221 8 2.64364 13.5088 3.43276
222 7 3.71618 15.7236 4.69225
223 8 4.59652 14.9356 4.54936
224 8 2.79704 16.4527 4.69316
ITEM: TIMESTEP
84
ITEM: NUMBER OF ATOMS
224
ITEM: BOX BOUNDS xy xz yz pp pp pp
-1.1628627738094099e-01 9.6769175993179779e+00 0.0000000000000000e+00
-2.5291591738017694e-01 1.9639915017380211e+01 6.4683112193704817e-01
-2.2259543686184635e-01 1.7285410536861825e+01 0.0000000000000000e+00
ITEM: ATOMS id type x y z
1 1 8.8413 0.282209 3.57243
2 1 4.96048 9.21732 4.67733
3 1 7.0956 5.30693 0.231963
4 1 6.68192 4.16389 8.04447
5 2 7.82126 8.64239 3.05267
6 2 6.21791 0.831974 5.29976
7 2 8.17322 3.61384 0.895897
8 2 5.47486 5.77071 7.23393
9 2 6.53912 8.19566 3.49372
10 2 7.3803 1.26487 4.82914
11 2 0.378944 3.2841 0.55151
12 2 4.27671 6.29779 7.77425
13 2 7.20504 6.66849 1.82205
14 2 6.60379 2.63475 6.68968
15 2 8.81108 1.72766 2.22266
16 2 4.74987 7.55062 5.8021
17 5 1.08693 0.561676 5.18699
18 5 3.62559 8.98534 3.14384
19 5 1.50898 5.29701 7.44414
20 5 3.15428 4.06709 0.915019
21 5 3.11483 0.0869363 5.64977
22 5 1.58207 9.4211 2.68633
23 5 8.66367 4.82932 7.03536
24 5 5.15976 4.49213 1.28672
25 3 8.1445 7.65496 2.09966
26 3 5.72565 1.71573 6.34426
27 3 7.90899 2.67229 1.93423
28 3 5.75276 6.69568 6.22804
29 3 6.27377 7.04021 2.8208
30 3 7.64566 2.33376 5.71215
31 3 0.675045 2.20099 1.35447
32 3 3.91741 7.18938 6.86613
33 6 2.15946 0.131187 4.79978
34 6 2.51024 9.33692 3.48105
35 6 0.444042 4.8741 7.88464
36 6 4.24845 4.40878 0.507474
37 4 0.0363248 7.40813 1.89913
38 4 4.75356 1.68261 6.84402
39 4 6.92475 2.39514 2.29018
40 4 6.7142 6.493 5.66177
41 4 5.23218 6.72495 2.70537
42 4 8.64299 2.67483 6.01261
43 4 1.63063 1.69048 1.19783
44 4 2.9227 7.54678 6.89029
45 1 4.57375 0.296335 12.3896
46 1 0.807367 9.1526 13.3792
47 1 2.96116 5.1557 9.01021
48 1 2.42204 4.16517 16.7602
49 2 3.58498 8.13338 12.2275
50 2 1.715 0.869091 13.8818
51 2 4.09673 3.69695 9.75535
52 2 1.39932 5.91445 16.1881
53 2 2.17054 8.15079 12.1214
54 2 3.05194 1.04092 13.7957
55 2 5.27558 3.29321 9.29707
56 2 9.28077 6.30813 16.5856
57 2 3.18342 6.52288 10.8336
58 2 2.3733 2.70799 15.3589
59 2 4.50591 1.63155 10.8193
60 2 0.701531 7.6212 14.6985
61 5 5.81 0.373363 13.8798
62 5 8.45443 9.20455 12.2376
63 5 6.28706 5.60426 16.3798
64 5 8.25604 3.76492 9.53524
65 5 7.85045 0.112658 14.3568
66 5 6.36481 9.56691 11.5964
67 5 4.2841 4.96913 15.8393
68 5 1.04106 4.50435 10.0467
69 3 4.12926 6.96951 11.6524
70 3 1.43928 1.80152 14.9514
71 3 3.59919 2.63385 10.605
72 3 1.79077 6.88549 15.2057
73 3 2.00037 6.8811 11.5639
74 3 3.3068 2.25988 14.4636
75 3 5.53372 2.08933 10.0766
76 3 8.92696 7.27951 15.6805
77 6 6.97898 0.0730403 13.5386
78 6 7.24694 9.23793 12.4118
79 6 5.14197 5.13316 16.7546
80 6 9.31705 4.30545 9.23314
81 4 5.09197 7.32113 11.1824
82 4 9.54867 1.89504 15.2862
83 4 2.81128 2.82708 11.3416
84 4 2.53981 6.45194 14.5249
85 4 0.96224 6.63244 11.26
86 4 4.33805 2.46559 14.7816
87 4 6.42273 1.52461 9.81099
88 4 7.94871 7.76963 15.6235
89 1 8.74759 10.2259 3.64958
90 1 5.05047 19.0985 4.63574
91 1 7.15011 15.1723 0.344208
92 1 6.68331 14.1015 8.03772
93 2 7.79337 18.583 3.05301
94 2 5.92691 11.3791 4.82904
95 2 8.15644 13.4828 0.853969
96 2 5.51997 15.7495 7.36349
97 2 6.46028 18.2743 3.27792
98 2 7.28424 11.4317 4.75905
99 2 0.333082 13.0972 0.537345
100 2 4.34005 16.3227 7.81725
101 2 7.20714 16.6928 1.68312
102 2 6.66914 12.8489 6.44774
103 2 8.63558 11.6451 2.31741
104 2 5.08855 17.7289 6.08785
105 5 1.1584 10.5426 5.02214
106 5 3.59691 19.1138 3.08264
107 5 1.40513 15.471 7.58053
108 5 3.23735 14.0095 0.782651
109 5 3.05237 10.0366 5.75918
110 5 1.53005 19.2928 2.6135
111 5 8.55051 14.9642 7.07096
112 5 5.22858 14.4233 1.32249
113 3 8.15061 17.6576 2.01349
114 3 5.6904 11.9018 6.18659
115 3 7.77515 12.6808 1.923
116 3 6.00789 16.7711 6.43949
117 3 6.28269 17.0788 2.60065
118 3 7.68605 12.4707 5.56315
119 3 0.492412 12.031 1.4117
120 3 4.006 17.3586 6.94809
121 6 2.28381 10.0989 4.8161
122 6 2.40763 19.487 3.41543
123 6 0.303727 15.1437 7.83208
124 6 4.35502 14.4469 0.499755
125 4 0.0663216 17.3824 2.00571
126 4 4.74012 12.3682 6.45193
127 4 6.69427 12.6976 2.0882
128 4 6.88223 16.7241 5.78062
129 4 5.25253 16.7545 2.6525
130 4 8.63163 12.9713 5.43284
131 4 1.28785 11.3199 1.2238
132 4 3.30192 18.1362 7.26153
133 1 4.45136 10.1927 12.3492
134 1 0.755437 19.0468 13.4967
135 1 2.83726 15.0903 9.10193
136 1 2.37151 14.1339 16.7214
137 2 3.40529 18.5096 11.7917
138 2 1.86759 10.7043 14.0849
139 2 3.91441 13.5846 9.64199
140 2 1.36322 15.6787 16.1752
141 2 2.04148 18.1987 12.1227
142 2 3.15047 11.0975 13.6915
143 2 5.18372 13.1136 9.17081
144 2 9.30341 16.0876 16.5828
145 2 2.95504 16.6218 10.4798
146 2 2.38305 12.712 15.322
147 2 4.74768 11.8746 11.1545
148 2 0.724694 17.6862 14.9256
149 5 6.02668 10.326 13.9115
150 5 8.53388 19.0393 11.8958
151 5 6.30778 15.6475 16.4092
152 5 8.28072 14.0026 9.43753
153 5 8.07441 10.0653 14.329
154 5 6.45543 19.1856 11.4467
155 5 4.39223 15.1278 15.8369
156 5 1.11859 14.4253 10.0012
157 3 3.88607 17.5135 10.973
158 3 1.5224 11.613 15.0819
159 3 3.74048 12.7679 10.7882
160 3 1.64069 16.719 15.1277
161 3 1.90203 17.1417 11.2478
162 3 3.40577 12.1872 14.5006
163 3 5.45609 11.9988 9.94519
164 3 8.93098 17.2281 15.8659
165 6 7.08345 9.81418 13.7202
166 6 7.36476 19.2041 12.2196
167 6 5.24435 15.1303 16.7122
168 6 9.28059 14.626 9.32126
169 4 4.91124 17.6537 10.626
170 4 0.49551 11.4898 15.4632
171 4 3.18617 13.2879 11.5782
172 4 2.67865 16.9644 14.8639
173 4 1.103 16.4239 11.4104
174 4 4.06045 12.9711 14.1846
175 4 6.50686 11.7511 9.97422
176 4 7.92699 17.6388 16.0118
177 7 2.9097 9.87635 9.6524
178 8 3.10012 9.41701 8.61067
179 8 2.37186 10.3596 10.5744
180 7 9.15419 11.6809 10.6424
181 8 8.45464 11.8057 11.5506
182 8 0.673955 11.7484 9.68162
183 7 7.29832 6.64418 9.98447
184 8 7.37326 6.22873 8.89032
185 8 7.1218 7.04459 11.1136
186 7 1.80447 10.6255 7.93003
187 8 1.01247 9.78324 7.64315
188 8 2.62178 11.3997 8.23078
189 7 6.42661 9.17706 7.28424
190 8 7.22085 8.84859 6.40965
191 8 5.66399 9.11146 8.29564
192 7 0.186218 7.66946 6.89066
193 8 0.83143 7.32394 6.00589
194 8 8.48529 7.82666 7.64349
195 7 0.875232 8.3634 9.47426
196 8 0.799191 7.29092 9.03561
197 8 0.713175 9.32196 9.95523
198 7 7.86868 10.3787 8.61669
199 8 8.38461 11.1618 7.93815
200 8 7.53913 9.40837 9.23661
201 7 6.17456 14.8243 12.563
202 8 6.13696 15.7094 13.2643
203 8 6.18845 14.1498 11.6034
204 7 7.17791 13.5347 14.7094
205 8 7.9481 13.9767 13.9703
206 8 6.66591 12.8057 15.4275
207 7 6.15605 4.38218 13.3427
208 8 5.58641 4.72062 12.4101
209 8 6.80558 3.87257 14.2184
210 7 9.02313 4.18422 12.8169
211 8 9.30188 4.78659 13.7662
212 8 8.72518 3.25839 12.1311
213 7 3.53863 4.5168 5.32279
214 8 2.81628 3.72803 5.93532
215 8 4.0698 5.30027 4.66513
216 7 4.33486 2.16466 2.68296
217 8 4.41426 1.59314 1.59779
218 8 4.27199 2.50857 3.82106
219 7 2.26184 13.5031 4.53367
220 8 2.0592 13.5654 5.70945
221 8 2.64279 13.5079 3.43141
222 7 3.71476 15.7253 4.68791
223 8 4.59161 14.9347 4.54381
224 8 2.79827 16.4555 4.69106
ITEM: TIMESTEP
85
ITEM: NUMBER OF ATOMS
224
ITEM: BOX BOUNDS xy xz yz pp pp pp
-1.1794226611563374e-01 9.6788078109692091e+00 0.0000000000000000e+00
-2.5651759695440646e-01 1.9643516696954443e+01 6.4706534485358502e-01
-2.2576533398246568e-01 1.7288580433982442e+01 0.0000000000000000e+00
ITEM: ATOMS id type x y z
1 1 8.84374 0.278691 3.57016
2 1 4.95968 9.21827 4.67561
3 1 7.09584 5.30553 0.228356
4 1 6.68332 4.16185 8.04485
5 2 7.82216 8.64143 3.05187
6 2 6.21886 0.82726 5.29872
7 2 8.17518 3.61222 0.893011
8 2 5.47089 5.76855 7.23127
9 2 6.54042 8.19609 3.49225
10 2 7.3803 1.26125 4.82913
11 2 0.377258 3.2822 0.549538
12 2 4.27565 6.29736 7.77084
13 2 7.20699 6.66568 1.82099
14 2 6.60494 2.63249 6.68937
15 2 8.81276 1.7245 2.21969
16 2 4.7491 7.54781 5.80112
17 5 1.08644 0.558688 5.18614
18 5 3.62429 8.98574 3.14132
19 5 1.50984 5.29143 7.44361
20 5 3.15415 4.06689 0.912826
21 5 3.1123 0.0836758 5.64685
22 5 1.58337 9.42116 2.68563
23 5 8.66663 4.82464 7.03463
24 5 5.15829 4.49147 1.28326
25 3 8.14565 7.65336 2.09764
26 3 5.72953 1.71221 6.34203
27 3 7.91299 2.66848 1.93164
28 3 5.74712 6.69333 6.22517
29 3 6.27622 7.03871 2.81935
30 3 7.64621 2.33322 5.71352
31 3 0.673238 2.1984 1.35264
32 3 3.91725 7.18662 6.86209
33 6 2.16081 0.127477 4.79769
34 6 2.50861 9.33792 3.48102
35 6 0.440827 4.86746 7.88359
36 6 4.24916 4.40784 0.505705
37 4 0.0301694 7.41056 1.90324
38 4 4.75863 1.67603 6.84073
39 4 6.92559 2.38991 2.28492
40 4 6.70331 6.48174 5.6455
41 4 5.23251 6.72386 2.70819
42 4 8.64588 2.67114 6.00818
43 4 1.63058 1.68453 1.19469
44 4 2.92415 7.53407 6.89324
45 1 4.5743 0.292575 12.3912
46 1 0.805893 9.15257 13.3803
47 1 2.96108 5.15286 9.00998
48 1 2.4217 4.16342 16.7636
49 2 3.58401 8.12505 12.2339
50 2 1.71523 0.867502 13.8854
51 2 4.0983 3.69397 9.75665
52 2 1.39699 5.91471 16.1905
53 2 2.17311 8.14741 12.1253
54 2 3.05009 1.03844 13.7987
55 2 5.27511 3.28978 9.29906
56 2 9.28304 6.30728 16.5876
57 2 3.1872 6.51681 10.8419
58 2 2.37187 2.70382 15.359
59 2 4.5061 1.62763 10.819
60 2 0.699768 7.62142 14.7005
61 5 5.8105 0.368068 13.8814
62 5 8.45318 9.20679 12.2404
63 5 6.2851 5.60422 16.3835
64 5 8.26021 3.75999 9.53531
65 5 7.85004 0.109898 14.3587
66 5 6.36668 9.5692 11.6018
67 5 4.28522 4.96705 15.8431
68 5 1.0399 4.50358 10.047
69 3 4.12626 6.96508 11.6599
70 3 1.43807 1.79828 14.9523
71 3 3.60162 2.63163 10.6044
72 3 1.78853 6.88442 15.2088
73 3 2.0027 6.87786 11.5683
74 3 3.30515 2.25502 14.4665
75 3 5.53363 2.08795 10.0759
76 3 8.93098 7.27893 15.6819
77 6 6.97883 0.0684352 13.538
78 6 7.24653 9.23813 12.4169
79 6 5.1397 5.13119 16.7596
80 6 9.322 4.30207 9.23339
81 4 5.09849 7.31013 11.1988
82 4 9.54974 1.89817 15.2837
83 4 2.81749 2.82049 11.3383
84 4 2.53731 6.45081 14.5308
85 4 0.966696 6.62909 11.2551
86 4 4.34206 2.46101 14.7895
87 4 6.41424 1.51454 9.81316
88 4 7.94363 7.7694 15.6268
89 1 8.74904 10.226 3.64808
90 1 5.0507 19.1022 4.63373
91 1 7.15091 15.1737 0.341471
92 1 6.68453 14.1031 8.03787
93 2 7.7933 18.5854 3.04995
94 2 5.92926 11.3823 4.825
95 2 8.15825 13.4833 0.852513
96 2 5.51906 15.7519 7.36349
97 2 6.46269 18.2767 3.27404
98 2 7.28238 11.4353 4.75618
99 2 0.329681 13.0976 0.535377
100 2 4.33934 16.3242 7.81777
101 2 7.20907 16.6941 1.68132
102 2 6.67028 12.8541 6.44522
103 2 8.6362 11.6441 2.31499
104 2 5.08961 17.7344 6.08711
105 5 1.15847 10.5448 5.01947
106 5 3.5944 19.1203 3.07959
107 5 1.40351 15.4743 7.57958
108 5 3.23754 14.0122 0.780003
109 5 3.05113 10.0363 5.75684
110 5 1.52967 19.2965 2.61215
111 5 8.55322 14.9658 7.07156
112 5 5.22886 14.4263 1.32027
113 3 8.15182 17.6615 2.01197
114 3 5.69149 11.909 6.1807
115 3 7.7757 12.6827 1.91969
116 3 6.00706 16.7767 6.43925
117 3 6.28431 17.0846 2.59905
118 3 7.68547 12.4752 5.56033
119 3 0.490348 12.0307 1.40964
120 3 4.00797 17.364 6.94829
121 6 2.28402 10.0987 4.81278
122 6 2.40801 19.4921 3.41434
123 6 0.300553 15.1464 7.83472
124 6 4.35485 14.4495 0.496239
125 4 0.061463 17.3842 2.00713
126 4 4.73663 12.374 6.45046
127 4 6.69928 12.6982 2.07975
128 4 6.88694 16.7249 5.77555
129 4 5.25559 16.7589 2.64434
130 4 8.61981 12.9674 5.42922
131 4 1.28129 11.3245 1.21901
132 4 3.30807 18.1373 7.2664
133 1 4.45111 10.1922 12.351
134 1 0.753211 19.05 13.4987
135 1 2.8358 15.0911 9.1023
136 1 2.37085 14.1357 16.7242
137 2 3.404 18.5113 11.7923
138 2 1.86822 10.704 14.0884
139 2 3.91577 13.5879 9.64258
140 2 1.36089 15.681 16.1779
141 2 2.04276 18.2006 12.1218
142 2 3.14915 11.0969 13.6936
143 2 5.18348 13.1143 9.16956
144 2 9.30469 16.0892 16.5858
145 2 2.95371 16.624 10.4829
146 2 2.38283 12.7139 15.3244
147 2 4.7489 11.8754 11.1568
148 2 0.723284 17.6907 14.9286
149 5 6.02673 10.3259 13.9145
150 5 8.53387 19.0448 11.8967
151 5 6.30798 15.6525 16.414
152 5 8.28382 14.0047 9.43809
153 5 8.07652 10.0661 14.3302
154 5 6.45729 19.1874 11.4484
155 5 4.39184 15.1307 15.8402
156 5 1.11697 14.4294 10.0002
157 3 3.88209 17.5173 10.9768
158 3 1.52176 11.6122 15.0839
159 3 3.74204 12.7711 10.7921
160 3 1.63957 16.7208 15.1303
161 3 1.9024 17.1443 11.2474
162 3 3.40543 12.1892 14.5031
163 3 5.45614 11.9981 9.94412
164 3 8.93158 17.2304 15.8703
165 6 7.08414 9.81148 13.7234
166 6 7.3653 19.2077 12.2227
167 6 5.24462 15.1353 16.7167
168 6 9.2842 14.6322 9.32094
169 4 4.90957 17.6564 10.6321
170 4 0.496186 11.4888 15.4595
171 4 3.19301 13.292 11.5756
172 4 2.68005 16.972 14.8654
173 4 1.10046 16.4279 11.4106
174 4 4.05621 12.9659 14.1819
175 4 6.51402 11.7524 9.97416
176 4 7.93601 17.6402 16.018
177 7 2.90551 9.88015 9.64877
178 8 3.0994 9.42468 8.6078
179 8 2.37167 10.3583 10.5736
180 7 9.15434 11.6823 10.643
181 8 8.45736 11.8127 11.5518
182 8 0.672557 11.7448 9.68181
183 7 7.29928 6.64365 9.98512
184 8 7.37377 6.2282 8.88827
185 8 7.12222 7.03998 11.1171
186 7 1.80385 10.6276 7.92909
187 8 1.0125 9.78327 7.64485
188 8 2.62163 11.4032 8.22584
189 7 6.42926 9.17522 7.28453
190 8 7.22188 8.84773 6.41202
191 8 5.66369 9.11768 8.29555
192 7 0.18543 7.6671 6.88751
193 8 0.828892 7.32392 6.00224
194 8 8.4887 7.824 7.63965
195 7 0.872113 8.36402 9.47314
196 8 0.796541 7.29085 9.03592
197 8 0.711841 9.32203 9.9564
198 7 7.87292 10.3782 8.61854
199 8 8.38709 11.1645 7.9402
200 8 7.54062 9.40715 9.23779
201 7 6.17476 14.8304 12.5627
202 8 6.13798 15.7144 13.2649
203 8 6.18901 14.1524 11.6063
204 7 7.18315 13.5322 14.7108
205 8 7.94976 13.978 13.9728
206 8 6.67002 12.8039 15.4259
207 7 6.15586 4.37949 13.3442
208 8 5.58698 4.71909 12.4138
209 8 6.80564 3.86997 14.2199
210 7 9.0255 4.18092 12.8208
211 8 9.30462 4.78623 13.7662
212 8 8.72581 3.25632 12.1347
213 7 3.5345 4.51447 5.32135
214 8 2.81403 3.72525 5.93513
215 8 4.06612 5.29458 4.66048
216 7 4.33588 2.15984 2.68106
217 8 4.41624 1.58955 1.59561
218 8 4.27233 2.50535 3.81839
219 7 2.26216 13.5023 4.53237
220 8 2.05935 13.5646 5.70791
221 8 2.64192 13.507 3.4301
222 7 3.71337 15.727 4.68354
223 8 4.58667 14.9339 4.53828
224 8 2.79952 16.4583 4.68896
ITEM: TIMESTEP
86
ITEM: NUMBER OF ATOMS
224
ITEM: BOX BOUNDS xy xz yz pp pp pp
-1.1958894359401206e-01 9.6806873943807634e+00 0.0000000000000000e+00
-2.6009902508550908e-01 1.9647098125085545e+01 6.4729825078676029e-01
-2.2891740747665423e-01 1.7291732507476631e+01 0.0000000000000000e+00
ITEM: ATOMS id type x y z
1 1 8.84618 0.275196 3.56789
2 1 4.95888 9.21923 4.6739
3 1 7.09607 5.30414 0.224776
4 1 6.68472 4.15982 8.04523
5 2 7.823 8.64039 3.05108
6 2 6.21968 0.82257 5.29776
7 2 8.17719 3.61055 0.890168
8 2 5.46686 5.76645 7.2286
9 2 6.54173 8.19654 3.49076
10 2 7.38038 1.25769 4.82918
11 2 0.375519 3.28032 0.547617
12 2 4.27465 6.29682 7.76742
13 2 7.20893 6.66292 1.82
14 2 6.6062 2.63026 6.689
15 2 8.8145 1.72137 2.21668
16 2 4.74836 7.545 5.80023
17 5 1.08595 0.555704 5.18525
18 5 3.623 8.98613 3.13882
19 5 1.51071 5.28583 7.44315
20 5 3.154 4.06669 0.910611
21 5 3.10975 0.0804272 5.64385
22 5 1.58468 9.42123 2.68494
23 5 8.6696 4.81996 7.03394
24 5 5.15686 4.49082 1.27982
25 3 8.14678 7.65179 2.09564
26 3 5.73342 1.70864 6.33971
27 3 7.91693 2.66472 1.92904
28 3 5.74155 6.69093 6.22229
29 3 6.27865 7.03721 2.81781
30 3 7.64668 2.3327 5.71496
31 3 0.671421 2.19582 1.35084
32 3 3.91707 7.18395 6.85801
33 6 2.16223 0.123815 4.79579
34 6 2.50698 9.33893 3.48098
35 6 0.437567 4.86084 7.88233
36 6 4.24989 4.40688 0.504047
37 4 0.0241333 7.41309 1.90731
38 4 4.76371 1.66928 6.83733
39 4 6.92628 2.38501 2.27949
40 4 6.69183 6.47067 5.62933
41 4 5.23294 6.72272 2.71114
42 4 8.64879 2.66729 6.00338
43 4 1.63038 1.67855 1.19166
44 4 2.92542 7.5216 6.89623
45 1 4.57484 0.288828 12.3928
46 1 0.804422 9.15255 13.3814
47 1 2.961 5.15004 9.00976
48 1 2.42136 4.16169 16.7669
49 2 3.583 8.11675 12.2402
50 2 1.71545 0.86597 13.8891
51 2 4.09976 3.69095 9.758
52 2 1.39466 5.91502 16.1928
53 2 2.17575 8.1439 12.1293
54 2 3.04829 1.03606 13.8018
55 2 5.2747 3.28625 9.30109
56 2 9.28527 6.30643 16.5895
57 2 3.19086 6.51071 10.8501
58 2 2.37045 2.69963 15.359
59 2 4.50629 1.62373 10.8188
60 2 0.698068 7.62163 14.7025
61 5 5.81105 0.362772 13.883
62 5 8.45192 9.20903 12.2432
63 5 6.28306 5.60414 16.3872
64 5 8.26437 3.75509 9.53535
65 5 7.84969 0.107158 14.3607
66 5 6.36856 9.57147 11.6073
67 5 4.28636 4.96498 15.8468
68 5 1.03878 4.50282 10.0473
69 3 4.12331 6.96085 11.6674
70 3 1.43681 1.79499 14.9531
71 3 3.6041 2.6295 10.6039
72 3 1.78624 6.88327 15.2118
73 3 2.00506 6.87469 11.5726
74 3 3.30356 2.25015 14.4694
75 3 5.53355 2.0867 10.0751
76 3 8.93498 7.27841 15.6833
77 6 6.97864 0.0638589 13.5374
78 6 7.24613 9.23838 12.422
79 6 5.13748 5.1293 16.7644
80 6 9.32695 4.29867 9.23372
81 4 5.10386 7.29872 11.2155
82 4 9.55088 1.90139 15.2811
83 4 2.82364 2.81388 11.3349
84 4 2.53477 6.45 14.5366
85 4 0.971512 6.6257 11.2502
86 4 4.34591 2.45638 14.7972
87 4 6.40571 1.50429 9.81539
88 4 7.93865 7.76895 15.6303
89 1 8.75047 10.2262 3.64659
90 1 5.05093 19.106 4.63172
91 1 7.15171 15.1751 0.338749
92 1 6.68575 14.1047 8.03802
93 2 7.79323 18.5878 3.04684
94 2 5.93158 11.3854 4.82115
95 2 8.16012 13.4837 0.851105
96 2 5.5182 15.7545 7.36342
97 2 6.46513 18.279 3.27018
98 2 7.28057 11.4388 4.75332
99 2 0.326223 13.0981 0.533459
100 2 4.33861 16.3257 7.81827
101 2 7.21103 16.6954 1.67957
102 2 6.67143 12.8592 6.44268
103 2 8.63681 11.6431 2.3125
104 2 5.09062 17.7399 6.08643
105 5 1.15856 10.5469 5.01681
106 5 3.59182 19.1268 3.07659
107 5 1.40194 15.4777 7.57861
108 5 3.23774 14.0148 0.777349
109 5 3.04993 10.036 5.75445
110 5 1.52926 19.3001 2.61082
111 5 8.5559 14.9672 7.07213
112 5 5.22917 14.4292 1.31805
113 3 8.15301 17.6654 2.01051
114 3 5.69261 11.9162 6.17466
115 3 7.77623 12.6846 1.91638
116 3 6.0062 16.7822 6.43904
117 3 6.28587 17.0905 2.59747
118 3 7.68481 12.4798 5.55755
119 3 0.488303 12.0304 1.40761
120 3 4.01004 17.3694 6.94849
121 6 2.28418 10.0985 4.80952
122 6 2.40855 19.497 3.41315
123 6 0.297386 15.149 7.83746
124 6 4.35462 14.4521 0.492811
125 4 0.0565094 17.386 2.00839
126 4 4.733 12.3793 6.44882
127 4 6.70435 12.6984 2.07156
128 4 6.89161 16.7253 5.77077
129 4 5.25864 16.7629 2.63589
130 4 8.60818 12.9638 5.42562
131 4 1.27487 11.329 1.21418
132 4 3.31421 18.1383 7.27129
133 1 4.45088 10.1916 12.3527
134 1 0.750982 19.0532 13.5008
135 1 2.83435 15.0918 9.10267
136 1 2.37021 14.1375 16.7269
137 2 3.40267 18.5129 11.7929
138 2 1.86889 10.7037 14.0919
139 2 3.91723 13.5912 9.64322
140 2 1.35863 15.6833 16.1805
141 2 2.04416 18.2024 12.1209
142 2 3.14779 11.0963 13.6957
143 2 5.18318 13.1149 9.16836
144 2 9.30587 16.0908 16.5887
145 2 2.95237 16.6262 10.4859
146 2 2.38261 12.7156 15.3266
147 2 4.75006 11.8761 11.159
148 2 0.721841 17.6952 14.9315
149 5 6.02674 10.3258 13.9176
150 5 8.53385 19.0502 11.8976
151 5 6.30819 15.6575 16.4188
152 5 8.28687 14.0067 9.43869
153 5 8.07866 10.0669 14.3315
154 5 6.45911 19.1892 11.4501
155 5 4.39141 15.1335 15.8436
156 5 1.11537 14.4335 9.99921
157 3 3.87812 17.5211 10.9806
158 3 1.52113 11.6115 15.086
159 3 3.7436 12.7745 10.7959
160 3 1.63849 16.7225 15.1329
161 3 1.90274 17.1468 11.247
162 3 3.40505 12.1912 14.5057
163 3 5.45622 11.9975 9.94312
164 3 8.93221 17.2328 15.8747
165 6 7.08479 9.80878 13.7266
166 6 7.36583 19.2113 12.2259
167 6 5.24489 15.1404 16.721
168 6 9.2878 14.6384 9.32055
169 4 4.90775 17.6588 10.638
170 4 0.497046 11.4882 15.4559
171 4 3.19979 13.2958 11.5729
172 4 2.68132 16.9794 14.8669
173 4 1.0978 16.4321 11.4109
174 4 4.05233 12.9607 14.1791
175 4 6.52104 11.7536 9.97408
176 4 7.94506 17.6417 16.0241
177 7 2.90129 9.88395 9.64524
178 8 3.09877 9.43223 8.60497
179 8 2.3716 10.357 10.5729
180 7 9.15452 11.6837 10.6436
181 8 8.46006 11.8198 11.5531
182 8 0.67115 11.7411 9.68205
183 7 7.30022 6.64316 9.98582
184 8 7.37426 6.2277 8.88631
185 8 7.12271 7.0353 11.1204
186 7 1.80317 10.6297 7.92809
187 8 1.01258 9.78335 7.64652
188 8 2.62143 11.4067 8.22084
189 7 6.43185 9.17327 7.28487
190 8 7.22278 8.84699 6.41444
191 8 5.66345 9.12391 8.29528
192 7 0.184608 7.66472 6.88435
193 8 0.826401 7.32392 5.99855
194 8 8.4921 7.82135 7.6358
195 7 0.868976 8.36438 9.4719
196 8 0.793975 7.29077 9.03627
197 8 0.710453 9.32226 9.95767
198 7 7.8772 10.3776 8.62043
199 8 8.38949 11.1672 7.94225
200 8 7.54215 9.40603 9.23896
201 7 6.17496 14.8363 12.5622
202 8 6.13898 15.7195 13.2656
203 8 6.18959 14.1549 11.6092
204 7 7.18846 13.5296 14.7123
205 8 7.95143 13.9793 13.9752
206 8 6.67406 12.8022 15.4243
207 7 6.15576 4.37671 13.3457
208 8 5.58752 4.71758 12.4174
209 8 6.80565 3.86743 14.2214
210 7 9.02784 4.1775 12.8246
211 8 9.30736 4.78591 13.7661
212 8 8.72644 3.25433 12.1383
213 7 3.53023 4.51205 5.32
214 8 2.81189 3.72254 5.93489
215 8 4.06244 5.28888 4.65581
216 7 4.3369 2.15495 2.67912
217 8 4.4182 1.58605 1.59356
218 8 4.27267 2.50214 3.81565
219 7 2.2625 13.5015 4.53116
220 8 2.0595 13.5637 5.7063
221 8 2.64102 13.506 3.42881
222 7 3.71201 15.7286 4.67915
223 8 4.58169 14.9331 4.53279
224 8 2.80079 16.461 4.68687
ITEM: TIMESTEP
87
ITEM: NUMBER OF ATOMS
224
ITEM: BOX BOUNDS xy xz yz pp pp pp
-1.2122650706379812e-01 9.6825565746990652e+00 0.0000000000000000e+00
-2.6366063077585622e-01 1.9650659730775892e+01 6.4752986763527609e-01
-2.3205203491641591e-01 1.7294867134916394e+01 0.0000000000000000e+00
ITEM: ATOMS id type x y z
1 1 8.8486 0.271726 3.56564
2 1 4.95807 9.22019 4.6722
3 1 7.0963 5.30276 0.22122
4 1 6.68612 4.1578 8.04561
5 2 7.82378 8.63927 3.05031
6 2 6.22037 0.817904 5.29688
7 2 8.17926 3.60884 0.88737
8 2 5.46277 5.76442 7.22592
9 2 6.54307 8.19703 3.48924
10 2 7.38055 1.25421 4.8293
11 2 0.373728 3.27845 0.545746
12 2 4.2737 6.29618 7.76397
13 2 7.21085 6.66019 1.81909
14 2 6.60755 2.62807 6.68856
15 2 8.81631 1.71827 2.21363
16 2 4.74765 7.54219 5.79943
17 5 1.08545 0.552719 5.18433
18 5 3.62171 8.98653 3.13635
19 5 1.51158 5.28023 7.44277
20 5 3.15385 4.06652 0.908375
21 5 3.10719 0.0771897 5.6408
22 5 1.58596 9.42129 2.68426
23 5 8.67256 4.81528 7.0333
24 5 5.15547 4.49019 1.27641
25 3 8.1479 7.65023 2.09366
26 3 5.73731 1.70503 6.33733
27 3 7.92081 2.66102 1.92643
28 3 5.73607 6.68848 6.21942
29 3 6.28108 7.03571 2.8162
30 3 7.64705 2.33219 5.71647
31 3 0.669597 2.19323 1.34907
32 3 3.91688 7.18136 6.85388
33 6 2.16371 0.120203 4.79406
34 6 2.50536 9.33993 3.48091
35 6 0.434276 4.85425 7.88087
36 6 4.25063 4.40591 0.502495
37 4 0.0182759 7.4157 1.91132
38 4 4.76878 1.66236 6.83384
39 4 6.92685 2.38044 2.27389
40 4 6.67973 6.4598 5.61331
41 4 5.2335 6.72153 2.71419
42 4 8.65173 2.6633 5.99824
43 4 1.63 1.67256 1.18876
44 4 2.92646 7.50942 6.89924
45 1 4.57537 0.285093 12.3943
46 1 0.802954 9.15252 13.3825
47 1 2.96092 5.14723 9.00955
48 1 2.42102 4.15998 16.7703
49 2 3.58194 8.10849 12.2465
50 2 1.71566 0.864492 13.8929
51 2 4.10112 3.6879 9.75938
52 2 1.39234 5.91537 16.195
53 2 2.17844 8.14027 12.1333
54 2 3.04654 1.03377 13.8048
55 2 5.27436 3.28262 9.30314
56 2 9.28746 6.30558 16.5914
57 2 3.19439 6.50456 10.8583
58 2 2.36902 2.69545 15.3589
59 2 4.50647 1.61986 10.8186
60 2 0.69643 7.62184 14.7046
61 5 5.81162 0.357475 13.8845
62 5 8.45065 9.21125 12.2459
63 5 6.28093 5.60404 16.3909
64 5 8.26853 3.7502 9.53536
65 5 7.84937 0.104437 14.3627
66 5 6.37045 9.57373 11.6127
67 5 4.28752 4.96292 15.8507
68 5 1.0377 4.50207 10.0475
69 3 4.12042 6.9568 11.6748
70 3 1.43551 1.79165 14.9538
71 3 3.60663 2.62745 10.6033
72 3 1.78392 6.88204 15.2149
73 3 2.00746 6.87158 11.5769
74 3 3.30202 2.24528 14.4723
75 3 5.53347 2.08557 10.0742
76 3 8.93898 7.27794 15.6846
77 6 6.97841 0.0593132 13.5369
78 6 7.24573 9.23865 12.4271
79 6 5.13531 5.12748 16.7688
80 6 9.33189 4.29524 9.23413
81 4 5.10804 7.2869 11.2325
82 4 9.55209 1.90471 15.2784
83 4 2.82969 2.80726 11.3314
84 4 2.5322 6.44952 14.5424
85 4 0.976689 6.6223 11.2454
86 4 4.34955 2.45167 14.8047
87 4 6.39717 1.49388 9.81766
88 4 7.93385 7.76825 15.634
89 1 8.7519 10.2263 3.64511
90 1 5.05116 19.1097 4.62972
91 1 7.15251 15.1765 0.336041
92 1 6.68695 14.1063 8.03816
93 2 7.79315 18.5902 3.04367
94 2 5.93384 11.3883 4.81749
95 2 8.16202 13.4842 0.849743
96 2 5.51739 15.7572 7.36328
97 2 6.4676 18.2813 3.26634
98 2 7.27882 11.4424 4.75049
99 2 0.322708 13.0985 0.53159
100 2 4.33785 16.3271 7.81878
101 2 7.213 16.6967 1.67788
102 2 6.67259 12.8643 6.44014
103 2 8.63742 11.6422 2.30992
104 2 5.09156 17.7454 6.08582
105 5 1.15867 10.5491 5.01415
106 5 3.58918 19.1333 3.07364
107 5 1.40042 15.481 7.5776
108 5 3.23795 14.0175 0.774689
109 5 3.04879 10.0356 5.75202
110 5 1.52881 19.3037 2.60953
111 5 8.55853 14.9687 7.07268
112 5 5.22952 14.4322 1.31585
113 3 8.15419 17.6693 2.00911
114 3 5.69376 11.9236 6.16849
115 3 7.77677 12.6865 1.91307
116 3 6.0053 16.7876 6.43884
117 3 6.28737 17.0964 2.59591
118 3 7.68406 12.4842 5.55478
119 3 0.486273 12.0301 1.40562
120 3 4.0122 17.3748 6.94869
121 6 2.28427 10.0983 4.80632
122 6 2.40926 19.5019 3.41186
123 6 0.294234 15.1516 7.8403
124 6 4.35434 14.4546 0.489472
125 4 0.0514887 17.3878 2.00949
126 4 4.72927 12.3841 6.44698
127 4 6.70943 12.6984 2.06367
128 4 6.89616 16.7254 5.76634
129 4 5.26167 16.7667 2.62718
130 4 8.59687 12.9603 5.42204
131 4 1.26864 11.3335 1.2093
132 4 3.3203 18.1392 7.27622
133 1 4.45067 10.1911 12.3544
134 1 0.74875 19.0563 13.5027
135 1 2.83291 15.0926 9.10303
136 1 2.36957 14.1392 16.7297
137 2 3.40129 18.5145 11.7935
138 2 1.8696 10.7034 14.0954
139 2 3.91878 13.5944 9.64391
140 2 1.35642 15.6857 16.183
141 2 2.04568 18.2042 12.1199
142 2 3.14639 11.0958 13.6978
143 2 5.18282 13.1156 9.16721
144 2 9.30695 16.0924 16.5917
145 2 2.95102 16.6285 10.489
146 2 2.38238 12.7172 15.3289
147 2 4.75118 11.8768 11.1611
148 2 0.720364 17.6997 14.9345
149 5 6.02671 10.3256 13.9206
150 5 8.53382 19.0557 11.8985
151 5 6.30841 15.6625 16.4237
152 5 8.28988 14.0087 9.43931
153 5 8.08084 10.0677 14.3327
154 5 6.46089 19.191 11.4517
155 5 4.39094 15.1363 15.8469
156 5 1.11379 14.4375 9.99826
157 3 3.87415 17.5249 10.9843
158 3 1.5205 11.6107 15.088
159 3 3.74514 12.7778 10.7997
160 3 1.63745 16.724 15.1357
161 3 1.90306 17.1493 11.2467
162 3 3.40463 12.1933 14.5083
163 3 5.45634 11.9968 9.94217
164 3 8.9329 17.235 15.879
165 6 7.08538 9.80608 13.7299
166 6 7.36635 19.2149 12.229
167 6 5.24517 15.1455 16.7251
168 6 9.29138 14.6445 9.32009
169 4 4.90577 17.6609 10.6436
170 4 0.498056 11.4879 15.4525
171 4 3.20645 13.2995 11.5704
172 4 2.68243 16.9866 14.8685
173 4 1.09502 16.4366 11.4113
174 4 4.04885 12.9554 14.176
175 4 6.52786 11.7546 9.97396
176 4 7.95408 17.6435 16.0302
177 7 2.89704 9.88775 9.64181
178 8 3.09825 9.43965 8.60217
179 8 2.37164 10.3557 10.5722
180 7 9.15472 11.6852 10.6442
181 8 8.46274 11.8268 11.5545
182 8 0.669733 11.7375 9.68234
183 7 7.30113 6.64269 9.98657
184 8 7.37474 6.22725 8.88445
185 8 7.12326 7.03054 11.1236
186 7 1.80242 10.6317 7.92702
187 8 1.01272 9.7835 7.64818
188 8 2.6212 11.4104 8.21578
189 7 6.43439 9.1712 7.28526
190 8 7.22354 8.84636 6.41691
191 8 5.66324 9.13015 8.29483
192 7 0.183752 7.66233 6.88117
193 8 0.823958 7.32392 5.99481
194 8 8.49547 7.8187 7.63197
195 7 0.865819 8.36447 9.47054
196 8 0.791492 7.29067 9.03668
197 8 0.709011 9.32264 9.95904
198 7 7.88153 10.3768 8.62238
199 8 8.39182 11.1699 7.94429
200 8 7.54372 9.40501 9.24012
201 7 6.17514 14.8423 12.5615
202 8 6.13996 15.7246 13.2663
203 8 6.19017 14.1574 11.6121
204 7 7.19382 13.527 14.7137
205 8 7.95312 13.9807 13.9776
206 8 6.67805 12.8005 15.4227
207 7 6.15576 4.37385 13.3473
208 8 5.58804 4.7161 12.421
209 8 6.8056 3.86494 14.2228
210 7 9.03015 4.17396 12.8284
211 8 9.3101 4.78563 13.766
212 8 8.72707 3.25239 12.1419
213 7 3.52583 4.50952 5.31873
214 8 2.80985 3.71992 5.93458
215 8 4.05877 5.28317 4.65113
216 7 4.33792 2.14998 2.67713
217 8 4.42016 1.58264 1.59163
218 8 4.27301 2.49893 3.81284
219 7 2.26286 13.5007 4.53002
220 8 2.05966 13.5628 5.70463
221 8 2.64009 13.505 3.42754
222 7 3.71068 15.7301 4.67472
223 8 4.57669 14.9324 4.52733
224 8 2.80207 16.4637 4.68479
ITEM: TIMESTEP
88
ITEM: NUMBER OF ATOMS
224
ITEM: BOX BOUNDS xy xz yz pp pp pp
-1.2285517683199121e-01 9.6844156033913187e+00 0.0000000000000000e+00
-2.6720289318041068e-01 1.9654201993180447e+01 6.4776022655933740e-01
-2.3516963801387369e-01 1.7297984738013852e+01 0.0000000000000000e+00
ITEM: ATOMS id type x y z
1 1 8.85102 0.26828 3.5634
2 1 4.95727 9.22115 4.67049
3 1 7.09653 5.30138 0.217689
4 1 6.68751 4.15579 8.04599
5 2 7.8245 8.63806 3.04954
6 2 6.22094 0.813263 5.29607
7 2 8.18138 3.60707 0.884618
8 2 5.45862 5.76245 7.22323
9 2 6.54444 8.19753 3.4877
10 2 7.3808 1.2508 4.82948
11 2 0.371886 3.2766 0.543923
12 2 4.27281 6.29542 7.76051
13 2 7.21276 6.65752 1.81826
14 2 6.609 2.62591 6.68806
15 2 8.81818 1.71519 2.21053
16 2 4.74696 7.53938 5.79872
17 5 1.08495 0.549735 5.18337
18 5 3.62043 8.98692 3.13389
19 5 1.51244 5.27462 7.44247
20 5 3.15369 4.06636 0.906119
21 5 3.10461 0.0739622 5.6377
22 5 1.58724 9.42135 2.6836
23 5 8.67552 4.81059 7.0327
24 5 5.15412 4.48958 1.27302
25 3 8.14899 7.6487 2.0917
26 3 5.74122 1.70136 6.33488
27 3 7.92463 2.65737 1.9238
28 3 5.73068 6.68597 6.21654
29 3 6.2835 7.03421 2.81452
30 3 7.64733 2.33167 5.71804
31 3 0.667771 2.19065 1.34733
32 3 3.91668 7.17886 6.84972
33 6 2.16525 0.116643 4.79252
34 6 2.50373 9.34094 3.48082
35 6 0.430965 4.8477 7.8792
36 6 4.25137 4.40493 0.501046
37 4 0.0126543 7.41838 1.91526
38 4 4.77383 1.65527 6.83026
39 4 6.92732 2.37622 2.26812
40 4 6.66699 6.44915 5.59748
41 4 5.2342 6.72028 2.71735
42 4 8.65469 2.65919 5.99276
43 4 1.6294 1.66657 1.18597
44 4 2.92724 7.49754 6.90224
45 1 4.5759 0.28137 12.3959
46 1 0.801487 9.15249 13.3835
47 1 2.96085 5.14444 9.00934
48 1 2.42069 4.15828 16.7736
49 2 3.58084 8.10028 12.2528
50 2 1.71587 0.863064 13.8967
51 2 4.10236 3.68481 9.7608
52 2 1.39003 5.91577 16.1972
53 2 2.18118 8.1365 12.1372
54 2 3.04484 1.03157 13.8078
55 2 5.27409 3.27889 9.30522
56 2 9.28961 6.30473 16.5932
57 2 3.19779 6.49836 10.8665
58 2 2.3676 2.69125 15.3588
59 2 4.50666 1.61602 10.8184
60 2 0.694857 7.62204 14.7067
61 5 5.81224 0.352177 13.886
62 5 8.44937 9.21348 12.2485
63 5 6.27872 5.60391 16.3947
64 5 8.27269 3.74535 9.53534
65 5 7.84911 0.101733 14.3646
66 5 6.37235 9.57597 11.6181
67 5 4.28868 4.96087 15.8545
68 5 1.03665 4.50132 10.0478
69 3 4.11761 6.95294 11.682
70 3 1.43416 1.78827 14.9545
71 3 3.60921 2.62548 10.6026
72 3 1.78155 6.88074 15.218
73 3 2.00989 6.86853 11.5812
74 3 3.30055 2.2404 14.4752
75 3 5.5334 2.08454 10.0732
76 3 8.94294 7.27752 15.6859
77 6 6.97813 0.0547994 13.5364
78 6 7.24534 9.23896 12.4321
79 6 5.13319 5.12574 16.7731
80 6 9.3368 4.29179 9.23461
81 4 5.11099 7.27469 11.2497
82 4 9.55337 1.90812 15.2757
83 4 2.8356 2.80067 11.3278
84 4 2.5296 6.44935 14.5481
85 4 0.982225 6.61888 11.2407
86 4 4.3529 2.44687 14.8118
87 4 6.38868 1.4833 9.81994
88 4 7.92932 7.76727 15.6378
89 1 8.75333 10.2264 3.64363
90 1 5.05138 19.1134 4.62772
91 1 7.1533 15.178 0.333346
92 1 6.68815 14.1079 8.03829
93 2 7.79306 18.5924 3.04044
94 2 5.93606 11.3912 4.81402
95 2 8.16396 13.4846 0.848426
96 2 5.51664 15.7599 7.36306
97 2 6.47008 18.2836 3.26252
98 2 7.27713 11.446 4.74767
99 2 0.319141 13.0989 0.529771
100 2 4.33706 16.3285 7.81927
101 2 7.215 16.698 1.67624
102 2 6.67375 12.8694 6.43758
103 2 8.63801 11.6414 2.30726
104 2 5.09245 17.7508 6.08528
105 5 1.15879 10.5512 5.01149
106 5 3.58647 19.1398 3.07073
107 5 1.39895 15.4844 7.57658
108 5 3.23817 14.0201 0.772022
109 5 3.04769 10.0352 5.74954
110 5 1.52831 19.3074 2.60828
111 5 8.56111 14.9702 7.0732
112 5 5.2299 14.4351 1.31366
113 3 8.15536 17.6732 2.00777
114 3 5.69493 11.931 6.16218
115 3 7.77731 12.6883 1.90977
116 3 6.00438 16.7929 6.43867
117 3 6.28882 17.1024 2.59436
118 3 7.68321 12.4887 5.55204
119 3 0.484253 12.0297 1.40366
120 3 4.01446 17.3802 6.94889
121 6 2.2843 10.0982 4.80318
122 6 2.41011 19.5066 3.41047
123 6 0.291101 15.1541 7.84323
124 6 4.354 14.4571 0.486223
125 4 0.0464289 17.3896 2.01043
126 4 4.72549 12.3885 6.44494
127 4 6.71445 12.698 2.05606
128 4 6.90053 16.7253 5.7623
129 4 5.26468 16.7702 2.61822
130 4 8.58602 12.9573 5.41846
131 4 1.26264 11.3379 1.20438
132 4 3.32631 18.1401 7.28119
133 1 4.45046 10.1906 12.3562
134 1 0.746515 19.0595 13.5047
135 1 2.83147 15.0933 9.10337
136 1 2.36895 14.141 16.7324
137 2 3.39986 18.5161 11.7942
138 2 1.87035 10.7032 14.099
139 2 3.92043 13.5975 9.64466
140 2 1.35429 15.6883 16.1853
141 2 2.04731 18.2059 12.1189
142 2 3.14495 11.0953 13.6999
143 2 5.18241 13.1163 9.16612
144 2 9.30794 16.0941 16.5946
145 2 2.94967 16.6308 10.4922
146 2 2.38214 12.7187 15.331
147 2 4.75223 11.8775 11.1631
148 2 0.718854 17.7041 14.9375
149 5 6.02664 10.3256 13.9237
150 5 8.53378 19.0611 11.8994
151 5 6.30863 15.6674 16.4286
152 5 8.29284 14.0107 9.43996
153 5 8.08306 10.0685 14.3339
154 5 6.46263 19.1928 11.4533
155 5 4.39044 15.139 15.8503
156 5 1.11224 14.4416 9.99733
157 3 3.8702 17.5287 10.988
158 3 1.51988 11.61 15.0899
159 3 3.74669 12.7812 10.8035
160 3 1.63645 16.7254 15.1385
161 3 1.90335 17.1516 11.2463
162 3 3.40418 12.1954 14.5109
163 3 5.45649 11.9963 9.94128
164 3 8.93363 17.2372 15.8832
165 6 7.08593 9.80339 13.7332
166 6 7.36687 19.2186 12.2322
167 6 5.24544 15.1506 16.7291
168 6 9.29493 14.6507 9.31956
169 4 4.9036 17.6625 10.6491
170 4 0.499179 11.488 15.4492
171 4 3.21297 13.3029 11.5681
172 4 2.68334 16.9935 14.8701
173 4 1.09215 16.4412 11.4117
174 4 4.0458 12.9503 14.1727
175 4 6.5344 11.7555 9.97382
176 4 7.96298 17.6455 16.0362
177 7 2.89275 9.89155 9.63848
178 8 3.09783 9.44693 8.5994
179 8 2.3718 10.3544 10.5716
180 7 9.15495 11.6867 10.6446
181 8 8.46541 11.8339 11.5558
182 8 0.668303 11.7339 9.68269
183 7 7.30202 6.64226 9.98736
184 8 7.3752 6.22685 8.88269
185 8 7.12388 7.02571 11.1267
186 7 1.80161 10.6338 7.9259
187 8 1.01292 9.78371 7.64981
188 8 2.62092 11.4141 8.21066
189 7 6.43686 9.16904 7.28572
190 8 7.22417 8.84585 6.41942
191 8 5.66308 9.1364 8.29421
192 7 0.182861 7.65992 6.87799
193 8 0.821565 7.32393 5.99101
194 8 8.49883 7.81605 7.62814
195 7 0.862642 8.3643 9.46907
196 8 0.789093 7.29057 9.03714
197 8 0.707516 9.32315 9.96052
198 7 7.88589 10.376 8.62437
199 8 8.39407 11.1726 7.94634
200 8 7.54532 9.40409 9.24128
201 7 6.17533 14.8481 12.5607
202 8 6.14094 15.7298 13.2672
203 8 6.19076 14.16 11.6151
204 7 7.19924 13.5243 14.7151
205 8 7.95481 13.9821 13.98
206 8 6.68197 12.7987 15.4212
207 7 6.15585 4.3709 13.349
208 8 5.58852 4.71466 12.4245
209 8 6.8055 3.8625 14.2242
210 7 9.03243 4.1703 12.8322
211 8 9.31284 4.7854 13.7659
212 8 8.7277 3.25053 12.1455
213 7 3.52129 4.50689 5.31754
214 8 2.80791 3.71737 5.9342
215 8 4.0551 5.27745 4.64644
216 7 4.33896 2.14495 2.6751
217 8 4.42211 1.57931 1.58983
218 8 4.27336 2.49574 3.80997
219 7 2.26324 13.4999 4.52897
220 8 2.05982 13.5619 5.70289
221 8 2.63914 13.5041 3.4263
222 7 3.70939 15.7316 4.67027
223 8 4.57166 14.9317 4.5219
224 8 2.80337 16.4664 4.6827
ITEM: TIMESTEP
89
ITEM: NUMBER OF ATOMS
224
ITEM: BOX BOUNDS xy xz yz pp pp pp
-1.2447519457203349e-01 9.6862647563132391e+00 0.0000000000000000e+00
-2.7072633792490741e-01 1.9657725437924945e+01 6.4798936174121680e-01
-2.3827067938083779e-01 1.7301085779380816e+01 0.0000000000000000e+00
ITEM: ATOMS id type x y z
1 1 8.85341 0.264856 3.56118
2 1 4.95647 9.22212 4.66879
3 1 7.09676 5.3 0.214183
4 1 6.6889 4.15378 8.04637
5 2 7.82516 8.63678 3.04878
6 2 6.22138 0.808646 5.29534
7 2 8.18356 3.60526 0.881913
8 2 5.45442 5.76055 7.22053
9 2 6.54582 8.19807 3.48614
10 2 7.38114 1.24746 4.82973
11 2 0.369994 3.27475 0.542147
12 2 4.27197 6.29455 7.75703
13 2 7.21465 6.65489 1.8175
14 2 6.61054 2.62379 6.68751
15 2 8.82012 1.71213 2.20739
16 2 4.74629 7.53658 5.7981
17 5 1.08446 0.546748 5.18237
18 5 3.61915 8.98732 3.13147
19 5 1.51329 5.269 7.44224
20 5 3.15351 4.06621 0.903842
21 5 3.10202 0.070744 5.63454
22 5 1.5885 9.42141 2.68294
23 5 8.67847 4.80589 7.03214
24 5 5.15282 4.48898 1.26966
25 3 8.15004 7.64719 2.08977
26 3 5.74513 1.69765 6.33236
27 3 7.92838 2.65377 1.92116
28 3 5.72538 6.6834 6.21365
29 3 6.2859 7.03272 2.81275
30 3 7.64752 2.33115 5.71966
31 3 0.665943 2.18806 1.34561
32 3 3.91646 7.17643 6.84552
33 6 2.16683 0.113136 4.79116
34 6 2.50211 9.34194 3.48069
35 6 0.427648 4.84119 7.87734
36 6 4.25211 4.40393 0.499695
37 4 0.00732271 7.42109 1.9191
38 4 4.77886 1.64802 6.8266
39 4 6.92773 2.37234 2.26218
40 4 6.65361 6.43873 5.58189
41 4 5.23505 6.71897 2.7206
42 4 8.65765 2.65496 5.98697
43 4 1.62857 1.66062 1.18331
44 4 2.92771 7.486 6.90521
45 1 4.57643 0.277658 12.3975
46 1 0.800023 9.15246 13.3846
47 1 2.96078 5.14167 9.00914
48 1 2.42036 4.1566 16.7769
49 2 3.57969 8.09212 12.2591
50 2 1.71606 0.861683 13.9007
51 2 4.1035 3.68168 9.76226
52 2 1.38772 5.91621 16.1993
53 2 2.18398 8.13261 12.1413
54 2 3.0432 1.02946 13.8107
55 2 5.27388 3.27506 9.30732
56 2 9.2917 6.30388 16.595
57 2 3.20105 6.49212 10.8747
58 2 2.36618 2.68706 15.3586
59 2 4.50685 1.61221 10.8182
60 2 0.69335 7.62223 14.7089
61 5 5.81289 0.346877 13.8874
62 5 8.44808 9.2157 12.251
63 5 6.27642 5.60375 16.3985
64 5 8.27684 3.74051 9.53529
65 5 7.84888 0.0990457 14.3666
66 5 6.37426 9.5782 11.6235
67 5 4.28985 4.95883 15.8584
68 5 1.03565 4.50058 10.0481
69 3 4.11488 6.94925 11.6893
70 3 1.43276 1.78484 14.9552
71 3 3.61185 2.62358 10.6019
72 3 1.77913 6.87937 15.2211
73 3 2.01235 6.86555 11.5854
74 3 3.29916 2.23552 14.4782
75 3 5.53332 2.08363 10.0722
76 3 8.94687 7.27716 15.6871
77 6 6.97782 0.0503189 13.536
78 6 7.24495 9.23929 12.4372
79 6 5.13114 5.12409 16.7771
80 6 9.34169 4.2883 9.23516
81 4 5.11271 7.2621 11.2671
82 4 9.55472 1.91159 15.2729
83 4 2.84131 2.79411 11.3243
84 4 2.52702 6.44948 14.5537
85 4 0.988114 6.61546 11.236
86 4 4.3559 2.44196 14.8187
87 4 6.38024 1.47258 9.82221
88 4 7.92515 7.76597 15.6419
89 1 8.75475 10.2265 3.64216
90 1 5.05161 19.117 4.62573
91 1 7.15409 15.1794 0.330663
92 1 6.68934 14.1095 8.03842
93 2 7.79298 18.5946 3.03715
94 2 5.93822 11.394 4.81073
95 2 8.16593 13.485 0.847151
96 2 5.51593 15.7628 7.36276
97 2 6.47257 18.2858 3.25873
98 2 7.2755 11.4496 4.74486
99 2 0.315523 13.0994 0.528001
100 2 4.33624 16.3298 7.81976
101 2 7.21701 16.6994 1.67466
102 2 6.67492 12.8745 6.43501
103 2 8.6386 11.6406 2.30451
104 2 5.09327 17.7562 6.08481
105 5 1.15893 10.5534 5.00883
106 5 3.58371 19.1463 3.06787
107 5 1.39752 15.4878 7.57553
108 5 3.2384 14.0228 0.769347
109 5 3.04664 10.0348 5.74701
110 5 1.52779 19.311 2.60706
111 5 8.56365 14.9716 7.07369
112 5 5.23031 14.4381 1.31147
113 3 8.15651 17.6771 2.00649
114 3 5.69612 11.9385 6.15573
115 3 7.77785 12.6901 1.90648
116 3 6.00344 16.7981 6.43851
117 3 6.29021 17.1083 2.59281
118 3 7.68224 12.493 5.54933
119 3 0.482239 12.0293 1.40172
120 3 4.01682 17.3856 6.94909
121 6 2.28426 10.098 4.80011
122 6 2.41111 19.5113 3.40898
123 6 0.287996 15.1567 7.84625
124 6 4.35362 14.4595 0.483066
125 4 0.0413584 17.3913 2.01121
126 4 4.72171 12.3924 6.44268
127 4 6.71936 12.6973 2.04875
128 4 6.90464 16.7249 5.7587
129 4 5.26763 16.7734 2.60903
130 4 8.57575 12.9546 5.41488
131 4 1.25691 11.3421 1.1994
132 4 3.33222 18.1411 7.28619
133 1 4.45027 10.19 12.3579
134 1 0.744277 19.0627 13.5066
135 1 2.83003 15.0941 9.10371
136 1 2.36834 14.1427 16.7351
137 2 3.39839 18.5177 11.7949
138 2 1.87112 10.703 14.1025
139 2 3.92218 13.6006 9.64546
140 2 1.35221 15.6909 16.1875
141 2 2.04905 18.2076 12.1178
142 2 3.14348 11.0948 13.702
143 2 5.18194 13.117 9.16507
144 2 9.30882 16.0957 16.5976
145 2 2.94832 16.6331 10.4954
146 2 2.3819 12.7201 15.3332
147 2 4.75324 11.8782 11.1649
148 2 0.717309 17.7084 14.9406
149 5 6.02654 10.3255 13.9268
150 5 8.53374 19.0665 11.9004
151 5 6.30886 15.6723 16.4335
152 5 8.29577 14.0126 9.44065
153 5 8.0853 10.0693 14.3352
154 5 6.46433 19.1945 11.4549
155 5 4.38991 15.1417 15.8537
156 5 1.11071 14.4456 9.99641
157 3 3.86626 17.5325 10.9916
158 3 1.51927 11.6093 15.0919
159 3 3.74824 12.7845 10.8071
160 3 1.63549 16.7268 15.1414
161 3 1.9036 17.1539 11.2459
162 3 3.40368 12.1975 14.5136
163 3 5.4567 11.9957 9.94045
164 3 8.93444 17.2394 15.8874
165 6 7.08643 9.80071 13.7365
166 6 7.36737 19.2222 12.2353
167 6 5.24572 15.1558 16.7329
168 6 9.29846 14.6569 9.31896
169 4 4.90125 17.6638 10.6544
170 4 0.500379 11.4884 15.446
171 4 3.21931 13.3063 11.566
172 4 2.68402 17.0002 14.8718
173 4 1.08919 16.446 11.4121
174 4 4.04321 12.9453 14.1691
175 4 6.54059 11.7564 9.97363
176 4 7.97168 17.6478 16.0422
177 7 2.88843 9.89536 9.63525
178 8 3.09752 9.45408 8.59667
179 8 2.37207 10.3532 10.5709
180 7 9.15521 11.6882 10.6449
181 8 8.46806 11.8409 11.5572
182 8 0.66686 11.7303 9.6831
183 7 7.30288 6.64184 9.98819
184 8 7.37564 6.2265 8.88104
185 8 7.12457 7.0208 11.1297
186 7 1.80073 10.6358 7.92471
187 8 1.01318 9.78399 7.65141
188 8 2.62059 11.4179 8.20548
189 7 6.43927 9.16677 7.28625
190 8 7.22468 8.84545 6.42198
191 8 5.66297 9.14266 8.29341
192 7 0.181936 7.6575 6.8748
193 8 0.819226 7.32395 5.98716
194 8 8.50216 7.81341 7.62433
195 7 0.859443 8.36387 9.4675
196 8 0.786775 7.29046 9.03764
197 8 0.705967 9.32381 9.96209
198 7 7.8903 10.3751 8.6264
199 8 8.39624 11.1754 7.94839
200 8 7.54697 9.40328 9.24243
201 7 6.17551 14.854 12.5598
202 8 6.14189 15.735 13.268
203 8 6.19137 14.1625 11.6181
204 7 7.20472 13.5216 14.7165
205 8 7.95652 13.9835 13.9823
206 8 6.68582 12.7969 15.4197
207 7 6.15603 4.36786 13.3509
208 8 5.58898 4.71325 12.428
209 8 6.80534 3.86011 14.2255
210 7 9.03469 4.16652 12.836
211 8 9.31558 4.78521 13.7658
212 8 8.72834 3.24872 12.1491
213 7 3.51661 4.50416 5.31644
214 8 2.80608 3.7149 5.93377
215 8 4.05144 5.27172 4.64173
216 7 4.33999 2.13984 2.67303
217 8 4.42404 1.57606 1.58814
218 8 4.2737 2.49255 3.80704
219 7 2.26365 13.4991 4.52799
220 8 2.05999 13.561 5.70109
221 8 2.63817 13.5031 3.42509
222 7 3.70812 15.7331 4.66579
223 8 4.56661 14.931 4.5165
224 8 2.80467 16.4691 4.68063
ITEM: TIMESTEP
90
ITEM: NUMBER OF ATOMS
224
ITEM: BOX BOUNDS xy xz yz pp pp pp
-1.2608682222034862e-01 9.6881043324495195e+00 0.0000000000000000e+00
-2.7423153470589590e-01 1.9661230634705934e+01 6.4821731022918139e-01
-2.4135566041656276e-01 1.7304170760416540e+01 0.0000000000000000e+00
ITEM: ATOMS id type x y z
1 1 8.8558 0.261455 3.55896
2 1 4.95567 9.2231 4.66709
3 1 7.09699 5.29864 0.2107
4 1 6.69029 4.15179 8.04675
5 2 7.82577 8.63541 3.04803
6 2 6.2217 0.804054 5.29468
7 2 8.18579 3.60341 0.879254
8 2 5.45016 5.75871 7.21782
9 2 6.54722 8.19862 3.48454
10 2 7.38157 1.24421 4.83005
11 2 0.368052 3.27291 0.540419
12 2 4.27117 6.29357 7.75354
13 2 7.21653 6.6523 1.81681
14 2 6.61218 2.62171 6.6869
15 2 8.82212 1.70909 2.20421
16 2 4.74563 7.5338 5.79755
17 5 1.08397 0.543757 5.18134
18 5 3.61786 8.98773 3.12907
19 5 1.51412 5.26338 7.44209
20 5 3.15332 4.06608 0.901545
21 5 3.09942 0.0675339 5.63133
22 5 1.58974 9.42148 2.6823
23 5 8.6814 4.8012 7.03162
24 5 5.15156 4.4884 1.26633
25 3 8.15107 7.64571 2.08787
26 3 5.74905 1.69388 6.32978
27 3 7.93206 2.65023 1.9185
28 3 5.72019 6.68077 6.21076
29 3 6.2883 7.03123 2.81092
30 3 7.64763 2.33062 5.72132
31 3 0.664117 2.18546 1.34391
32 3 3.91624 7.17407 6.84129
33 6 2.16845 0.109684 4.78997
34 6 2.50051 9.34293 3.48054
35 6 0.424336 4.83471 7.87528
36 6 4.25285 4.40291 0.498438
37 4 0.00233155 7.42381 1.92283
38 4 4.78384 1.64062 6.82289
39 4 6.92809 2.36879 2.25605
40 4 6.63957 6.42854 5.56655
41 4 5.23608 6.7176 2.72395
42 4 8.66062 2.65063 5.98089
43 4 1.62747 1.65471 1.18078
44 4 2.92784 7.47484 6.90813
45 1 4.57695 0.273956 12.3991
46 1 0.798562 9.15242 13.3857
47 1 2.96072 5.13892 9.00895
48 1 2.42004 4.15493 16.7802
49 2 3.5785 8.08402 12.2654
50 2 1.71623 0.860345 13.9047
51 2 4.10452 3.67853 9.76375
52 2 1.38543 5.91668 16.2014
53 2 2.18682 8.12859 12.1453
54 2 3.04162 1.02744 13.8136
55 2 5.27375 3.27114 9.30943
56 2 9.29376 6.30303 16.5967
57 2 3.20418 6.48584 10.8829
58 2 2.36476 2.68286 15.3584
59 2 4.50704 1.60842 10.8181
60 2 0.691911 7.62242 14.7111
61 5 5.81358 0.341574 13.8889
62 5 8.44679 9.21792 12.2534
63 5 6.27403 5.60355 16.4024
64 5 8.281 3.7357 9.5352
65 5 7.8487 0.0963746 14.3686
66 5 6.37617 9.58042 11.6289
67 5 4.29103 4.95679 15.8624
68 5 1.03469 4.49985 10.0484
69 3 4.11223 6.94574 11.6964
70 3 1.43132 1.78137 14.9559
71 3 3.61454 2.62175 10.6012
72 3 1.77667 6.87793 15.2241
73 3 2.01485 6.86263 11.5895
74 3 3.29784 2.23063 14.4812
75 3 5.53324 2.08281 10.0711
76 3 8.95075 7.27687 15.6883
77 6 6.97748 0.0458732 13.5356
78 6 7.24456 9.23965 12.4423
79 6 5.12915 5.12251 16.7808
80 6 9.34654 4.28479 9.23578
81 4 5.11321 7.24914 11.2848
82 4 9.55615 1.91513 15.27
83 4 2.84678 2.7876 11.3208
84 4 2.52445 6.44991 14.5592
85 4 0.994349 6.61205 11.2314
86 4 4.35851 2.43694 14.8253
87 4 6.3719 1.46173 9.82443
88 4 7.92142 7.76434 15.6461
89 1 8.75616 10.2267 3.6407
90 1 5.05183 19.1207 4.62375
91 1 7.15488 15.1807 0.327994
92 1 6.69052 14.1111 8.03855
93 2 7.7929 18.5967 3.03381
94 2 5.94032 11.3967 4.80764
95 2 8.16794 13.4854 0.845917
96 2 5.51528 15.7658 7.36239
97 2 6.47508 18.288 3.25497
98 2 7.27395 11.4532 4.74208
99 2 0.311859 13.0998 0.526278
100 2 4.3354 16.331 7.82023
101 2 7.21905 16.7007 1.67314
102 2 6.67609 12.8796 6.43244
103 2 8.63917 11.6399 2.30168
104 2 5.09403 17.7616 6.0844
105 5 1.15909 10.5555 5.00618
106 5 3.58089 19.1528 3.06506
107 5 1.39613 15.4911 7.57446
108 5 3.23863 14.0254 0.766664
109 5 3.04564 10.0344 5.74444
110 5 1.52722 19.3147 2.60587
111 5 8.56615 14.973 7.07416
112 5 5.23076 14.4411 1.3093
113 3 8.15764 17.6811 2.00526
114 3 5.69732 11.9461 6.14916
115 3 7.77842 12.6919 1.9032
116 3 6.00248 16.8032 6.43836
117 3 6.29155 17.1143 2.59126
118 3 7.68116 12.4973 5.54664
119 3 0.480226 12.029 1.39983
120 3 4.01928 17.3909 6.9493
121 6 2.28416 10.098 4.7971
122 6 2.41224 19.5158 3.40738
123 6 0.284924 15.1592 7.84934
124 6 4.35319 14.4618 0.480002
125 4 0.0363055 17.393 2.01183
126 4 4.71796 12.3958 6.44018
127 4 6.7241 12.6963 2.04175
128 4 6.90843 16.7243 5.75556
129 4 5.27053 16.7763 2.59963
130 4 8.56617 12.9524 5.41127
131 4 1.25151 11.3462 1.19436
132 4 3.33799 18.1421 7.29123
133 1 4.4501 10.1895 12.3597
134 1 0.742036 19.0658 13.5086
135 1 2.82861 15.0949 9.10405
136 1 2.36773 14.1444 16.7379
137 2 3.39687 18.5193 11.7956
138 2 1.87193 10.7028 14.106
139 2 3.92402 13.6036 9.64632
140 2 1.3502 15.6937 16.1896
141 2 2.0509 18.2093 12.1167
142 2 3.14198 11.0943 13.7041
143 2 5.18142 13.1176 9.16409
144 2 9.30961 16.0974 16.6005
145 2 2.94697 16.6354 10.4987
146 2 2.38165 12.7214 15.3352
147 2 4.75418 11.8789 11.1667
148 2 0.71573 17.7128 14.9437
149 5 6.0264 10.3254 13.9299
150 5 8.53368 19.0719 11.9013
151 5 6.3091 15.6771 16.4384
152 5 8.29866 14.0146 9.44136
153 5 8.08758 10.0701 14.3364
154 5 6.466 19.1963 11.4564
155 5 4.38934 15.1444 15.8571
156 5 1.10921 14.4497 9.99551
157 3 3.86235 17.5363 10.9951
158 3 1.51868 11.6086 15.0938
159 3 3.74979 12.788 10.8107
160 3 1.63456 16.728 15.1444
161 3 1.90381 17.1561 11.2455
162 3 3.40313 12.1997 14.5162
163 3 5.45695 11.9952 9.93969
164 3 8.93531 17.2415 15.8916
165 6 7.08687 9.79804 13.7399
166 6 7.36786 19.2258 12.2385
167 6 5.24599 15.161 16.7366
168 6 9.30194 14.6631 9.31831
169 4 4.89871 17.6648 10.6595
170 4 0.501617 11.4892 15.4431
171 4 3.22542 13.3096 11.5642
172 4 2.68444 17.0066 14.8736
173 4 1.08615 16.4511 11.4126
174 4 4.04111 12.9405 14.1653
175 4 6.54638 11.7571 9.97341
176 4 7.98011 17.6504 16.0481
177 7 2.88408 9.89916 9.63213
178 8 3.09732 9.46109 8.59396
179 8 2.37245 10.3519 10.5703
180 7 9.1555 11.6897 10.6452
181 8 8.47068 11.8479 11.5586
182 8 0.665402 11.7267 9.68356
183 7 7.30372 6.64145 9.98906
184 8 7.37607 6.22619 8.8795
185 8 7.12534 7.01583 11.1326
186 7 1.79979 10.6378 7.92345
187 8 1.0135 9.78432 7.65299
188 8 2.62022 11.4217 8.20023
189 7 6.44161 9.16441 7.28684
190 8 7.22506 8.84516 6.42458
191 8 5.6629 9.14893 8.29244
192 7 0.180977 7.65506 6.8716
193 8 0.816942 7.32397 5.98324
194 8 8.50547 7.81076 7.62053
195 7 0.856221 8.36321 9.46582
196 8 0.78454 7.29033 9.0382
197 8 0.704368 9.3246 9.96377
198 7 7.89475 10.3741 8.62847
199 8 8.39834 11.1781 7.95044
200 8 7.54866 9.40257 9.24356
201 7 6.17569 14.8598 12.5587
202 8 6.14284 15.7402 13.269
203 8 6.19198 14.165 11.6211
204 7 7.21025 13.5189 14.7179
205 8 7.95825 13.985 13.9846
206 8 6.68961 12.7951 15.4183
207 7 6.15631 4.36473 13.3528
208 8 5.58941 4.71186 12.4314
209 8 6.80512 3.85778 14.2267
210 7 9.03692 4.16263 12.8398
211 8 9.31832 4.78506 13.7656
212 8 8.72899 3.24698 12.1527
213 7 3.51181 4.50132 5.31541
214 8 2.80434 3.7125 5.93327
215 8 4.04778 5.26597 4.637
216 7 4.34104 2.13467 2.67092
217 8 4.42597 1.5729 1.58657
218 8 4.27405 2.48937 3.80403
219 7 2.26408 13.4983 4.5271
220 8 2.06017 13.56 5.69922
221 8 2.63718 13.502 3.42389
222 7 3.70689 15.7345 4.66128
223 8 4.56153 14.9304 4.51113
224 8 2.80598 16.4717 4.67856
ITEM: TIMESTEP
91
ITEM: NUMBER OF ATOMS
224
ITEM: BOX BOUNDS xy xz yz pp pp pp
-1.2769034092064224e-01 9.6899346527088053e+00 0.0000000000000000e+00
-2.7771909499465153e-01 1.9664718194994691e+01 6.4844411178817485e-01
-2.4442511928692312e-01 1.7307240219286903e+01 0.0000000000000000e+00
ITEM: ATOMS id type x y z
1 1 8.85818 0.258076 3.55676
2 1 4.95487 9.22408 4.6654
3 1 7.09723 5.29727 0.207241
4 1 6.69167 4.1498 8.04714
5 2 7.82632 8.63397 3.04729
6 2 6.2219 0.799486 5.29409
7 2 8.18807 3.60149 0.876642
8 2 5.44586 5.75693 7.21509
9 2 6.54864 8.19919 3.48292
10 2 7.38209 1.24103 4.83043
11 2 0.366063 3.27109 0.538735
12 2 4.27042 6.29247 7.75003
13 2 7.21839 6.64976 1.8162
14 2 6.61392 2.61967 6.68624
15 2 8.82419 1.70606 2.20099
16 2 4.745 7.53102 5.79707
17 5 1.08349 0.540762 5.18027
18 5 3.61658 8.98814 3.12669
19 5 1.51493 5.25774 7.44202
20 5 3.15313 4.06597 0.899227
21 5 3.09683 0.0643311 5.62807
22 5 1.59096 9.42154 2.68166
23 5 8.68432 4.79649 7.03114
24 5 5.15036 4.48783 1.26304
25 3 8.15206 7.64427 2.08601
26 3 5.75296 1.69007 6.32712
27 3 7.93565 2.64675 1.91583
28 3 5.7151 6.67807 6.20785
29 3 6.29067 7.02975 2.80902
30 3 7.64766 2.33007 5.72302
31 3 0.662295 2.18287 1.34224
32 3 3.916 7.17179 6.83704
33 6 2.1701 0.106287 4.78895
34 6 2.49893 9.34391 3.48036
35 6 0.421044 4.82829 7.87303
36 6 4.25358 4.40188 0.497269
37 4 -0.00227305 7.42653 1.92644
38 4 4.78877 1.63308 6.81911
39 4 6.92844 2.36559 2.24976
40 4 6.62488 6.41859 5.5515
41 4 5.23729 6.71616 2.72737
42 4 8.66358 2.64622 5.97455
43 4 1.62609 1.64887 1.17836
44 4 2.92759 7.46407 6.91096
45 1 4.57746 0.270264 12.4006
46 1 0.797102 9.15239 13.3868
47 1 2.96066 5.13618 9.00876
48 1 2.41972 4.15328 16.7835
49 2 3.57727 8.07599 12.2717
50 2 1.71638 0.859046 13.9088
51 2 4.10544 3.67534 9.76528
52 2 1.38316 5.91719 16.2034
53 2 2.18969 8.12444 12.1493
54 2 3.04009 1.0255 13.8165
55 2 5.27369 3.26712 9.31156
56 2 9.29577 6.30218 16.5984
57 2 3.20716 6.47951 10.891
58 2 2.36334 2.67866 15.3582
59 2 4.50723 1.60467 10.818
60 2 0.690541 7.6226 14.7134
61 5 5.81431 0.336268 13.8902
62 5 8.44549 9.22013 12.2558
63 5 6.27155 5.60333 16.4063
64 5 8.28516 3.73092 9.53509
65 5 7.84856 0.0937185 14.3706
66 5 6.37809 9.58262 11.6342
67 5 4.29222 4.95476 15.8663
68 5 1.03378 4.49913 10.0487
69 3 4.10967 6.94238 11.7035
70 3 1.42982 1.77787 14.9565
71 3 3.61728 2.61998 10.6004
72 3 1.77416 6.87643 15.2272
73 3 2.01737 6.85977 11.5936
74 3 3.2966 2.22575 14.4842
75 3 5.53315 2.08208 10.07
76 3 8.95457 7.27663 15.6895
77 6 6.97711 0.0414632 13.5353
78 6 7.24418 9.24003 12.4473
79 6 5.12724 5.12102 16.7843
80 6 9.35136 4.28124 9.23647
81 4 5.11252 7.23583 11.3027
82 4 9.55765 1.91872 15.2671
83 4 2.85198 2.78117 11.3174
84 4 2.52191 6.45061 14.5646
85 4 1.00092 6.60864 11.227
86 4 4.36066 2.4318 14.8315
87 4 6.36368 1.45077 9.82659
88 4 7.91818 7.76236 15.6505
89 1 8.75756 10.2268 3.63924
90 1 5.05206 19.1244 4.62178
91 1 7.15567 15.1821 0.325336
92 1 6.6917 14.1127 8.03867
93 2 7.79282 18.5988 3.03042
94 2 5.94236 11.3993 4.80473
95 2 8.16998 13.4858 0.844721
96 2 5.51469 15.7689 7.36194
97 2 6.4776 18.2902 3.25124
98 2 7.27248 11.4568 4.73931
99 2 0.308149 13.1002 0.524603
100 2 4.33453 16.3323 7.82069
101 2 7.22111 16.702 1.67167
102 2 6.67726 12.8846 6.42985
103 2 8.63974 11.6392 2.29876
104 2 5.09474 17.7669 6.08406
105 5 1.15926 10.5577 5.00352
106 5 3.57802 19.1593 3.06228
107 5 1.39477 15.4945 7.57337
108 5 3.23887 14.0281 0.763974
109 5 3.04468 10.0339 5.74182
110 5 1.52663 19.3183 2.60471
111 5 8.5686 14.9744 7.07461
112 5 5.23123 14.4441 1.30713
113 3 8.15876 17.685 2.00407
114 3 5.69854 11.9538 6.14247
115 3 7.779 12.6937 1.89993
116 3 6.00152 16.8083 6.43823
117 3 6.29284 17.1202 2.58971
118 3 7.67995 12.5015 5.54398
119 3 0.47821 12.0286 1.39796
120 3 4.02183 17.3962 6.94951
121 6 2.28398 10.0979 4.79417
122 6 2.41351 19.5203 3.40569
123 6 0.281891 15.1617 7.8525
124 6 4.35272 14.4641 0.477029
125 4 0.0312981 17.3946 2.01231
126 4 4.7143 12.3987 6.43742
127 4 6.72861 12.695 2.03505
128 4 6.91185 16.7234 5.75293
129 4 5.27337 16.779 2.59004
130 4 8.55738 12.9507 5.40763
131 4 1.24645 11.3501 1.18925
132 4 3.34361 18.1432 7.2963
133 1 4.44994 10.1889 12.3615
134 1 0.739792 19.0689 13.5105
135 1 2.82718 15.0956 9.10437
136 1 2.36714 14.1461 16.7406
137 2 3.39531 18.5208 11.7964
138 2 1.87277 10.7026 14.1096
139 2 3.92595 13.6065 9.64725
140 2 1.34826 15.6966 16.1915
141 2 2.05285 18.211 12.1156
142 2 3.14044 11.0939 13.7062
143 2 5.18085 13.1183 9.16316
144 2 9.31031 16.0991 16.6034
145 2 2.94561 16.6378 10.502
146 2 2.38139 12.7226 15.3372
147 2 4.75508 11.8795 11.1683
148 2 0.714117 17.717 14.9468
149 5 6.02623 10.3254 13.933
150 5 8.53362 19.0773 11.9022
151 5 6.30935 15.682 16.4433
152 5 8.30151 14.0164 9.4421
153 5 8.08989 10.071 14.3377
154 5 6.46762 19.198 11.4579
155 5 4.38875 15.147 15.8605
156 5 1.10775 14.4537 9.99462
157 3 3.85847 17.5401 10.9986
158 3 1.51811 11.6079 15.0957
159 3 3.75136 12.7914 10.8143
160 3 1.63368 16.7291 15.1475
161 3 1.90398 17.1582 11.2451
162 3 3.40254 12.2018 14.5189
163 3 5.45726 11.9947 9.93899
164 3 8.93626 17.2436 15.8956
165 6 7.08727 9.79539 13.7433
166 6 7.36835 19.2294 12.2416
167 6 5.24625 15.1662 16.7401
168 6 9.30537 14.6693 9.3176
169 4 4.89597 17.6654 10.6644
170 4 0.502856 11.4903 15.4403
171 4 3.23129 13.3128 11.5627
172 4 2.68457 17.0127 14.8755
173 4 1.08305 16.4564 11.4131
174 4 4.0395 12.9359 14.1612
175 4 6.55169 11.7578 9.97315
176 4 7.98821 17.6533 16.054
177 7 2.87971 9.90296 9.62912
178 8 3.09722 9.46797 8.59128
179 8 2.37294 10.3507 10.5696
180 7 9.15583 11.6913 10.6454
181 8 8.47329 11.855 11.56
182 8 0.663929 11.7232 9.68409
183 7 7.30454 6.64108 9.98995
184 8 7.37647 6.22593 8.87808
185 8 7.12617 7.01079 11.1353
186 7 1.79879 10.6399 7.92214
187 8 1.01387 9.78472 7.65455
188 8 2.6198 11.4257 8.19493
189 7 6.44388 9.16196 7.28751
190 8 7.22531 8.84497 6.42721
191 8 5.66288 9.1552 8.29129
192 7 0.179986 7.65261 6.86839
193 8 0.814714 7.32399 5.97927
194 8 8.50875 7.80812 7.61675
195 7 0.852974 8.36233 9.46405
196 8 0.782385 7.29018 9.03879
197 8 0.702718 9.32551 9.96553
198 7 7.89924 10.373 8.63057
199 8 8.40035 11.1809 7.9525
200 8 7.55038 9.40196 9.24469
201 7 6.17586 14.8655 12.5574
202 8 6.14377 15.7455 13.27
203 8 6.19261 14.1675 11.6242
204 7 7.21584 13.5161 14.7192
205 8 7.96 13.9864 13.9869
206 8 6.69334 12.7932 15.4169
207 7 6.15669 4.36152 13.3549
208 8 5.58981 4.71051 12.4348
209 8 6.80485 3.85549 14.2278
210 7 9.03912 4.15862 12.8436
211 8 9.32107 4.78495 13.7655
212 8 8.72963 3.24529 12.1563
213 7 3.50688 4.4984 5.31445
214 8 2.80271 3.71018 5.9327
215 8 4.04412 5.26021 4.63227
216 7 4.34209 2.12943 2.66877
217 8 4.4279 1.56982 1.58512
218 8 4.2744 2.48619 3.80097
219 7 2.26453 13.4975 4.52627
220 8 2.06034 13.559 5.6973
221 8 2.63616 13.501 3.42272
222 7 3.70568 15.7359 4.65675
223 8 4.55644 14.9298 4.50579
224 8 2.80729 16.4743 4.67649
ITEM: TIMESTEP
92
ITEM: NUMBER OF ATOMS
224
ITEM: BOX BOUNDS xy xz yz pp pp pp
-1.2928605033917329e-01 9.6917560591421310e+00 0.0000000000000000e+00
-2.8118967054792954e-01 1.9668188770547971e+01 6.4866980880296943e-01
-2.4747962961369829e-01 1.7310294729613680e+01 0.0000000000000000e+00
ITEM: ATOMS id type x y z
1 1 8.86054 0.254719 3.55457
2 1 4.95408 9.22507 4.6637
3 1 7.09746 5.29592 0.203804
4 1 6.69304 4.14782 8.04752
5 2 7.82682 8.63244 3.04654
6 2 6.22199 0.794942 5.29357
7 2 8.19041 3.59953 0.874079
8 2 5.44152 5.7552 7.21236
9 2 6.55008 8.19977 3.48127
10 2 7.38269 1.23793 4.83089
11 2 0.364029 3.26927 0.537096
12 2 4.26972 6.29127 7.74652
13 2 7.22025 6.64726 1.81566
14 2 6.61574 2.61766 6.68552
15 2 8.82633 1.70305 2.19773
16 2 4.74437 7.52826 5.79666
17 5 1.08301 0.537759 5.17916
18 5 3.61529 8.98855 3.12435
19 5 1.51571 5.2521 7.44202
20 5 3.15292 4.06586 0.896888
21 5 3.09423 0.0611346 5.62478
22 5 1.59215 9.4216 2.68103
23 5 8.68722 4.79178 7.03069
24 5 5.14922 4.48729 1.25977
25 3 8.153 7.64285 2.08417
26 3 5.75688 1.68621 6.32441
27 3 7.93917 2.64333 1.91314
28 3 5.71013 6.67531 6.20493
29 3 6.29303 7.02828 2.80705
30 3 7.64761 2.3295 5.72476
31 3 0.66048 2.18026 1.34059
32 3 3.91575 7.16958 6.83278
33 6 2.17175 0.102947 4.78809
34 6 2.49737 9.34488 3.48014
35 6 0.417782 4.82191 7.87059
36 6 4.25428 4.40083 0.496183
37 4 -0.00644999 7.42921 1.9299
38 4 4.79364 1.6254 6.8153
39 4 6.92881 2.36271 2.24328
40 4 6.60954 6.40888 5.53678
41 4 5.2387 6.71463 2.73085
42 4 8.66652 2.64174 5.96796
43 4 1.62441 1.6431 1.17608
44 4 2.92695 7.45373 6.91369
45 1 4.57796 0.266581 12.4022
46 1 0.795645 9.15235 13.3878
47 1 2.96061 5.13346 9.00858
48 1 2.4194 4.15164 16.7867
49 2 3.57601 8.06802 12.278
50 2 1.71651 0.857782 13.913
51 2 4.10624 3.67213 9.76685
52 2 1.38089 5.91773 16.2054
53 2 2.1926 8.12017 12.1534
54 2 3.03863 1.02364 13.8194
55 2 5.2737 3.26303 9.3137
56 2 9.29773 6.30134 16.6
57 2 3.21001 6.47314 10.8991
58 2 2.36192 2.67446 15.3579
59 2 4.50743 1.60095 10.8179
60 2 0.68924 7.62278 14.7158
61 5 5.81507 0.330958 13.8915
62 5 8.44419 9.22234 12.258
63 5 6.26899 5.60307 16.4102
64 5 8.28932 3.72616 9.53495
65 5 7.84846 0.0910766 14.3725
66 5 6.38001 9.58481 11.6395
67 5 4.2934 4.95273 15.8703
68 5 1.03292 4.49842 10.049
69 3 4.1072 6.93919 11.7105
70 3 1.42828 1.77433 14.9571
71 3 3.62009 2.61827 10.5996
72 3 1.77161 6.87486 15.2303
73 3 2.01993 6.85696 11.5977
74 3 3.29546 2.22087 14.4873
75 3 5.53305 2.08143 10.0689
76 3 8.95833 7.27645 15.6906
77 6 6.97671 0.0370901 13.5351
78 6 7.24382 9.24043 12.4524
79 6 5.1254 5.11961 16.7876
80 6 9.35612 4.27766 9.23721
81 4 5.1107 7.22218 11.3208
82 4 9.55922 1.92235 15.2641
83 4 2.85686 2.77482 11.3141
84 4 2.51944 6.45158 14.5699
85 4 1.00781 6.60525 11.2227
86 4 4.36232 2.42653 14.8374
87 4 6.3556 1.43972 9.82865
88 4 7.91551 7.76001 15.655
89 1 8.75896 10.227 3.63779
90 1 5.05228 19.128 4.61981
91 1 7.15645 15.1835 0.32269
92 1 6.69286 14.1143 8.03879
93 2 7.79276 18.6008 3.02697
94 2 5.94432 11.4018 4.80201
95 2 8.17205 13.4862 0.843562
96 2 5.51414 15.7721 7.36142
97 2 6.48012 18.2924 3.24754
98 2 7.27108 11.4604 4.73656
99 2 0.304399 13.1006 0.522975
100 2 4.33364 16.3334 7.82113
101 2 7.22319 16.7034 1.67027
102 2 6.67844 12.8897 6.42725
103 2 8.64029 11.6386 2.29576
104 2 5.09538 17.7722 6.08378
105 5 1.15946 10.5599 5.00087
106 5 3.57511 19.1658 3.05955
107 5 1.39345 15.4979 7.57227
108 5 3.23912 14.0307 0.761274
109 5 3.04378 10.0334 5.73916
110 5 1.52599 19.322 2.60359
111 5 8.57101 14.9758 7.07504
112 5 5.23173 14.4471 1.30497
113 3 8.15985 17.6889 2.00293
114 3 5.69976 11.9617 6.13565
115 3 7.77961 12.6954 1.89668
116 3 6.00056 16.8132 6.4381
117 3 6.29409 17.1262 2.58813
118 3 7.67862 12.5057 5.54134
119 3 0.476188 12.0282 1.39612
120 3 4.02448 17.4014 6.94972
121 6 2.28373 10.0979 4.79131
122 6 2.41489 19.5246 3.40389
123 6 0.278904 15.1642 7.85572
124 6 4.35221 14.4663 0.474149
125 4 0.0263632 17.3962 2.01264
126 4 4.71076 12.4011 6.43439
127 4 6.73284 12.6934 2.02866
128 4 6.91483 16.7224 5.75084
129 4 5.27612 16.7814 2.58028
130 4 8.5495 12.9496 5.40395
131 4 1.24179 11.3537 1.18408
132 4 3.34905 18.1444 7.30142
133 1 4.44979 10.1884 12.3632
134 1 0.737545 19.0721 13.5124
135 1 2.82577 15.0964 9.10469
136 1 2.36656 14.1478 16.7433
137 2 3.39371 18.5224 11.7972
138 2 1.87364 10.7025 14.1131
139 2 3.92797 13.6094 9.64824
140 2 1.34638 15.6995 16.1933
141 2 2.05489 18.2126 12.1145
142 2 3.13888 11.0935 13.7083
143 2 5.18022 13.119 9.16228
144 2 9.31091 16.1008 16.6063
145 2 2.94426 16.6401 10.5053
146 2 2.38112 12.7237 15.3391
147 2 4.75592 11.8802 11.1698
148 2 0.71247 17.7213 14.95
149 5 6.02603 10.3254 13.9361
150 5 8.53354 19.0826 11.9031
151 5 6.30961 15.6868 16.4482
152 5 8.30434 14.0183 9.44286
153 5 8.09222 10.0718 14.3389
154 5 6.46921 19.1997 11.4594
155 5 4.38813 15.1496 15.8639
156 5 1.10631 14.4577 9.99375
157 3 3.85461 17.544 11.0019
158 3 1.51757 11.6072 15.0976
159 3 3.75294 12.7948 10.8177
160 3 1.63284 16.7302 15.1506
161 3 1.9041 17.1602 11.2448
162 3 3.4019 12.204 14.5216
163 3 5.45762 11.9942 9.93836
164 3 8.93729 17.2457 15.8996
165 6 7.08761 9.79275 13.7467
166 6 7.36882 19.233 12.2447
167 6 5.2465 15.1715 16.7435
168 6 9.30874 14.6754 9.31684
169 4 4.89304 17.6656 10.6691
170 4 0.504059 11.4918 15.4377
171 4 3.23688 13.3159 11.5616
172 4 2.68441 17.0184 14.8776
173 4 1.0799 16.4618 11.4137
174 4 4.03842 12.9315 14.1569
175 4 6.55648 11.7584 9.97284
176 4 7.99591 17.6566 16.0599
177 7 2.87533 9.90676 9.6262
178 8 3.09723 9.4747 8.58862
179 8 2.37353 10.3495 10.5691
180 7 9.1562 11.6929 10.6455
181 8 8.47589 11.862 11.5615
182 8 0.662439 11.7196 9.68467
183 7 7.30532 6.64072 9.99088
184 8 7.37686 6.22573 8.87676
185 8 7.12707 7.00568 11.1379
186 7 1.79773 10.6419 7.92076
187 8 1.0143 9.78518 7.65608
188 8 2.61934 11.4297 8.18957
189 7 6.44608 9.15943 7.28826
190 8 7.22545 8.84489 6.42987
191 8 5.66291 9.16148 8.28996
192 7 0.178964 7.65015 6.86516
193 8 0.812544 7.32402 5.97523
194 8 8.51201 7.80548 7.61299
195 7 0.849701 8.36124 9.4622
196 8 0.78031 7.29002 9.03944
197 8 0.70102 9.32653 9.96739
198 7 7.90378 10.3718 8.63271
199 8 8.40228 11.1837 7.95457
200 8 7.55215 9.40145 9.24581
201 7 6.17604 14.8712 12.556
202 8 6.14469 15.7508 13.2711
203 8 6.19325 14.17 11.6273
204 7 7.22148 13.5133 14.7206
205 8 7.96177 13.988 13.9891
206 8 6.69699 12.7914 15.4156
207 7 6.15717 4.35822 13.3571
208 8 5.59017 4.70919 12.4382
209 8 6.80454 3.85325 14.229
210 7 9.04129 4.1545 12.8474
211 8 9.32381 4.7849 13.7653
212 8 8.73029 3.24366 12.1599
213 7 3.50183 4.49537 5.31356
214 8 2.80117 3.70793 5.93208
215 8 4.04047 5.25444 4.62753
216 7 4.34314 2.12412 2.66658
217 8 4.42981 1.56681 1.58378
218 8 4.27476 2.48302 3.79784
219 7 2.265 13.4967 4.52552
220 8 2.06052 13.5581 5.69531
221 8 2.63512 13.5 3.42157
222 7 3.70451 15.7372 4.65219
223 8 4.55132 14.9292 4.50048
224 8 2.80861 16.4769 4.67443
ITEM: TIMESTEP
93
ITEM: NUMBER OF ATOMS
224
ITEM: BOX BOUNDS xy xz yz pp pp pp
-1.3087426822712800e-01 9.6935689144433859e+00 0.0000000000000000e+00
-2.8464395245615393e-01 1.9671643052456197e+01 6.4889444621626780e-01
-2.5051979963688176e-01 1.7313334899636864e+01 0.0000000000000000e+00
ITEM: ATOMS id type x y z
1 1 8.86289 0.251382 3.55239
2 1 4.95328 9.22606 4.66201
3 1 7.09769 5.29457 0.20039
4 1 6.69441 4.14584 8.04791
5 2 7.82727 8.63083 3.0458
6 2 6.22196 0.790422 5.29312
7 2 8.1928 3.59751 0.871563
8 2 5.43713 5.75353 7.20961
9 2 6.55153 8.20037 3.4796
10 2 7.38338 1.23491 4.83141
11 2 0.36195 3.26745 0.535501
12 2 4.26906 6.28995 7.743
13 2 7.22209 6.64481 1.81518
14 2 6.61766 2.61569 6.68475
15 2 8.82854 1.70006 2.19443
16 2 4.74376 7.52552 5.79631
17 5 1.08255 0.534749 5.17801
18 5 3.614 8.98897 3.12203
19 5 1.51646 5.24644 7.44211
20 5 3.15271 4.06577 0.894529
21 5 3.09165 0.0579433 5.62144
22 5 1.59331 9.42167 2.68041
23 5 8.69009 4.78707 7.03028
24 5 5.14813 4.48676 1.25655
25 3 8.1539 7.64147 2.08238
26 3 5.7608 1.68229 6.32163
27 3 7.94261 2.63997 1.91043
28 3 5.70527 6.67248 6.20199
29 3 6.29536 7.02682 2.80501
30 3 7.64749 2.32891 5.72651
31 3 0.658674 2.17765 1.33895
32 3 3.91548 7.16744 6.8285
33 6 2.17341 0.0996632 4.7874
34 6 2.49584 9.34583 3.47988
35 6 0.414563 4.81557 7.86798
36 6 4.25497 4.39976 0.495175
37 4 -0.0101638 7.43185 1.93322
38 4 4.79844 1.61758 6.81146
39 4 6.9292 2.36017 2.23663
40 4 6.59356 6.39942 5.5224
41 4 5.24031 6.71303 2.7344
42 4 8.66945 2.63721 5.96114
43 4 1.6224 1.63742 1.17391
44 4 2.9259 7.44382 6.91628
45 1 4.57846 0.262907 12.4037
46 1 0.794189 9.15231 13.3889
47 1 2.96056 5.13076 9.00841
48 1 2.41908 4.15001 16.79
49 2 3.57472 8.06013 12.2844
50 2 1.71661 0.856549 13.9172
51 2 4.10694 3.66889 9.76844
52 2 1.37864 5.9183 16.2073
53 2 2.19554 8.11577 12.1574
54 2 3.03723 1.02186 13.8222
55 2 5.27378 3.25884 9.31584
56 2 9.29965 6.3005 16.6015
57 2 3.21271 6.46672 10.9072
58 2 2.3605 2.67027 15.3575
59 2 4.50764 1.59727 10.8178
60 2 0.68801 7.62294 14.7181
61 5 5.81586 0.325645 13.8928
62 5 8.44289 9.22455 12.2601
63 5 6.26634 5.60278 16.4142
64 5 8.29349 3.72143 9.53479
65 5 7.8484 0.088448 14.3745
66 5 6.38194 9.58698 11.6448
67 5 4.29458 4.95071 15.8744
68 5 1.0321 4.49771 10.0493
69 3 4.10481 6.93615 11.7174
70 3 1.42669 1.77076 14.9576
71 3 3.62295 2.61662 10.5988
72 3 1.769 6.87324 15.2333
73 3 2.02252 6.8542 11.6017
74 3 3.29441 2.216 14.4904
75 3 5.53295 2.08085 10.0677
76 3 8.96202 7.27634 15.6917
77 6 6.97629 0.0327547 13.5349
78 6 7.24346 9.24085 12.4574
79 6 5.12363 5.11829 16.7906
80 6 9.36084 4.27404 9.23802
81 4 5.10782 7.20822 11.339
82 4 9.56087 1.926 15.261
83 4 2.86138 2.76857 11.3109
84 4 2.51703 6.4528 14.5751
85 4 1.015 6.60188 11.2185
86 4 4.36344 2.42111 14.843
87 4 6.34768 1.4286 9.8306
88 4 7.91346 7.75727 15.6596
89 1 8.76036 10.2272 3.63635
90 1 5.05251 19.1316 4.61784
91 1 7.15724 15.1849 0.320055
92 1 6.69403 14.1159 8.03891
93 2 7.79271 18.6027 3.02348
94 2 5.94622 11.4042 4.79947
95 2 8.17415 13.4866 0.842439
96 2 5.51365 15.7753 7.36082
97 2 6.48264 18.2946 3.24388
98 2 7.26977 11.4641 4.73383
99 2 0.30061 13.101 0.521393
100 2 4.33272 16.3346 7.82155
101 2 7.22529 16.7048 1.66894
102 2 6.67962 12.8947 6.42464
103 2 8.64083 11.6381 2.29268
104 2 5.09597 17.7775 6.08357
105 5 1.15967 10.562 4.99822
106 5 3.57216 19.1724 3.05685
107 5 1.39215 15.5013 7.57115
108 5 3.23937 14.0334 0.758566
109 5 3.04293 10.0329 5.73645
110 5 1.52533 19.3256 2.60251
111 5 8.57337 14.9772 7.07544
112 5 5.23226 14.4501 1.3028
113 3 8.16091 17.6928 2.00183
114 3 5.70098 11.9695 6.12871
115 3 7.78025 12.6971 1.89344
116 3 5.9996 16.8181 6.43797
117 3 6.29528 17.1321 2.58654
118 3 7.67715 12.5098 5.53872
119 3 0.474155 12.0278 1.39431
120 3 4.02722 17.4067 6.94995
121 6 2.2834 10.0979 4.78852
122 6 2.41638 19.5289 3.402
123 6 0.275968 15.1667 7.85899
124 6 4.35167 14.4685 0.471361
125 4 0.0215271 17.3978 2.01282
126 4 4.70738 12.403 6.43107
127 4 6.73675 12.6915 2.02259
128 4 6.91734 16.7212 5.74931
129 4 5.2788 16.7837 2.57037
130 4 8.54258 12.9491 5.40021
131 4 1.23754 11.357 1.17883
132 4 3.3543 18.1458 7.30658
133 1 4.44966 10.1878 12.3651
134 1 0.735295 19.0752 13.5142
135 1 2.82436 15.0972 9.105
136 1 2.36598 14.1495 16.746
137 2 3.39208 18.524 11.7981
138 2 1.87453 10.7024 14.1166
139 2 3.93007 13.6122 9.64929
140 2 1.34456 15.7026 16.195
141 2 2.05703 18.2141 12.1133
142 2 3.13729 11.0931 13.7105
143 2 5.17955 13.1196 9.16147
144 2 9.31142 16.1025 16.6092
145 2 2.94291 16.6425 10.5086
146 2 2.38083 12.7246 15.341
147 2 4.7567 11.8808 11.1712
148 2 0.71079 17.7254 14.9532
149 5 6.0258 10.3254 13.9392
150 5 8.53347 19.088 11.904
151 5 6.30988 15.6916 16.4532
152 5 8.30714 14.0201 9.44365
153 5 8.09458 10.0726 14.3402
154 5 6.47076 19.2014 11.4609
155 5 4.38748 15.1522 15.8673
156 5 1.1049 14.4617 9.99289
157 3 3.85079 17.5478 11.0053
158 3 1.51705 11.6066 15.0995
159 3 3.75453 12.7983 10.8211
160 3 1.63203 16.7311 15.1539
161 3 1.90418 17.1622 11.2444
162 3 3.40121 12.2062 14.5243
163 3 5.45804 11.9937 9.9378
164 3 8.93841 17.2476 15.9036
165 6 7.0879 9.79014 13.7502
166 6 7.36929 19.2365 12.2478
167 6 5.24674 15.1768 16.7468
168 6 9.31205 14.6816 9.31603
169 4 4.88991 17.6655 10.6737
170 4 0.505191 11.4936 15.4354
171 4 3.24215 13.3191 11.561
172 4 2.68392 17.0238 14.8797
173 4 1.0767 16.4675 11.4143
174 4 4.03786 12.9275 14.1523
175 4 6.56071 11.759 9.97249
176 4 8.00317 17.6603 16.0659
177 7 2.87092 9.91054 9.62338
178 8 3.09734 9.4813 8.58599
179 8 2.37422 10.3484 10.5685
180 7 9.1566 11.6946 10.6456
181 8 8.47846 11.869 11.563
182 8 0.660932 11.7161 9.68531
183 7 7.30609 6.64038 9.99183
184 8 7.37723 6.22557 8.87557
185 8 7.12804 7.00051 11.1404
186 7 1.7966 10.6439 7.91932
187 8 1.01478 9.78571 7.65758
188 8 2.61882 11.4338 8.18414
189 7 6.44819 9.15682 7.28908
190 8 7.22547 8.8449 6.43256
191 8 5.66298 9.16776 8.28846
192 7 0.177911 7.64768 6.86193
193 8 0.810435 7.32405 5.97113
194 8 8.51523 7.80284 7.60924
195 7 0.8464 8.35996 9.46027
196 8 0.778314 7.28982 9.04012
197 8 0.699274 9.32765 9.96933
198 7 7.90837 10.3705 8.63488
199 8 8.40414 11.1864 7.95665
200 8 7.55396 9.40104 9.24693
201 7 6.1762 14.8769 12.5545
202 8 6.14559 15.7561 13.2722
203 8 6.19389 14.1725 11.6304
204 7 7.22718 13.5104 14.7218
205 8 7.96357 13.9895 13.9912
206 8 6.70057 12.7894 15.4143
207 7 6.15774 4.35483 13.3594
208 8 5.5905 4.7079 12.4415
209 8 6.80417 3.85106 14.23
210 7 9.04343 4.15027 12.8511
211 8 9.32657 4.78488 13.7652
212 8 8.73094 3.24208 12.1635
213 7 3.49666 4.49226 5.31274
214 8 2.79973 3.70575 5.9314
215 8 4.03682 5.24866 4.62277
216 7 4.3442 2.11875 2.66435
217 8 4.43171 1.56388 1.58255
218 8 4.27511 2.47985 3.79464
219 7 2.26549 13.4959 4.52484
220 8 2.06071 13.557 5.69327
221 8 2.63406 13.4989 3.42044
222 7 3.70337 15.7384 4.6476
223 8 4.5462 14.9287 4.49519
224 8 2.80993 16.4795 4.67238
ITEM: TIMESTEP
94
ITEM: NUMBER OF ATOMS
224
ITEM: BOX BOUNDS xy xz yz pp pp pp
-1.3245532963528994e-01 9.6953736010529070e+00 0.0000000000000000e+00
-2.8808266943537042e-01 1.9675081769435415e+01 6.4911807141762656e-01
-2.5354627071138580e-01 1.7316361370711370e+01 0.0000000000000000e+00
ITEM: ATOMS id type x y z
1 1 8.86523 0.248066 3.55022
2 1 4.95249 9.22705 4.66032
3 1 7.09793 5.29322 0.196998
4 1 6.69578 4.14387 8.0483
5 2 7.82768 8.62915 3.04506
6 2 6.22183 0.785925 5.29273
7 2 8.19525 3.59544 0.869097
8 2 5.43272 5.75192 7.20684
9 2 6.55299 8.20097 3.47789
10 2 7.38415 1.23197 4.832
11 2 0.359828 3.26564 0.533947
12 2 4.26844 6.28852 7.73947
13 2 7.22393 6.64239 1.81478
14 2 6.61966 2.61375 6.68394
15 2 8.83082 1.69708 2.19109
16 2 4.74315 7.5228 5.79603
17 5 1.08209 0.531729 5.17681
18 5 3.61271 8.98939 3.11974
19 5 1.51717 5.24077 7.44227
20 5 3.15249 4.0657 0.892151
21 5 3.08909 0.0547563 5.61808
22 5 1.59445 9.42174 2.67978
23 5 8.69293 4.78234 7.02988
24 5 5.1471 4.48624 1.25336
25 3 8.15476 7.64013 2.08061
26 3 5.7647 1.67833 6.31879
27 3 7.94595 2.63668 1.9077
28 3 5.70053 6.66959 6.19904
29 3 6.29768 7.02538 2.80291
30 3 7.6473 2.32828 5.72829
31 3 0.656878 2.17503 1.33734
32 3 3.9152 7.16536 6.82423
33 6 2.17507 0.096437 4.78686
34 6 2.49435 9.34676 3.47958
35 6 0.4114 4.8093 7.8652
36 6 4.25563 4.39867 0.494238
37 4 -0.0133849 7.43441 1.93637
38 4 4.80317 1.60964 6.8076
39 4 6.92965 2.35795 2.2298
40 4 6.57697 6.3902 5.50838
41 4 5.24213 6.71133 2.73799
42 4 8.67234 2.63266 5.95414
43 4 1.62007 1.63185 1.17186
44 4 2.92442 7.43438 6.91873
45 1 4.57895 0.259241 12.4053
46 1 0.792736 9.15227 13.39
47 1 2.96051 5.12807 9.00825
48 1 2.41877 4.1484 16.7933
49 2 3.5734 8.05232 12.2907
50 2 1.71668 0.855343 13.9215
51 2 4.10753 3.66562 9.77007
52 2 1.37641 5.9189 16.2091
53 2 2.19849 8.11125 12.1615
54 2 3.03589 1.02016 13.8251
55 2 5.27393 3.25458 9.31798
56 2 9.30152 6.29967 16.603
57 2 3.21526 6.46026 10.9153
58 2 2.35907 2.66607 15.3572
59 2 4.50785 1.59363 10.8177
60 2 0.686851 7.6231 14.7206
61 5 5.81668 0.320326 13.8941
62 5 8.44158 9.22675 12.2622
63 5 6.26361 5.60247 16.4182
64 5 8.29767 3.71673 9.53459
65 5 7.84837 0.0858315 14.3764
66 5 6.38387 9.58914 11.6501
67 5 4.29576 4.94869 15.8785
68 5 1.03133 4.49701 10.0497
69 3 4.10251 6.93325 11.7243
70 3 1.42505 1.76716 14.9582
71 3 3.62587 2.61501 10.5979
72 3 1.76635 6.87156 15.2364
73 3 2.02514 6.8515 11.6056
74 3 3.29346 2.21113 14.4935
75 3 5.53283 2.08033 10.0665
76 3 8.96564 7.27628 15.6928
77 6 6.97585 0.0284578 13.5349
78 6 7.24312 9.24128 12.4624
79 6 5.12195 5.11704 16.7934
80 6 9.3655 4.27038 9.23889
81 4 5.10398 7.19396 11.3575
82 4 9.56258 1.92968 15.2579
83 4 2.86552 2.76244 11.3079
84 4 2.51471 6.45427 14.58
85 4 1.02248 6.59854 11.2145
86 4 4.36401 2.41555 14.8482
87 4 6.33994 1.41742 9.8324
88 4 7.91208 7.75415 15.6643
89 1 8.76175 10.2273 3.63491
90 1 5.05273 19.1352 4.61588
91 1 7.15802 15.1862 0.31743
92 1 6.69518 14.1174 8.03902
93 2 7.79267 18.6046 3.01993
94 2 5.94804 11.4065 4.79711
95 2 8.17627 13.487 0.841348
96 2 5.51321 15.7788 7.36014
97 2 6.48516 18.2967 3.24026
98 2 7.26855 11.4677 4.73112
99 2 0.296787 13.1014 0.519856
100 2 4.33179 16.3357 7.82195
101 2 7.22742 16.7062 1.66767
102 2 6.6808 12.8998 6.42201
103 2 8.64135 11.6376 2.2895
104 2 5.0965 17.7828 6.08342
105 5 1.1599 10.5642 4.99557
106 5 3.56917 19.1789 3.0542
107 5 1.39088 15.5047 7.57002
108 5 3.23962 14.036 0.755848
109 5 3.04212 10.0324 5.7337
110 5 1.52463 19.3293 2.60146
111 5 8.57569 14.9785 7.07583
112 5 5.23282 14.4531 1.30065
113 3 8.16195 17.6967 2.00076
114 3 5.70221 11.9775 6.12166
115 3 7.78093 12.6987 1.89021
116 3 5.99865 16.8228 6.43785
117 3 6.29643 17.138 2.58492
118 3 7.67554 12.5138 5.53613
119 3 0.47211 12.0275 1.39252
120 3 4.03005 17.4118 6.95019
121 6 2.283 10.0979 4.78581
122 6 2.41798 19.5331 3.4
123 6 0.273088 15.1692 7.8623
124 6 4.35109 14.4706 0.468664
125 4 0.0168144 17.3994 2.01287
126 4 4.70419 12.4044 6.42746
127 4 6.74029 12.6893 2.01682
128 4 6.91934 16.7198 5.74837
129 4 5.28139 16.7858 2.56034
130 4 8.53671 12.9493 5.39642
131 4 1.23373 11.3599 1.17352
132 4 3.35933 18.1474 7.31178
133 1 4.44954 10.1872 12.3669
134 1 0.73304 19.0783 13.5161
135 1 2.82296 15.098 9.1053
136 1 2.36542 14.1512 16.7487
137 2 3.39041 18.5256 11.799
138 2 1.87544 10.7022 14.1201
139 2 3.93226 13.6149 9.65041
140 2 1.3428 15.7058 16.1966
141 2 2.05924 18.2157 12.1121
142 2 3.13568 11.0928 13.7126
143 2 5.17883 13.1203 9.1607
144 2 9.31184 16.1043 16.612
145 2 2.94156 16.645 10.512
146 2 2.38053 12.7254 15.3428
147 2 4.75744 11.8815 11.1724
148 2 0.709078 17.7296 14.9565
149 5 6.02554 10.3254 13.9423
150 5 8.53338 19.0933 11.905
151 5 6.31016 15.6963 16.4582
152 5 8.30991 14.022 9.44447
153 5 8.09697 10.0734 14.3415
154 5 6.47226 19.2031 11.4624
155 5 4.3868 15.1548 15.8707
156 5 1.10353 14.4657 9.99206
157 3 3.847 17.5516 11.0085
158 3 1.51657 11.606 15.1013
159 3 3.75615 12.8018 10.8244
160 3 1.63126 16.732 15.1571
161 3 1.90421 17.1641 11.244
162 3 3.40048 12.2083 14.527
163 3 5.45852 11.9933 9.9373
164 3 8.93963 17.2496 15.9075
165 6 7.08813 9.78755 13.7537
166 6 7.36975 19.2401 12.2508
167 6 5.24697 15.1821 16.7499
168 6 9.31529 14.6876 9.31519
169 4 4.88659 17.665 10.6781
170 4 0.506219 11.4958 15.4333
171 4 3.24709 13.3223 11.5609
172 4 2.6831 17.0289 14.8821
173 4 1.07346 16.4734 11.4148
174 4 4.03783 12.9238 14.1475
175 4 6.56433 11.7595 9.97208
176 4 8.00992 17.6645 16.0718
177 7 2.86651 9.91432 9.62066
178 8 3.09757 9.48775 8.58338
179 8 2.37501 10.3472 10.568
180 7 9.15704 11.6963 10.6455
181 8 8.48102 11.876 11.5645
182 8 0.659407 11.7126 9.68602
183 7 7.30683 6.64005 9.9928
184 8 7.37758 6.22546 8.8745
185 8 7.12908 6.99527 11.1428
186 7 1.79542 10.6459 7.91782
187 8 1.01531 9.78629 7.65906
188 8 2.61825 11.4379 8.17866
189 7 6.45021 9.15413 7.29
190 8 7.22538 8.84501 6.43527
191 8 5.6631 9.17404 8.28678
192 7 0.176829 7.6452 6.85868
193 8 0.808386 7.32408 5.96697
194 8 8.51842 7.8002 7.60553
195 7 0.843069 8.35851 9.45827
196 8 0.776395 7.2896 9.04084
197 8 0.697483 9.32886 9.97134
198 7 7.913 10.3691 8.63707
199 8 8.4059 11.1892 7.95874
200 8 7.55581 9.40073 9.24803
201 7 6.17637 14.8825 12.5529
202 8 6.14648 15.7615 13.2734
203 8 6.19455 14.175 11.6335
204 7 7.23292 13.5075 14.7231
205 8 7.9654 13.9911 13.9933
206 8 6.70408 12.7875 15.4131
207 7 6.1584 4.35137 13.3618
208 8 5.5908 4.70664 12.4448
209 8 6.80376 3.84891 14.231
210 7 9.04554 4.14592 12.8548
211 8 9.32932 4.78492 13.765
212 8 8.7316 3.24055 12.1671
213 7 3.49138 4.48906 5.31198
214 8 2.79837 3.70364 5.93066
215 8 4.03317 5.24286 4.61802
216 7 4.34527 2.11332 2.66209
217 8 4.43361 1.56103 1.58143
218 8 4.27547 2.47669 3.79138
219 7 2.26601 13.4951 4.52422
220 8 2.06089 13.556 5.69118
221 8 2.63298 13.4978 3.41932
222 7 3.70226 15.7396 4.64299
223 8 4.54107 14.9282 4.48994
224 8 2.81124 16.4821 4.67032
ITEM: TIMESTEP
95
ITEM: NUMBER OF ATOMS
224
ITEM: BOX BOUNDS xy xz yz pp pp pp
-1.3402958633372997e-01 9.6971705204950975e+00 0.0000000000000000e+00
-2.9150658656510586e-01 1.9678505686565153e+01 6.4934073416137683e-01
-2.5655971619622164e-01 1.7319374816196209e+01 0.0000000000000000e+00
ITEM: ATOMS id type x y z
1 1 8.86756 0.244769 3.54806
2 1 4.95169 9.22805 4.65863
3 1 7.09816 5.29188 0.193626
4 1 6.69715 4.14191 8.04869
5 2 7.82803 8.62738 3.04432
6 2 6.22159 0.781452 5.29241
7 2 8.19774 3.59331 0.866679
8 2 5.42827 5.75036 7.20406
9 2 6.55447 8.20158 3.47616
10 2 7.38501 1.22911 4.83267
11 2 0.357667 3.26384 0.532434
12 2 4.26786 6.28699 7.73594
13 2 7.22575 6.64002 1.81443
14 2 6.62176 2.61185 6.68308
15 2 8.83316 1.6941 2.18772
16 2 4.74255 7.52011 5.79579
17 5 1.08166 0.528698 5.17558
18 5 3.61141 8.98982 3.11749
19 5 1.51784 5.2351 7.44251
20 5 3.15226 4.06563 0.889752
21 5 3.08654 0.0515726 5.61468
22 5 1.59555 9.42182 2.67916
23 5 8.69575 4.77761 7.02952
24 5 5.14614 4.48574 1.25021
25 3 8.15557 7.63883 2.07889
26 3 5.76861 1.67432 6.3159
27 3 7.9492 2.63346 1.90495
28 3 5.6959 6.66662 6.19607
29 3 6.29997 7.02396 2.80076
30 3 7.64705 2.32761 5.73007
31 3 0.655094 2.17241 1.33573
32 3 3.9149 7.16335 6.81995
33 6 2.17671 0.0932684 4.78646
34 6 2.49289 9.34768 3.47924
35 6 0.408305 4.80307 7.86225
36 6 4.25625 4.39756 0.493366
37 4 -0.0160904 7.4369 1.93934
38 4 4.8078 1.60158 6.80373
39 4 6.93018 2.35606 2.22281
40 4 6.55978 6.38122 5.49473
41 4 5.24417 6.70954 2.74162
42 4 8.67519 2.62809 5.94695
43 4 1.61739 1.6264 1.16993
44 4 2.92251 7.42543 6.921
45 1 4.57943 0.255582 12.4068
46 1 0.791284 9.15223 13.3911
47 1 2.96047 5.1254 9.00809
48 1 2.41846 4.1468 16.7965
49 2 3.57206 8.0446 12.2971
50 2 1.71673 0.85416 13.9258
51 2 4.10801 3.66233 9.77172
52 2 1.37419 5.91951 16.2109
53 2 2.20146 8.1066 12.1656
54 2 3.03462 1.01853 13.8278
55 2 5.27416 3.25025 9.32012
56 2 9.30335 6.29884 16.6045
57 2 3.21767 6.45376 10.9233
58 2 2.35764 2.66188 15.3568
59 2 4.50807 1.59002 10.8176
60 2 0.685765 7.62325 14.7231
61 5 5.81753 0.315002 13.8953
62 5 8.44027 9.22895 12.2641
63 5 6.26079 5.60212 16.4223
64 5 8.30185 3.71204 9.53436
65 5 7.84839 0.0832263 14.3784
66 5 6.3858 9.59128 11.6553
67 5 4.29694 4.94667 15.8826
68 5 1.03061 4.49631 10.05
69 3 4.1003 6.93049 11.7311
70 3 1.42336 1.76354 14.9587
71 3 3.62884 2.61345 10.597
72 3 1.76364 6.86984 15.2395
73 3 2.0278 6.84884 11.6095
74 3 3.29261 2.20627 14.4967
75 3 5.53271 2.07986 10.0652
76 3 8.96917 7.27629 15.6939
77 6 6.97539 0.0242 13.5349
78 6 7.24279 9.24172 12.4674
79 6 5.12036 5.11588 16.796
80 6 9.37009 4.26669 9.2398
81 4 5.09929 7.17944 11.376
82 4 9.56436 1.93336 15.2546
83 4 2.86924 2.75644 11.305
84 4 2.5125 6.45596 14.5849
85 4 1.03022 6.59523 11.2107
86 4 4.36399 2.40985 14.853
87 4 6.3324 1.40623 9.83403
88 4 7.91141 7.75063 15.6692
89 1 8.76313 10.2275 3.63348
90 1 5.05295 19.1388 4.61393
91 1 7.1588 15.1876 0.314815
92 1 6.69633 14.119 8.03912
93 2 7.79266 18.6064 3.01633
94 2 5.94977 11.4087 4.79493
95 2 8.17842 13.4874 0.840288
96 2 5.51282 15.7823 7.35939
97 2 6.48768 18.2989 3.23668
98 2 7.26743 11.4713 4.72842
99 2 0.292931 13.1018 0.518363
100 2 4.33083 16.3367 7.82232
101 2 7.22956 16.7076 1.66646
102 2 6.68199 12.9048 6.41938
103 2 8.64187 11.6372 2.28624
104 2 5.09697 17.788 6.08334
105 5 1.16015 10.5664 4.99292
106 5 3.56617 19.1855 3.05158
107 5 1.38963 15.508 7.56888
108 5 3.23987 14.0387 0.753121
109 5 3.04136 10.0318 5.7309
110 5 1.5239 19.333 2.60045
111 5 8.57796 14.9798 7.0762
112 5 5.2334 14.4561 1.29849
113 3 8.16297 17.7005 1.99973
114 3 5.70342 11.9856 6.1145
115 3 7.78165 12.7003 1.88701
116 3 5.99771 16.8274 6.43773
117 3 6.29754 17.1439 2.58326
118 3 7.67379 12.5177 5.53356
119 3 0.47005 12.0271 1.39077
120 3 4.03298 17.4169 6.95044
121 6 2.28252 10.098 4.78317
122 6 2.41966 19.5372 3.3979
123 6 0.27027 15.1716 7.86565
124 6 4.35049 14.4727 0.466058
125 4 0.0122485 17.4009 2.01278
126 4 4.70123 12.4053 6.42355
127 4 6.74343 12.6869 2.01136
128 4 6.92077 16.7183 5.74803
129 4 5.28388 16.7876 2.55019
130 4 8.53193 12.9502 5.39256
131 4 1.23038 11.3625 1.16813
132 4 3.36414 18.1492 7.31701
133 1 4.44944 10.1867 12.3687
134 1 0.730783 19.0814 13.5179
135 1 2.82156 15.0988 9.10559
136 1 2.36486 14.1528 16.7513
137 2 3.38872 18.5272 11.8
138 2 1.87637 10.7021 14.1237
139 2 3.93454 13.6175 9.6516
140 2 1.34111 15.709 16.198
141 2 2.06153 18.2172 12.1109
142 2 3.13405 11.0925 13.7148
143 2 5.17807 13.1209 9.16
144 2 9.31216 16.1061 16.6149
145 2 2.94021 16.6474 10.5155
146 2 2.38021 12.7262 15.3446
147 2 4.75812 11.8821 11.1735
148 2 0.707334 17.7336 14.9599
149 5 6.02526 10.3255 13.9454
150 5 8.5333 19.0986 11.9059
151 5 6.31045 15.7011 16.4631
152 5 8.31267 14.0238 9.44531
153 5 8.09938 10.0743 14.3428
154 5 6.47373 19.2047 11.4638
155 5 4.3861 15.1573 15.8742
156 5 1.10219 14.4697 9.99124
157 3 3.84325 17.5554 11.0116
158 3 1.51613 11.6054 15.1031
159 3 3.75778 12.8052 10.8275
160 3 1.63052 16.7328 15.1605
161 3 1.90418 17.1659 11.2437
162 3 3.3997 12.2105 14.5297
163 3 5.45906 11.9929 9.93687
164 3 8.94094 17.2515 15.9113
165 6 7.08832 9.78499 13.7573
166 6 7.37019 19.2437 12.2538
167 6 5.24717 15.1874 16.7529
168 6 9.31846 14.6937 9.31431
169 4 4.88308 17.6643 10.6824
170 4 0.507108 11.4982 15.4315
171 4 3.25168 13.3256 11.5614
172 4 2.68194 17.0336 14.8845
173 4 1.07019 16.4795 11.4154
174 4 4.03833 12.9204 14.1425
175 4 6.5673 11.7599 9.97163
176 4 8.01615 17.669 16.0778
177 7 2.86209 9.91808 9.61803
178 8 3.0979 9.49406 8.5808
179 8 2.3759 10.3461 10.5675
180 7 9.15752 11.698 10.6454
181 8 8.48357 11.883 11.566
182 8 0.657863 11.7091 9.68679
183 7 7.30755 6.63973 9.99378
184 8 7.37791 6.22541 8.87355
185 8 7.13019 6.98997 11.145
186 7 1.79419 10.648 7.91626
187 8 1.01589 9.78693 7.6605
188 8 2.61762 11.4422 8.17311
189 7 6.45215 9.15138 7.291
190 8 7.22519 8.84521 6.438
191 8 5.66327 9.18031 8.28494
192 7 0.17572 7.6427 6.85542
193 8 0.806399 7.3241 5.96274
194 8 8.52158 7.79757 7.60184
195 7 0.839705 8.35691 9.45623
196 8 0.774553 7.28934 9.0416
197 8 0.695647 9.33014 9.97343
198 7 7.91768 10.3677 8.63928
199 8 8.40758 11.1919 7.96084
200 8 7.55771 9.40052 9.24912
201 7 6.17653 14.8882 12.5512
202 8 6.14736 15.7669 13.2746
203 8 6.19522 14.1775 11.6366
204 7 7.23872 13.5046 14.7243
205 8 7.96725 13.9928 13.9954
206 8 6.70752 12.7855 15.4119
207 7 6.15915 4.34782 13.3643
208 8 5.59107 4.70541 12.448
209 8 6.8033 3.84681 14.232
210 7 9.04762 4.14147 12.8586
211 8 9.33209 4.785 13.7648
212 8 8.73226 3.23907 12.1707
213 7 3.486 4.48578 5.31127
214 8 2.79711 3.70158 5.92986
215 8 4.02952 5.23704 4.61326
216 7 4.34634 2.10783 2.6598
217 8 4.43549 1.55824 1.58042
218 8 4.27583 2.47353 3.78806
219 7 2.26654 13.4943 4.52367
220 8 2.06108 13.555 5.68903
221 8 2.63187 13.4967 3.41823
222 7 3.70118 15.7408 4.63836
223 8 4.53592 14.9277 4.48471
224 8 2.81256 16.4847 4.66828
ITEM: TIMESTEP
96
ITEM: NUMBER OF ATOMS
224
ITEM: BOX BOUNDS xy xz yz pp pp pp
-1.3559740598856429e-01 9.6989600924387389e+00 0.0000000000000000e+00
-2.9491650349786980e-01 1.9681915603497913e+01 6.4956248645018522e-01
-2.5956083987864176e-01 1.7322375939878629e+01 0.0000000000000000e+00
ITEM: ATOMS id type x y z
1 1 8.86988 0.24149 3.54591
2 1 4.9509 9.22906 4.65694
3 1 7.0984 5.29054 0.190275
4 1 6.69851 4.13995 8.04908
5 2 7.82835 8.62555 3.04357
6 2 6.22125 0.777002 5.29214
7 2 8.20028 3.59113 0.86431
8 2 5.4238 5.74884 7.20126
9 2 6.55596 8.20219 3.47439
10 2 7.38594 1.22633 4.83341
11 2 0.355467 3.26204 0.53096
12 2 4.26732 6.28535 7.73241
13 2 7.22757 6.63769 1.81415
14 2 6.62393 2.60998 6.68217
15 2 8.83557 1.69114 2.18431
16 2 4.74195 7.51744 5.7956
17 5 1.08124 0.525655 5.17431
18 5 3.61011 8.99025 3.11526
19 5 1.51847 5.22941 7.44283
20 5 3.15202 4.06557 0.887333
21 5 3.08402 0.0483912 5.61126
22 5 1.59662 9.42189 2.67854
23 5 8.69853 4.77287 7.02917
24 5 5.14524 4.48526 1.24711
25 3 8.15633 7.63757 2.07721
26 3 5.7725 1.67026 6.31295
27 3 7.95237 2.6303 1.90217
28 3 5.69141 6.66359 6.19309
29 3 6.30224 7.02256 2.79855
30 3 7.64673 2.32689 5.73186
31 3 0.653323 2.16978 1.33414
32 3 3.91459 7.16139 6.81569
33 6 2.17833 0.0901574 4.7862
34 6 2.49148 9.34856 3.47886
35 6 0.405288 4.7969 7.85914
36 6 4.25684 4.39644 0.492553
37 4 -0.018264 7.43928 1.94213
38 4 4.81235 1.59341 6.79987
39 4 6.9308 2.35448 2.21566
40 4 6.54202 6.37248 5.48147
41 4 5.24643 6.70763 2.74528
42 4 8.67798 2.62352 5.93962
43 4 1.61438 1.62106 1.16812
44 4 2.92016 7.41696 6.92307
45 1 4.57991 0.25193 12.4083
46 1 0.789834 9.15219 13.3921
47 1 2.96043 5.12275 9.00794
48 1 2.41815 4.14521 16.7998
49 2 3.5707 8.03696 12.3035
50 2 1.71674 0.852996 13.9302
51 2 4.10839 3.65902 9.77341
52 2 1.37199 5.92015 16.2126
53 2 2.20444 8.10184 12.1697
54 2 3.03342 1.01697 13.8306
55 2 5.27446 3.24584 9.32225
56 2 9.30512 6.29801 16.6059
57 2 3.21993 6.44721 10.9313
58 2 2.3562 2.65769 15.3563
59 2 4.5083 1.58647 10.8176
60 2 0.684752 7.62339 14.7256
61 5 5.81841 0.309672 13.8964
62 5 8.43896 9.23115 12.266
63 5 6.25789 5.60173 16.4264
64 5 8.30604 3.70739 9.53411
65 5 7.84843 0.0806313 14.3803
66 5 6.38772 9.59341 11.6606
67 5 4.2981 4.94465 15.8867
68 5 1.02995 4.49563 10.0504
69 3 4.09817 6.92786 11.7379
70 3 1.42163 1.75989 14.9592
71 3 3.63186 2.61193 10.596
72 3 1.76089 6.86806 15.2426
73 3 2.03048 6.84622 11.6133
74 3 3.29186 2.20143 14.4999
75 3 5.53257 2.07943 10.064
76 3 8.97262 7.27635 15.695
77 6 6.97492 0.0199819 13.535
78 6 7.24248 9.24218 12.4724
79 6 5.11885 5.1148 16.7984
80 6 9.37462 4.26296 9.24077
81 4 5.09388 7.16466 11.3946
82 4 9.56619 1.93704 15.2513
83 4 2.87253 2.75058 11.3023
84 4 2.51042 6.45787 14.5895
85 4 1.0382 6.59195 11.2071
86 4 4.36339 2.40399 14.8575
87 4 6.32507 1.39504 9.83548
88 4 7.91148 7.74672 15.6741
89 1 8.76451 10.2277 3.63205
90 1 5.05317 19.1424 4.61198
91 1 7.15958 15.189 0.31221
92 1 6.69747 14.1206 8.03922
93 2 7.79267 18.6082 3.01269
94 2 5.95143 11.4108 4.79293
95 2 8.18058 13.4878 0.839258
96 2 5.51249 15.7859 7.35857
97 2 6.49019 18.301 3.23314
98 2 7.26639 11.475 4.72573
99 2 0.289048 13.1021 0.516914
100 2 4.32985 16.3378 7.82267
101 2 7.23172 16.7091 1.66532
102 2 6.68317 12.9098 6.41674
103 2 8.64237 11.6368 2.28289
104 2 5.09739 17.7932 6.08331
105 5 1.16042 10.5686 4.99027
106 5 3.56314 19.192 3.04899
107 5 1.3884 15.5114 7.56773
108 5 3.24012 14.0414 0.750385
109 5 3.04066 10.0312 5.72806
110 5 1.52314 19.3367 2.59948
111 5 8.58018 14.9811 7.07655
112 5 5.23401 14.4592 1.29633
113 3 8.16395 17.7044 1.99873
114 3 5.70463 11.9937 6.10724
115 3 7.78241 12.7018 1.88382
116 3 5.99679 16.832 6.43762
117 3 6.2986 17.1497 2.58156
118 3 7.6719 12.5215 5.53101
119 3 0.467973 12.0268 1.38903
120 3 4.03599 17.422 6.95071
121 6 2.28197 10.0981 4.78062
122 6 2.42142 19.5413 3.39571
123 6 0.267519 15.1741 7.86902
124 6 4.34987 14.4747 0.46354
125 4 0.0078507 17.4025 2.01256
126 4 4.69852 12.4056 6.41931
127 4 6.74614 12.6842 2.00621
128 4 6.92163 16.7168 5.7483
129 4 5.28628 16.7894 2.53996
130 4 8.52828 12.9518 5.38863
131 4 1.2275 11.3647 1.16267
132 4 3.36871 18.1513 7.32227
133 1 4.44934 10.1861 12.3705
134 1 0.728521 19.0845 13.5197
135 1 2.82017 15.0996 9.10587
136 1 2.36432 14.1545 16.754
137 2 3.387 18.5289 11.801
138 2 1.87732 10.7021 14.1272
139 2 3.93689 13.62 9.65286
140 2 1.33948 15.7124 16.1993
141 2 2.0639 18.2187 12.1097
142 2 3.1324 11.0922 13.717
143 2 5.17726 13.1215 9.15935
144 2 9.31241 16.1078 16.6178
145 2 2.93887 16.6499 10.5189
146 2 2.37987 12.7268 15.3463
147 2 4.75875 11.8828 11.1745
148 2 0.705561 17.7376 14.9633
149 5 6.02496 10.3255 13.9485
150 5 8.53321 19.1039 11.9069
151 5 6.31076 15.7058 16.4681
152 5 8.31541 14.0256 9.44617
153 5 8.10182 10.0751 14.3441
154 5 6.47515 19.2064 11.4652
155 5 4.38537 15.1598 15.8776
156 5 1.10089 14.4737 9.99044
157 3 3.83954 17.5592 11.0147
158 3 1.51572 11.6049 15.1049
159 3 3.75945 12.8087 10.8306
160 3 1.62981 16.7336 15.1639
161 3 1.9041 17.1677 11.2434
162 3 3.39887 12.2126 14.5324
163 3 5.45967 11.9926 9.93652
164 3 8.94236 17.2533 15.915
165 6 7.08845 9.78246 13.7609
166 6 7.37064 19.2473 12.2568
167 6 5.24736 15.1928 16.7557
168 6 9.32154 14.6997 9.3134
169 4 4.8794 17.6632 10.6865
170 4 0.507832 11.501 15.4299
171 4 3.2559 13.3289 11.5624
172 4 2.68044 17.0379 14.8872
173 4 1.06688 16.4857 11.416
174 4 4.03935 12.9173 14.1373
175 4 6.56962 11.7603 9.97113
176 4 8.02181 17.674 16.0839
177 7 2.85766 9.92182 9.61549
178 8 3.09835 9.50024 8.57824
179 8 2.37689 10.345 10.5671
180 7 9.15804 11.6998 10.6452
181 8 8.4861 11.8899 11.5676
182 8 0.656301 11.7056 9.68762
183 7 7.30825 6.63941 9.99479
184 8 7.37823 6.22541 8.87273
185 8 7.13135 6.98462 11.1472
186 7 1.79291 10.65 7.91463
187 8 1.01652 9.78763 7.66192
188 8 2.61694 11.4465 8.16751
189 7 6.45399 9.14856 7.2921
190 8 7.22489 8.84551 6.44075
191 8 5.66349 9.18658 8.28292
192 7 0.174585 7.6402 6.85215
193 8 0.804474 7.32413 5.95844
194 8 8.5247 7.79493 7.59818
195 7 0.836308 8.35519 9.45414
196 8 0.772787 7.28905 9.04239
197 8 0.69377 9.33149 9.97558
198 7 7.92241 10.3662 8.6415
199 8 8.40918 11.1947 7.96296
200 8 7.55964 9.40041 9.2502
201 7 6.17669 14.8938 12.5494
202 8 6.14823 15.7723 13.2759
203 8 6.1959 14.18 11.6398
204 7 7.24456 13.5016 14.7255
205 8 7.96914 13.9945 13.9974
206 8 6.71088 12.7835 15.4108
207 7 6.15999 4.34419 13.3669
208 8 5.5913 4.70421 12.4511
209 8 6.8028 3.84474 14.2329
210 7 9.04968 4.13693 12.8623
211 8 9.33486 4.78512 13.7646
212 8 8.73292 3.23763 12.1743
213 7 3.48051 4.48243 5.3106
214 8 2.79594 3.69959 5.92901
215 8 4.02586 5.23121 4.6085
216 7 4.34741 2.10229 2.65747
217 8 4.43737 1.55553 1.5795
218 8 4.27619 2.47037 3.78467
219 7 2.2671 13.4935 4.52318
220 8 2.06127 13.5539 5.68684
221 8 2.63074 13.4956 3.41715
222 7 3.70012 15.7419 4.63371
223 8 4.53078 14.9272 4.4795
224 8 2.81387 16.4872 4.66624
ITEM: TIMESTEP
97
ITEM: NUMBER OF ATOMS
224
ITEM: BOX BOUNDS xy xz yz pp pp pp
-1.3715917118976595e-01 9.7007427535873028e+00 0.0000000000000000e+00
-2.9831325234468764e-01 1.9685312352344731e+01 6.4978338239754752e-01
-2.6255037411317872e-01 1.7325365474113170e+01 0.0000000000000000e+00
ITEM: ATOMS id type x y z
1 1 8.87219 0.23823 3.54378
2 1 4.95011 9.23007 4.65525
3 1 7.09864 5.2892 0.186944
4 1 6.69986 4.13799 8.04947
5 2 7.82862 8.62364 3.04282
6 2 6.22081 0.772575 5.29194
7 2 8.20287 3.58889 0.86199
8 2 5.4193 5.74737 7.19844
9 2 6.55746 8.20281 3.47259
10 2 7.38696 1.22364 4.83422
11 2 0.353231 3.26023 0.529524
12 2 4.26681 6.2836 7.72887
13 2 7.22938 6.6354 1.81393
14 2 6.62619 2.60815 6.68123
15 2 8.83804 1.68818 2.18086
16 2 4.74135 7.5148 5.79546
17 5 1.08083 0.522598 5.17299
18 5 3.60879 8.99069 3.11306
19 5 1.51904 5.22371 7.44322
20 5 3.15177 4.06553 0.884895
21 5 3.08153 0.0452109 5.60782
22 5 1.59765 9.42197 2.67792
23 5 8.70127 4.76812 7.02884
24 5 5.14441 4.48479 1.24405
25 3 8.15704 7.63635 2.07556
26 3 5.77638 1.66615 6.30994
27 3 7.95543 2.62721 1.89937
28 3 5.68703 6.66049 6.19009
29 3 6.30448 7.02119 2.79628
30 3 7.64636 2.32613 5.73364
31 3 0.651567 2.16714 1.33256
32 3 3.91424 7.15949 6.81144
33 6 2.17992 0.0871035 4.78608
34 6 2.49011 9.34943 3.47843
35 6 0.40236 4.79079 7.85588
36 6 4.25739 4.39529 0.491791
37 4 -0.0198967 7.44156 1.94473
38 4 4.8168 1.58514 6.79601
39 4 6.93151 2.3532 2.20834
40 4 6.52374 6.36397 5.46861
41 4 5.24891 6.70561 2.74896
42 4 8.68071 2.61897 5.93216
43 4 1.61102 1.61586 1.16641
44 4 2.9174 7.40901 6.92492
45 1 4.58038 0.248283 12.4098
46 1 0.788386 9.15214 13.3932
47 1 2.96039 5.12011 9.0078
48 1 2.41785 4.14364 16.803
49 2 3.56932 8.02942 12.3099
50 2 1.71673 0.851846 13.9347
51 2 4.10867 3.6557 9.77511
52 2 1.36981 5.9208 16.2144
53 2 2.20743 8.09695 12.1738
54 2 3.03229 1.01548 13.8333
55 2 5.27483 3.24137 9.32437
56 2 9.30685 6.2972 16.6072
57 2 3.22204 6.44062 10.9393
58 2 2.35476 2.6535 15.3559
59 2 4.50854 1.58295 10.8176
60 2 0.683811 7.62352 14.7282
61 5 5.81932 0.304336 13.8976
62 5 8.43765 9.23334 12.2678
63 5 6.25491 5.60132 16.4306
64 5 8.31024 3.70276 9.53384
65 5 7.84852 0.0780454 14.3822
66 5 6.38965 9.59553 11.6658
67 5 4.29925 4.94263 15.8909
68 5 1.02933 4.49495 10.0508
69 3 4.09611 6.92536 11.7446
70 3 1.41984 1.75623 14.9597
71 3 3.63494 2.61044 10.595
72 3 1.75808 6.86625 15.2456
73 3 2.03319 6.84365 11.617
74 3 3.29122 2.19659 14.5031
75 3 5.53241 2.07902 10.0627
76 3 8.97597 7.27647 15.696
77 6 6.97445 0.0158037 13.5352
78 6 7.24218 9.24265 12.4774
79 6 5.11744 5.1138 16.8005
80 6 9.37908 4.25918 9.24177
81 4 5.08788 7.14966 11.4133
82 4 9.56808 1.9407 15.2478
83 4 2.87535 2.74487 11.2997
84 4 2.50847 6.45998 14.5939
85 4 1.04639 6.58872 11.2037
86 4 4.36219 2.39798 14.8616
87 4 6.31795 1.38389 9.83673
88 4 7.91231 7.74243 15.6791
89 1 8.76589 10.2279 3.63062
90 1 5.05339 19.146 4.61003
91 1 7.16036 15.1903 0.309613
92 1 6.69861 14.1221 8.03932
93 2 7.7927 18.61 3.009
94 2 5.953 11.4129 4.7911
95 2 8.18275 13.4883 0.838254
96 2 5.51221 15.7896 7.35768
97 2 6.49268 18.3032 3.22965
98 2 7.26546 11.4787 4.72306
99 2 0.285139 13.1025 0.515506
100 2 4.32885 16.3388 7.82299
101 2 7.23391 16.7106 1.66425
102 2 6.68436 12.9148 6.41408
103 2 8.64286 11.6365 2.27946
104 2 5.09775 17.7984 6.08335
105 5 1.16071 10.5707 4.98761
106 5 3.56009 19.1986 3.04644
107 5 1.38719 15.5148 7.56657
108 5 3.24037 14.044 0.747639
109 5 3.04 10.0306 5.72517
110 5 1.52236 19.3403 2.59854
111 5 8.58236 14.9824 7.07689
112 5 5.23464 14.4622 1.29417
113 3 8.16491 17.7082 1.99775
114 3 5.70583 12.002 6.09987
115 3 7.78322 12.7033 1.88066
116 3 5.99589 16.8364 6.4375
117 3 6.29962 17.1555 2.57981
118 3 7.66988 12.5252 5.52848
119 3 0.465877 12.0265 1.38732
120 3 4.03909 17.427 6.951
121 6 2.28133 10.0982 4.77814
122 6 2.42326 19.5452 3.39343
123 6 0.26484 15.1766 7.8724
124 6 4.34923 14.4766 0.461109
125 4 0.00364029 17.404 2.01222
126 4 4.69609 12.4055 6.41476
127 4 6.74839 12.6812 2.00136
128 4 6.92188 16.7151 5.74918
129 4 5.28857 16.791 2.52967
130 4 8.52579 12.9541 5.38462
131 4 1.2251 11.3666 1.15713
132 4 3.37303 18.1537 7.32756
133 1 4.44927 10.1855 12.3724
134 1 0.726256 19.0875 13.5215
135 1 2.81878 15.1004 9.10615
136 1 2.36378 14.1561 16.7567
137 2 3.38526 18.5305 11.8021
138 2 1.87828 10.702 14.1307
139 2 3.93933 13.6225 9.65419
140 2 1.3379 15.7158 16.2006
141 2 2.06632 18.2201 12.1084
142 2 3.13073 11.092 13.7193
143 2 5.17641 13.1222 9.15875
144 2 9.31256 16.1096 16.6206
145 2 2.93753 16.6523 10.5224
146 2 2.37952 12.7273 15.3479
147 2 4.75932 11.8834 11.1754
148 2 0.703758 17.7416 14.9667
149 5 6.02464 10.3256 13.9517
150 5 8.53311 19.1093 11.9079
151 5 6.31108 15.7105 16.4732
152 5 8.31814 14.0274 9.44705
153 5 8.10427 10.0759 14.3454
154 5 6.47654 19.208 11.4666
155 5 4.38462 15.1623 15.8811
156 5 1.09962 14.4776 9.98965
157 3 3.83587 17.563 11.0177
158 3 1.51536 11.6044 15.1067
159 3 3.76114 12.8122 10.8335
160 3 1.62913 16.7343 15.1673
161 3 1.90396 17.1694 11.243
162 3 3.398 12.2148 14.5351
163 3 5.46033 11.9923 9.93623
164 3 8.94387 17.2552 15.9186
165 6 7.08853 9.77995 13.7646
166 6 7.37107 19.2508 12.2597
167 6 5.24753 15.1982 16.7584
168 6 9.32454 14.7057 9.31246
169 4 4.87555 17.6618 10.6904
170 4 0.508361 11.5041 15.4286
171 4 3.25973 13.3323 11.564
172 4 2.67859 17.0418 14.89
173 4 1.06356 16.4922 11.4166
174 4 4.04087 12.9147 14.1318
175 4 6.57125 11.7607 9.97058
176 4 8.02688 17.6794 16.09
177 7 2.85324 9.92554 9.61304
178 8 3.0989 9.50627 8.5757
179 8 2.37796 10.344 10.5667
180 7 9.15859 11.7015 10.6449
181 8 8.48862 11.8969 11.5692
182 8 0.65472 11.7021 9.68851
183 7 7.30892 6.63909 9.9958
184 8 7.37853 6.22546 8.87204
185 8 7.13258 6.9792 11.1492
186 7 1.79158 10.652 7.91295
187 8 1.01719 9.78839 7.6633
188 8 2.6162 11.4509 8.16184
189 7 6.45573 9.14569 7.29329
190 8 7.22449 8.84589 6.4435
191 8 5.66376 9.19285 8.28074
192 7 0.173426 7.63768 6.84886
193 8 0.802613 7.32415 5.95408
194 8 8.52779 7.79231 7.59455
195 7 0.832876 8.35336 9.45202
196 8 0.771094 7.28871 9.04321
197 8 0.691851 9.33289 9.9778
198 7 7.92718 10.3646 8.64374
199 8 8.41069 11.1974 7.9651
200 8 7.56162 9.40039 9.25128
201 7 6.17685 14.8994 12.5475
202 8 6.14908 15.7778 13.2772
203 8 6.19659 14.1824 11.6429
204 7 7.25045 13.4987 14.7267
205 8 7.97107 13.9962 13.9994
206 8 6.71417 12.7814 15.4098
207 7 6.16091 4.34049 13.3696
208 8 5.5915 4.70304 12.4543
209 8 6.80226 3.84271 14.2338
210 7 9.05172 4.13228 12.8659
211 8 9.33764 4.78529 13.7644
212 8 8.73359 3.23622 12.1779
213 7 3.47494 4.479 5.30998
214 8 2.79484 3.69765 5.9281
215 8 4.0222 5.22536 4.60374
216 7 4.34849 2.09669 2.65512
217 8 4.43924 1.55288 1.57868
218 8 4.27655 2.46721 3.78122
219 7 2.26767 13.4927 4.52274
220 8 2.06146 13.5529 5.6846
221 8 2.62958 13.4945 3.41609
222 7 3.69909 15.743 4.62903
223 8 4.52563 14.9268 4.47432
224 8 2.81517 16.4898 4.6642
ITEM: TIMESTEP
98
ITEM: NUMBER OF ATOMS
224
ITEM: BOX BOUNDS xy xz yz pp pp pp
-1.3871527825344465e-01 9.7025189563118168e+00 0.0000000000000000e+00
-3.0169769507014266e-01 1.9688696795070186e+01 6.5000347805838310e-01
-2.6552907752896360e-01 1.7328344177528955e+01 0.0000000000000000e+00
ITEM: ATOMS id type x y z
1 1 8.87449 0.234987 3.54165
2 1 4.94933 9.23108 4.65356
3 1 7.09888 5.28787 0.183631
4 1 6.70122 4.13604 8.04986
5 2 7.82885 8.62165 3.04206
6 2 6.22028 0.768169 5.29178
7 2 8.2055 3.5866 0.859719
8 2 5.4148 5.74595 7.19561
9 2 6.55896 8.20341 3.47076
10 2 7.38805 1.22102 4.8351
11 2 0.350962 3.25843 0.528125
12 2 4.26633 6.28174 7.72533
13 2 7.23118 6.63315 1.81377
14 2 6.62853 2.60635 6.68024
15 2 8.84058 1.68522 2.17738
16 2 4.74075 7.51219 5.79536
17 5 1.08045 0.519527 5.17163
18 5 3.60748 8.99114 3.1109
19 5 1.51956 5.218 7.44369
20 5 3.15152 4.06549 0.882437
21 5 3.07907 0.0420309 5.60437
22 5 1.59864 9.42206 2.67729
23 5 8.70397 4.76336 7.02852
24 5 5.14365 4.48434 1.24103
25 3 8.1577 7.63517 2.07396
26 3 5.78025 1.66199 6.30689
27 3 7.9584 2.6242 1.89655
28 3 5.68278 6.65732 6.18707
29 3 6.30669 7.01984 2.79396
30 3 7.64594 2.32531 5.7354
31 3 0.649825 2.16449 1.33099
32 3 3.91388 7.15765 6.80722
33 6 2.18146 0.0841064 4.78608
34 6 2.48878 9.35026 3.47795
35 6 0.399533 4.78474 7.85248
36 6 4.25789 4.39413 0.491075
37 4 -0.0209864 7.44371 1.94713
38 4 4.82115 1.57677 6.79217
39 4 6.93235 2.35222 2.20087
40 4 6.50497 6.35567 5.45614
41 4 5.25161 6.70347 2.75264
42 4 8.68336 2.61446 5.9246
43 4 1.60733 1.61079 1.16481
44 4 2.91422 7.40157 6.92652
45 1 4.58084 0.244641 12.4114
46 1 0.786939 9.1521 13.3943
47 1 2.96036 5.11749 9.00767
48 1 2.41754 4.14208 16.8062
49 2 3.56793 8.02199 12.3163
50 2 1.71667 0.850705 13.9392
51 2 4.10884 3.65235 9.77684
52 2 1.36765 5.92146 16.216
53 2 2.21041 8.09195 12.178
54 2 3.03122 1.01405 13.836
55 2 5.27527 3.23684 9.32647
56 2 9.30854 6.29639 16.6085
57 2 3.224 6.43399 10.9473
58 2 2.35332 2.64932 15.3554
59 2 4.50879 1.57948 10.8176
60 2 0.682944 7.62365 14.7308
61 5 5.82025 0.298993 13.8986
62 5 8.43634 9.23554 12.2695
63 5 6.25186 5.60088 16.4348
64 5 8.31444 3.69816 9.53353
65 5 7.84863 0.0754677 14.3841
66 5 6.39157 9.59763 11.6709
67 5 4.30038 4.94061 15.895
68 5 1.02877 4.49428 10.0512
69 3 4.09413 6.92297 11.7513
70 3 1.41801 1.75255 14.9602
71 3 3.63807 2.60898 10.594
72 3 1.75523 6.8644 15.2487
73 3 2.03594 6.84112 11.6207
74 3 3.29068 2.19177 14.5063
75 3 5.53225 2.07864 10.0615
76 3 8.97923 7.27664 15.6971
77 6 6.97397 0.0116657 13.5356
78 6 7.2419 9.24312 12.4823
79 6 5.11611 5.11288 16.8025
80 6 9.38346 4.25537 9.24282
81 4 5.08144 7.13446 11.432
82 4 9.57002 1.94433 15.2443
83 4 2.87771 2.73932 11.2974
84 4 2.50667 6.46228 14.5982
85 4 1.05477 6.58552 11.2005
86 4 4.3604 2.39183 14.8653
87 4 6.31104 1.3728 9.83775
88 4 7.91391 7.73777 15.6842
89 1 8.76726 10.2281 3.6292
90 1 5.05361 19.1496 4.60809
91 1 7.16113 15.1917 0.307023
92 1 6.69974 14.1237 8.03941
93 2 7.79276 18.6117 3.00528
94 2 5.95448 11.4148 4.78944
95 2 8.18494 13.4887 0.837276
96 2 5.51198 15.7934 7.35671
97 2 6.49516 18.3053 3.2262
98 2 7.26463 11.4823 4.72041
99 2 0.28121 13.1028 0.514139
100 2 4.32784 16.3398 7.82328
101 2 7.23611 16.7121 1.66325
102 2 6.68554 12.9199 6.41141
103 2 8.64333 11.6363 2.27594
104 2 5.09806 17.8036 6.08345
105 5 1.16101 10.5729 4.98496
106 5 3.55704 19.2051 3.04392
107 5 1.38598 15.5182 7.56541
108 5 3.24062 14.0467 0.744882
109 5 3.03939 10.0299 5.72223
110 5 1.52155 19.344 2.59763
111 5 8.5845 14.9837 7.07721
112 5 5.23529 14.4653 1.29201
113 3 8.16584 17.712 1.99679
114 3 5.70702 12.0102 6.09241
115 3 7.78407 12.7047 1.87752
116 3 5.995 16.8407 6.43738
117 3 6.30061 17.1612 2.57801
118 3 7.66772 12.5288 5.52597
119 3 0.463762 12.0262 1.38563
120 3 4.04227 17.432 6.95131
121 6 2.28062 10.0984 4.77575
122 6 2.42515 19.5491 3.39105
123 6 0.262236 15.1791 7.87579
124 6 4.34857 14.4785 0.458764
125 4 -0.000365654 17.4056 2.01175
126 4 4.69394 12.405 6.40989
127 4 6.75016 12.678 1.99681
128 4 6.92153 16.7133 5.75069
129 4 5.29077 16.7925 2.51933
130 4 8.52447 12.9571 5.38055
131 4 1.22319 11.368 1.15154
132 4 3.37711 18.1563 7.33286
133 1 4.4492 10.1849 12.3743
134 1 0.723986 19.0906 13.5233
135 1 2.8174 15.1012 9.10641
136 1 2.36325 14.1578 16.7594
137 2 3.3835 18.5322 11.8032
138 2 1.87925 10.7019 14.1342
139 2 3.94183 13.6249 9.6556
140 2 1.33638 15.7194 16.2017
141 2 2.06881 18.2216 12.1072
142 2 3.12905 11.0918 13.7215
143 2 5.17553 13.1228 9.15822
144 2 9.31264 16.1114 16.6234
145 2 2.9362 16.6548 10.5259
146 2 2.37914 12.7277 15.3495
147 2 4.75985 11.884 11.1762
148 2 0.701928 17.7454 14.9702
149 5 6.02429 10.3257 13.9548
150 5 8.53302 19.1145 11.9089
151 5 6.31141 15.7152 16.4782
152 5 8.32085 14.0291 9.44794
153 5 8.10675 10.0768 14.3467
154 5 6.47788 19.2097 11.468
155 5 4.38384 15.1648 15.8846
156 5 1.09839 14.4816 9.98889
157 3 3.83226 17.5668 11.0206
158 3 1.51504 11.604 15.1085
159 3 3.76285 12.8157 10.8364
160 3 1.62848 16.735 15.1708
161 3 1.90376 17.171 11.2427
162 3 3.39709 12.2168 14.5378
163 3 5.46106 11.992 9.93602
164 3 8.94548 17.2569 15.9222
165 6 7.08856 9.77749 13.7683
166 6 7.37149 19.2543 12.2626
167 6 5.24767 15.2036 16.761
168 6 9.32744 14.7116 9.31151
169 4 4.87155 17.6601 10.6942
170 4 0.508674 11.5075 15.4275
171 4 3.26316 13.3358 11.5662
172 4 2.67641 17.0453 14.893
173 4 1.06021 16.4988 11.4172
174 4 4.04289 12.9124 14.1263
175 4 6.57219 11.761 9.96997
176 4 8.03136 17.6853 16.0962
177 7 2.84882 9.92924 9.61065
178 8 3.09956 9.51216 8.57318
179 8 2.37913 10.343 10.5664
180 7 9.15918 11.7033 10.6446
181 8 8.49113 11.9039 11.5708
182 8 0.653119 11.6987 9.68947
183 7 7.30957 6.63878 9.99682
184 8 7.3788 6.22556 8.87147
185 8 7.13387 6.97374 11.1511
186 7 1.7902 10.6541 7.91121
187 8 1.0179 9.78921 7.66465
188 8 2.6154 11.4553 8.15611
189 7 6.45737 9.14277 7.29458
190 8 7.22399 8.84636 6.44626
191 8 5.66407 9.19911 8.27839
192 7 0.172246 7.63515 6.84555
193 8 0.800815 7.32417 5.94965
194 8 8.53084 7.78968 7.59096
195 7 0.829406 8.35146 9.44988
196 8 0.769475 7.28832 9.04406
197 8 0.689894 9.33433 9.98007
198 7 7.93201 10.3629 8.64599
199 8 8.41211 11.2001 7.96725
200 8 7.56363 9.40046 9.25235
201 7 6.17701 14.905 12.5455
202 8 6.14993 15.7832 13.2785
203 8 6.19729 14.1848 11.6461
204 7 7.25638 13.4957 14.7278
205 8 7.97303 13.998 14.0013
206 8 6.71739 12.7793 15.4088
207 7 6.1619 4.33672 13.3724
208 8 5.59168 4.70189 12.4573
209 8 6.80168 3.84071 14.2346
210 7 9.05372 4.12754 12.8696
211 8 9.34042 4.7855 13.7643
212 8 8.73425 3.23485 12.1815
213 7 3.46928 4.47552 5.30939
214 8 2.79383 3.69576 5.92715
215 8 4.01854 5.21949 4.59898
216 7 4.34957 2.09103 2.65275
217 8 4.4411 1.5503 1.57796
218 8 4.27691 2.46406 3.77771
219 7 2.26827 13.4919 4.52235
220 8 2.06165 13.5518 5.68232
221 8 2.62841 13.4934 3.41505
222 7 3.69808 15.744 4.62433
223 8 4.52048 14.9264 4.46917
224 8 2.81646 16.4923 4.66216
ITEM: TIMESTEP
99
ITEM: NUMBER OF ATOMS
224
ITEM: BOX BOUNDS xy xz yz pp pp pp
-1.4026613551219747e-01 9.7042891666994073e+00 0.0000000000000000e+00
-3.0507071977397970e-01 1.9692069819774026e+01 6.5022283118722235e-01
-2.6849773175711000e-01 1.7331312831757103e+01 0.0000000000000000e+00
ITEM: ATOMS id type x y z
1 1 8.87678 0.23176 3.53953
2 1 4.94854 9.2321 4.65187
3 1 7.09912 5.28654 0.180337
4 1 6.70257 4.13409 8.05025
5 2 7.82905 8.6196 3.0413
6 2 6.21966 0.763786 5.29168
7 2 8.20818 3.58425 0.857497
8 2 5.41028 5.74456 7.19276
9 2 6.56047 8.20402 3.4689
10 2 7.38921 1.21848 4.83606
11 2 0.348662 3.25663 0.52676
12 2 4.26587 6.27978 7.7218
13 2 7.23298 6.63093 1.81366
14 2 6.63094 2.60459 6.67922
15 2 8.84318 1.68227 2.17387
16 2 4.74015 7.50962 5.79528
17 5 1.08009 0.516439 5.17022
18 5 3.60615 8.99159 3.10876
19 5 1.52003 5.21228 7.44423
20 5 3.15126 4.06546 0.87996
21 5 3.07666 0.03885 5.60091
22 5 1.59959 9.42215 2.67666
23 5 8.70662 4.75859 7.02822
24 5 5.14297 4.4839 1.23807
25 3 8.15832 7.63403 2.0724
26 3 5.7841 1.6578 6.3038
27 3 7.96127 2.62125 1.89369
28 3 5.67865 6.65409 6.18403
29 3 6.30888 7.01853 2.7916
30 3 7.64547 2.32444 5.73715
31 3 0.648098 2.16184 1.32943
32 3 3.91348 7.15586 6.80302
33 6 2.18295 0.0811653 4.78619
34 6 2.48752 9.35107 3.47743
35 6 0.396817 4.77875 7.84895
36 6 4.25834 4.39295 0.490397
37 4 -0.0215384 7.44574 1.94932
38 4 4.8254 1.56832 6.78836
39 4 6.93331 2.35153 2.19326
40 4 6.48574 6.34758 5.44407
41 4 5.25452 6.70119 2.75631
42 4 8.68592 2.61 5.91696
43 4 1.6033 1.60586 1.1633
44 4 2.91066 7.39466 6.92787
45 1 4.5813 0.241004 12.4129
46 1 0.785493 9.15204 13.3953
47 1 2.96033 5.11488 9.00754
48 1 2.41724 4.14052 16.8095
49 2 3.56653 8.01466 12.3228
50 2 1.71658 0.84957 13.9438
51 2 4.10892 3.64898 9.77859
52 2 1.3655 5.92213 16.2177
53 2 2.21338 8.08683 12.1821
54 2 3.03023 1.01268 13.8386
55 2 5.27579 3.23225 9.32855
56 2 9.31017 6.29559 16.6097
57 2 3.22581 6.42731 10.9551
58 2 2.35186 2.64514 15.3548
59 2 4.50905 1.57607 10.8175
60 2 0.682149 7.62377 14.7334
61 5 5.8212 0.293642 13.8997
62 5 8.43503 9.23773 12.2711
63 5 6.24872 5.60041 16.439
64 5 8.31866 3.69358 9.53321
65 5 7.84878 0.0728969 14.386
66 5 6.39348 9.59972 11.6761
67 5 4.3015 4.93859 15.8992
68 5 1.02827 4.49362 10.0516
69 3 4.09222 6.92069 11.7579
70 3 1.41612 1.74886 14.9607
71 3 3.64124 2.60754 10.593
72 3 1.75232 6.86251 15.2517
73 3 2.03872 6.83862 11.6244
74 3 3.29025 2.18696 14.5096
75 3 5.53207 2.07826 10.0603
76 3 8.98239 7.27687 15.6982
77 6 6.9735 0.00756796 13.536
78 6 7.24164 9.24359 12.4872
79 6 5.11488 5.11203 16.8043
80 6 9.38776 4.25151 9.24389
81 4 5.07472 7.11907 11.4507
82 4 9.57199 1.94793 15.2406
83 4 2.87958 2.73394 11.2953
84 4 2.50503 6.46476 14.6022
85 4 1.06329 6.58237 11.1975
86 4 4.35803 2.38554 14.8686
87 4 6.30436 1.36181 9.83853
88 4 7.91629 7.73275 15.6893
89 1 8.76863 10.2283 3.62779
90 1 5.05383 19.1531 4.60615
91 1 7.16191 15.193 0.304441
92 1 6.70086 14.1252 8.0395
93 2 7.79286 18.6133 3.00151
94 2 5.95587 11.4166 4.78794
95 2 8.18714 13.4891 0.836321
96 2 5.5118 15.7974 7.35567
97 2 6.49763 18.3075 3.22281
98 2 7.26389 11.486 4.71777
99 2 0.277262 13.1031 0.512811
100 2 4.32681 16.3408 7.82354
101 2 7.23833 16.7137 1.66232
102 2 6.68672 12.9249 6.40874
103 2 8.64379 11.6362 2.27233
104 2 5.09832 17.8087 6.0836
105 5 1.16134 10.5751 4.9823
106 5 3.55399 19.2116 3.04142
107 5 1.38479 15.5215 7.56425
108 5 3.24086 14.0494 0.742116
109 5 3.03883 10.0293 5.71926
110 5 1.52071 19.3477 2.59676
111 5 8.58659 14.9849 7.07753
112 5 5.23596 14.4683 1.28984
113 3 8.16674 17.7157 1.99585
114 3 5.70818 12.0186 6.08486
115 3 7.78498 12.706 1.87441
116 3 5.99414 16.8449 6.43726
117 3 6.30155 17.1669 2.57614
118 3 7.66543 12.5324 5.52348
119 3 0.461627 12.0259 1.38396
120 3 4.04553 17.4368 6.95165
121 6 2.27983 10.0986 4.77344
122 6 2.42709 19.553 3.38859
123 6 0.259713 15.1816 7.87918
124 6 4.3479 14.4804 0.456501
125 4 -0.00415247 17.4071 2.01117
126 4 4.69211 12.4039 6.40468
127 4 6.75144 12.6746 1.99254
128 4 6.92055 16.7115 5.75279
129 4 5.29286 16.7939 2.50897
130 4 8.5243 12.9609 5.3764
131 4 1.22176 11.369 1.14587
132 4 3.38095 18.1593 7.33818
133 1 4.44915 10.1843 12.3761
134 1 0.721712 19.0937 13.525
135 1 2.81603 15.1021 9.10667
136 1 2.36273 14.1594 16.762
137 2 3.38173 18.5339 11.8044
138 2 1.88022 10.7018 14.1377
139 2 3.94441 13.6272 9.65707
140 2 1.33492 15.723 16.2027
141 2 2.07134 18.223 12.1059
142 2 3.12736 11.0917 13.7238
143 2 5.17461 13.1234 9.15774
144 2 9.31264 16.1133 16.6263
145 2 2.93488 16.6573 10.5295
146 2 2.37874 12.7279 15.351
147 2 4.76032 11.8847 11.1768
148 2 0.700073 17.7492 14.9738
149 5 6.02393 10.3258 13.958
150 5 8.53292 19.1198 11.9099
151 5 6.31175 15.7199 16.4832
152 5 8.32356 14.0309 9.44886
153 5 8.10924 10.0776 14.348
154 5 6.47919 19.2113 11.4694
155 5 4.38305 15.1672 15.8881
156 5 1.09719 14.4855 9.98814
157 3 3.82868 17.5705 11.0234
158 3 1.51477 11.6036 15.1102
159 3 3.7646 12.8192 10.8391
160 3 1.62786 16.7356 15.1743
161 3 1.9035 17.1725 11.2425
162 3 3.39613 12.2189 14.5405
163 3 5.46185 11.9917 9.93588
164 3 8.9472 17.2587 15.9257
165 6 7.08854 9.77505 13.7721
166 6 7.3719 19.2579 12.2655
167 6 5.24779 15.2091 16.7634
168 6 9.33024 14.7175 9.31055
169 4 4.86741 17.6581 10.6979
170 4 0.50875 11.5112 15.4267
171 4 3.2662 13.3394 11.569
172 4 2.6739 17.0484 14.8962
173 4 1.05685 16.5055 11.4177
174 4 4.04537 12.9104 14.1205
175 4 6.57245 11.7613 9.96932
176 4 8.03524 17.6916 16.1024
177 7 2.84441 9.93291 9.60834
178 8 3.10033 9.51791 8.57069
179 8 2.38038 10.342 10.5661
180 7 9.1598 11.7052 10.6442
181 8 8.49363 11.9108 11.5724
182 8 0.6515 11.6953 9.69049
183 7 7.3102 6.63846 9.99784
184 8 7.37907 6.22571 8.87103
185 8 7.13522 6.96822 11.1528
186 7 1.78878 10.6562 7.90941
187 8 1.01865 9.79008 7.66597
188 8 2.61454 11.4598 8.15032
189 7 6.4589 9.13979 7.29598
190 8 7.2234 8.84691 6.44902
191 8 5.66443 9.20536 8.27588
192 7 0.171046 7.63261 6.84222
193 8 0.79908 7.32418 5.94514
194 8 8.53384 7.78706 7.5874
195 7 0.825898 8.34951 9.44774
196 8 0.767926 7.28787 9.04494
197 8 0.687899 9.33579 9.98238
198 7 7.93689 10.3612 8.64825
199 8 8.41345 11.2028 7.96943
200 8 7.56569 9.40063 9.25341
201 7 6.17717 14.9106 12.5435
202 8 6.15076 15.7887 13.2799
203 8 6.198 14.1873 11.6492
204 7 7.26236 13.4926 14.7289
205 8 7.97503 13.9998 14.0032
206 8 6.72053 12.7771 15.4079
207 7 6.16296 4.33288 13.3753
208 8 5.59182 4.70077 12.4604
209 8 6.80108 3.83874 14.2355
210 7 9.05571 4.12271 12.8733
211 8 9.34322 4.78575 13.7641
212 8 8.73492 3.23351 12.1851
213 7 3.46355 4.47198 5.30882
214 8 2.79289 3.69392 5.92615
215 8 4.01486 5.21359 4.59423
216 7 4.35066 2.08533 2.65035
217 8 4.44295 1.54777 1.57732
218 8 4.27728 2.4609 3.77414
219 7 2.26889 13.4911 4.522
220 8 2.06183 13.5507 5.68
221 8 2.62721 13.4922 3.41402
222 7 3.69709 15.745 4.61961
223 8 4.51534 14.926 4.46404
224 8 2.81775 16.4949 4.66013
ITEM: TIMESTEP
100
ITEM: NUMBER OF ATOMS
224
ITEM: BOX BOUNDS xy xz yz pp pp pp
-1.4181216128360852e-01 9.7060538622344676e+00 0.0000000000000000e+00
-3.0843323627271246e-01 1.9695432336272759e+01 6.5044150095087150e-01
-2.7145713754202028e-01 1.7334272237542017e+01 0.0000000000000000e+00
ITEM: ATOMS id type x y z
1 1 8.87906 0.228548 3.53741
2 1 4.94776 9.23312 4.65018
3 1 7.09936 5.28521 0.177061
4 1 6.70392 4.13215 8.05065
5 2 7.82922 8.61747 3.04053
6 2 6.21896 0.759423 5.29163
7 2 8.21089 3.58184 0.855323
8 2 5.40575 5.74321 7.18988
9 2 6.56198 8.20461 3.467
10 2 7.39045 1.21602 4.83709
11 2 0.346333 3.25482 0.525429
12 2 4.26544 6.27772 7.71827
13 2 7.23477 6.62875 1.8136
14 2 6.63342 2.60285 6.67816
15 2 8.84585 1.67932 2.17032
16 2 4.73955 7.50708 5.79524
17 5 1.07975 0.513333 5.16878
18 5 3.60482 8.99206 3.10666
19 5 1.52043 5.20655 7.44485
20 5 3.15099 4.06544 0.877465
21 5 3.07429 0.0356674 5.59744
22 5 1.60049 9.42225 2.67603
23 5 8.70922 4.75381 7.02791
24 5 5.14236 4.48348 1.23515
25 3 8.15889 7.63294 2.07089
26 3 5.78793 1.65356 6.30066
27 3 7.96405 2.61837 1.89081
28 3 5.67464 6.65078 6.18098
29 3 6.31104 7.01725 2.78919
30 3 7.64497 2.3235 5.73887
31 3 0.646387 2.15918 1.32788
32 3 3.91305 7.15412 6.79887
33 6 2.18438 0.0782793 4.78641
34 6 2.4863 9.35184 3.47686
35 6 0.394221 4.77281 7.8453
36 6 4.25874 4.39176 0.489749
37 4 -0.0215652 7.44762 1.95131
38 4 4.82955 1.55979 6.78458
39 4 6.9344 2.35111 2.18552
40 4 6.46612 6.33967 5.43238
41 4 5.25765 6.69877 2.75997
42 4 8.68839 2.60561 5.90927
43 4 1.59895 1.60107 1.16189
44 4 2.90673 7.38828 6.92893
45 1 4.58174 0.237369 12.4144
46 1 0.784048 9.15199 13.3964
47 1 2.96031 5.11229 9.00742
48 1 2.41694 4.13898 16.8127
49 2 3.56512 8.00744 12.3292
50 2 1.71645 0.848436 13.9483
51 2 4.10891 3.64561 9.78036
52 2 1.36337 5.92281 16.2192
53 2 2.21635 8.0816 12.1863
54 2 3.0293 1.01137 13.8413
55 2 5.27637 3.22761 9.3306
56 2 9.31176 6.2948 16.6109
57 2 3.22747 6.42058 10.963
58 2 2.3504 2.64097 15.3543
59 2 4.50932 1.5727 10.8175
60 2 0.681427 7.62388 14.7361
61 5 5.82218 0.288283 13.9007
62 5 8.43373 9.23991 12.2726
63 5 6.24552 5.59992 16.4433
64 5 8.32289 3.68902 9.53286
65 5 7.84896 0.0703322 14.3878
66 5 6.39539 9.6018 11.6812
67 5 4.30259 4.93657 15.9034
68 5 1.02781 4.49296 10.0521
69 3 4.09036 6.91851 11.7645
70 3 1.41419 1.74517 14.9612
71 3 3.64446 2.60612 10.592
72 3 1.74937 6.86058 15.2548
73 3 2.04153 6.83615 11.6279
74 3 3.28992 2.18217 14.5129
75 3 5.53189 2.07788 10.059
76 3 8.98546 7.27714 15.6993
77 6 6.97303 0.00351038 13.5365
78 6 7.2414 9.24407 12.4921
79 6 5.11375 5.11125 16.8059
80 6 9.39198 4.24762 9.245
81 4 5.06786 7.10352 11.4693
82 4 9.574 1.95148 15.2369
83 4 2.88096 2.72873 11.2933
84 4 2.50357 6.4674 14.606
85 4 1.07194 6.57927 11.1948
86 4 4.35511 2.37911 14.8716
87 4 6.29791 1.35096 9.83905
88 4 7.91943 7.72739 15.6944
89 1 8.76999 10.2285 3.62637
90 1 5.05405 19.1567 4.60421
91 1 7.16269 15.1943 0.301866
92 1 6.70198 14.1268 8.03958
93 2 7.79298 18.6149 2.9977
94 2 5.95717 11.4184 4.78661
95 2 8.18935 13.4896 0.835388
96 2 5.51167 15.8014 7.35457
97 2 6.50007 18.3096 3.21947
98 2 7.26327 11.4897 4.71514
99 2 0.2733 13.1034 0.511522
100 2 4.32576 16.3418 7.82376
101 2 7.24057 16.7154 1.66146
102 2 6.68789 12.9299 6.40605
103 2 8.64424 11.6361 2.26864
104 2 5.09853 17.8139 6.08381
105 5 1.16167 10.5773 4.97965
106 5 3.55095 19.2182 3.03895
107 5 1.3836 15.5249 7.56309
108 5 3.2411 14.052 0.73934
109 5 3.03832 10.0286 5.71623
110 5 1.51984 19.3515 2.59593
111 5 8.58864 14.9861 7.07784
112 5 5.23666 14.4714 1.28767
113 3 8.16761 17.7194 1.99492
114 3 5.70933 12.0271 6.07722
115 3 7.78594 12.7073 1.87133
116 3 5.99331 16.849 6.43714
117 3 6.30246 17.1725 2.57422
118 3 7.66302 12.5358 5.521
119 3 0.459473 12.0257 1.3823
120 3 4.04886 17.4417 6.95201
121 6 2.27896 10.0989 4.7712
122 6 2.42906 19.5567 3.38604
123 6 0.257274 15.1842 7.88255
124 6 4.34723 14.4822 0.454318
125 4 -0.00770807 17.4086 2.01047
126 4 4.69059 12.4024 6.39915
127 4 6.75223 12.6709 1.98855
128 4 6.91896 16.7097 5.75549
129 4 5.29486 16.7953 2.49861
130 4 8.52527 12.9654 5.37219
131 4 1.22079 11.3695 1.14016
132 4 3.38454 18.1625 7.3435
133 1 4.44912 10.1838 12.378
134 1 0.719434 19.0968 13.5268
135 1 2.81466 15.1029 9.10692
136 1 2.36221 14.161 16.7647
137 2 3.37994 18.5357 11.8056
138 2 1.8812 10.7018 14.1412
139 2 3.94706 13.6295 9.65863
140 2 1.33352 15.7267 16.2036
141 2 2.07392 18.2243 12.1046
142 2 3.12565 11.0916 13.7261
143 2 5.17366 13.1239 9.15732
144 2 9.31256 16.1151 16.6291
145 2 2.93356 16.6598 10.533
146 2 2.37831 12.7281 15.3525
147 2 4.76074 11.8853 11.1773
148 2 0.698194 17.7529 14.9774
149 5 6.02356 10.3259 13.9611
150 5 8.53282 19.1251 11.9109
151 5 6.31211 15.7245 16.4883
152 5 8.32627 14.0327 9.4498
153 5 8.11175 10.0785 14.3493
154 5 6.48045 19.2129 11.4707
155 5 4.38223 15.1696 15.8916
156 5 1.09604 14.4895 9.98741
157 3 3.82516 17.5743 11.0261
158 3 1.51455 11.6032 15.1119
159 3 3.76638 12.8227 10.8417
160 3 1.62725 16.7362 15.1779
161 3 1.90317 17.1741 11.2422
162 3 3.39514 12.2209 14.5431
163 3 5.4627 11.9915 9.93581
164 3 8.94901 17.2603 15.9291
165 6 7.08847 9.77266 13.776
166 6 7.37231 19.2614 12.2683
167 6 5.24787 15.2145 16.7658
168 6 9.33294 14.7232 9.30958
169 4 4.86315 17.6559 10.7015
170 4 0.508574 11.5151 15.4262
171 4 3.26883 13.3431 11.5725
172 4 2.67108 17.0511 14.8996
173 4 1.05346 16.5124 11.4182
174 4 4.04828 12.9089 14.1147
175 4 6.57202 11.7616 9.96861
176 4 8.03853 17.6983 16.1088
177 7 2.84001 9.93655 9.6061
178 8 3.10121 9.52352 8.56822
179 8 2.38172 10.3411 10.5659
180 7 9.16045 11.7071 10.6438
181 8 8.49612 11.9178 11.574
182 8 0.649862 11.6919 9.69156
183 7 7.31081 6.63814 9.99887
184 8 7.37931 6.22591 8.87073
185 8 7.13662 6.96265 11.1545
186 7 1.78733 10.6583 7.90756
187 8 1.01943 9.791 7.66725
188 8 2.61362 11.4644 8.14448
189 7 6.46032 9.13678 7.29749
190 8 7.22272 8.84754 6.45178
191 8 5.66484 9.21161 8.2732
192 7 0.169829 7.63006 6.83886
193 8 0.797408 7.32418 5.94057
194 8 8.53681 7.78444 7.58388
195 7 0.822349 8.34753 9.4456
196 8 0.766448 7.28736 9.04583
197 8 0.685868 9.33726 9.98474
198 7 7.94181 10.3595 8.6505
199 8 8.41469 11.2054 7.97162
200 8 7.56779 9.40089 9.25446
201 7 6.17732 14.9163 12.5414
202 8 6.15158 15.7943 13.2814
203 8 6.19872 14.1896 11.6524
204 7 7.26838 13.4896 14.73
205 8 7.97707 14.0017 14.005
206 8 6.7236 12.7749 15.407
207 7 6.16409 4.32898 13.3782
208 8 5.59194 4.69967 12.4634
209 8 6.80044 3.8368 14.2362
210 7 9.05768 4.11781 12.8769
211 8 9.34602 4.78605 13.7639
212 8 8.73559 3.2322 12.1886
213 7 3.45776 4.46839 5.30826
214 8 2.79202 3.69212 5.92511
215 8 4.01118 5.20767 4.58949
216 7 4.35175 2.07959 2.64794
217 8 4.4448 1.54531 1.57677
218 8 4.27764 2.45774 3.77051
219 7 2.26953 13.4902 4.52169
220 8 2.06202 13.5496 5.67765
221 8 2.62598 13.4911 3.41301
222 7 3.69612 15.746 4.61486
223 8 4.51021 14.9256 4.45893
224 8 2.81902 16.4974 4.65811
