variable        T   equal  400.00
variable        dt  equal  2.0 
variable        P   equal  9869.23
variable        nsteps  equal 100
variable        thermo_freq equal 1
variable        dump_freq equal 1

processors 	* * * map xyz

units		real
atom_style	full
boundary        p p p

#read_restart  	restart.old
read_data       initial.data

pair_style      mbx 9.0
pair_modify     mix arithmetic

bond_style      none
angle_style     none
dihedral_style  none
improper_style  none

pair_coeff      * * 0.0 0.0

neighbor	2.0 bin
neigh_modify	every 1 delay 10

timestep	${dt}

compute         mbx all pair mbx
variable        e1bpip    equal c_mbx[1]
variable        e2bpip    equal c_mbx[2]
variable        e3bpip    equal c_mbx[3]
variable        e4bpip    equal c_mbx[4]
variable        edisp     equal c_mbx[5]
variable        ebuck     equal c_mbx[6]
variable        eele      equal c_mbx[7]
variable        etot      equal c_mbx[8]

#velocity        all create ${T} 428459 rot yes dist gaussian
#velocity        all zero linear
#velocity        all zero angular

fix             1 all mbx 2 ch4 1 2 5 1 2 2 2 2 h2o 3 4 3 3 4 4 json mbx.json
fix             2 all rigid/npt/small molecule temp ${T} ${T} $(50.0*dt) iso ${P} ${P} $(500.0*dt)

thermo_style	custom step time temp etotal ke pe enthalpy density lx ly lz vol pxx pyy pzz press
thermo          ${thermo_freq}
thermo_modify   flush yes

fix             thermo_print all print ${thermo_freq} "$(step) $(0.001*time) $(temp) $(etotal) $(ke) $(pe) $(enthalpy) $(density) $(lx) $(ly) $(lz) $(vol) $(pxx) $(pyy) $(pzz) $(press)" file thermo.out screen no title "# step time temp etotal ke pe enthalpy density lx ly lz vol pxx pyy pzz press"
# fix             verbose_mbx_thermo_print all print ${thermo_freq} "$(step) $(0.001*time) $(temp) $(etotal) $(ke) $(pe) $(enthalpy) $(density) $(lx) $(ly) $(lz) $(vol) $(pxx) $(pyy) $(pzz) $(press) $(v_e1bpip) $(v_e2bpip) $(v_e3bpip) $(v_e4bpip) $(v_edisp) $(v_ebuck) $(v_eele) $(v_etot)" file mbx_thermo.out screen no title "# step time temp etotal ke pe enthalpy density lx ly lz vol pxx pyy pzz press e1bpip e2bpip e3bpip e4bpip edisp ebuck eele etot"

dump            1 all custom ${dump_freq} dump.lammpstrj id mol type q x y z
dump_modify     1 append no sort id format line "%d %d %d %8.4f %15.8f %15.8f %15.8f"

restart         10 restart.1 restart.2

run             ${nsteps}  upto

write_data      final.data nocoeff
write_restart   restart.new
