LAMMPS (11 Feb 2026)
  using 1 OpenMP thread(s) per MPI task
variable        T   equal  400.00
variable        dt  equal  2.0
variable        P   equal  9869.23
variable        nsteps  equal 100
variable        thermo_freq equal 1
variable        dump_freq equal 1

processors      * * * map xyz

units           real
atom_style      full
boundary        p p p

#read_restart      restart.old
read_data       initial.data
Reading data file ...
  orthogonal box = (-0.05719603 -0.05719603 -0.18016748) to (18.588836 18.588836 58.554827)
  1 by 1 by 1 MPI processor grid
  reading atoms ...
  2280 atoms
  reading velocities ...
  2280 velocities
  scanning bonds ...
  4 = max bonds/atom
  scanning angles ...
  6 = max angles/atom
  orthogonal box = (-0.05719603 -0.05719603 -0.18016748) to (18.588836 18.588836 58.554827)
  1 by 1 by 1 MPI processor grid
  reading bonds ...
  1710 bonds
  reading angles ...
  1995 angles
Finding 1-2 1-3 1-4 neighbors ...
  special bond factors lj:    0        0        0       
  special bond factors coul:  0        0        0       
     4 = max # of 1-2 neighbors
     3 = max # of 1-3 neighbors
     3 = max # of 1-4 neighbors
     4 = max # of special neighbors
  special bonds CPU = 0.001 seconds
  read_data CPU = 0.031 seconds

pair_style      mbx 9.0

bond_style      none
angle_style     none
dihedral_style  none
improper_style  none

pair_coeff      * * 2 ch4 1 2 2 2 2 h2o 3 4 4 json mbx.json

neighbor        2.0 bin
neigh_modify    every 1 delay 10

timestep        ${dt}
timestep        2

compute         mbx all pair mbx
variable        e1bpip    equal c_mbx[1]
variable        e2bpip    equal c_mbx[2]
variable        e3bpip    equal c_mbx[3]
variable        e4bpip    equal c_mbx[4]
variable        edisp     equal c_mbx[5]
variable        ebuck     equal c_mbx[6]
variable        eperm     equal c_mbx[7]
variable        eind      equal c_mbx[8]
variable        eele      equal c_mbx[9]
variable        etot      equal c_mbx[10]

#velocity        all create ${T} 428459 rot yes dist gaussian
#velocity        all zero linear
#velocity        all zero angular

fix             2 all rigid/npt/small molecule temp ${T} ${T} $(50.0*dt) iso ${P} ${P} $(500.0*dt)
fix             2 all rigid/npt/small molecule temp 400 ${T} $(50.0*dt) iso ${P} ${P} $(500.0*dt)
fix             2 all rigid/npt/small molecule temp 400 400 $(50.0*dt) iso ${P} ${P} $(500.0*dt)
fix             2 all rigid/npt/small molecule temp 400 400 100 iso ${P} ${P} $(500.0*dt)
fix             2 all rigid/npt/small molecule temp 400 400 100 iso 9869.23 ${P} $(500.0*dt)
fix             2 all rigid/npt/small molecule temp 400 400 100 iso 9869.23 9869.23 $(500.0*dt)
fix             2 all rigid/npt/small molecule temp 400 400 100 iso 9869.23 9869.23 1000
Fix rigid/npt/small setup ...
  create bodies CPU = 0.001 seconds
  570 rigid bodies with 2280 atoms
  1.0924085 = max distance from body owner to body atom

thermo_style    custom step time temp etotal ke pe enthalpy density lx ly lz vol pxx pyy pzz press
thermo          ${thermo_freq}
thermo          1
thermo_modify   flush yes

fix             thermo_print all print ${thermo_freq} "$(step) $(0.001*time) $(temp) $(etotal) $(ke) $(pe) $(enthalpy) $(density) $(lx) $(ly) $(lz) $(vol) $(pxx) $(pyy) $(pzz) $(press)" file thermo.out screen no title "# step time temp etotal ke pe enthalpy density lx ly lz vol pxx pyy pzz press"
fix             thermo_print all print 1 "$(step) $(0.001*time) $(temp) $(etotal) $(ke) $(pe) $(enthalpy) $(density) $(lx) $(ly) $(lz) $(vol) $(pxx) $(pyy) $(pzz) $(press)" file thermo.out screen no title "# step time temp etotal ke pe enthalpy density lx ly lz vol pxx pyy pzz press"
fix             verbose_mbx_thermo_print all print ${thermo_freq} "$(step) $(0.001*time) $(temp) $(etotal) $(ke) $(pe) $(enthalpy) $(density) $(lx) $(ly) $(lz) $(vol) $(pxx) $(pyy) $(pzz) $(press) $(v_e1bpip) $(v_e2bpip) $(v_e3bpip) $(v_e4bpip) $(v_edisp) $(v_ebuck) $(v_eperm) $(v_eind) $(v_eele) $(v_etot)" file mbx_thermo.out screen no title "# step time temp etotal ke pe enthalpy density lx ly lz vol pxx pyy pzz press e1bpip e2bpip e3bpip e4bpip edisp ebuck eperm eind eele etot"
fix             verbose_mbx_thermo_print all print 1 "$(step) $(0.001*time) $(temp) $(etotal) $(ke) $(pe) $(enthalpy) $(density) $(lx) $(ly) $(lz) $(vol) $(pxx) $(pyy) $(pzz) $(press) $(v_e1bpip) $(v_e2bpip) $(v_e3bpip) $(v_e4bpip) $(v_edisp) $(v_ebuck) $(v_eperm) $(v_eind) $(v_eele) $(v_etot)" file mbx_thermo.out screen no title "# step time temp etotal ke pe enthalpy density lx ly lz vol pxx pyy pzz press e1bpip e2bpip e3bpip e4bpip edisp ebuck eperm eind eele etot"

dump            1 all custom ${dump_freq} dump.lammpstrj id mol type q x y z
dump            1 all custom 1 dump.lammpstrj id mol type q x y z
dump_modify     1 append no sort id format line "%d %d %d %8.4f %15.8f %15.8f %15.8f"

restart         10 restart.1 restart.2

run             ${nsteps}  upto
run             100  upto

CITE-CITE-CITE-CITE-CITE-CITE-CITE-CITE-CITE-CITE-CITE-CITE-CITE

Your simulation uses code contributions which should be cited:

- pair mbx command:

@article{10.1063/5.0156036,
 author = {Riera, Marc and Knight, Christopher and Bull-Vulpe, Ethan F. and Zhu, Xuanyu and Agnew, Henry and Smith, Daniel G. A. and Simmonett, Andrew C. and Paesani, Francesco},
 title = "{MBX: A many-body energy and force calculator for data-driven many-body simulations}",
 journal = {The Journal of Chemical Physics},
 volume = {159},
 number = {5},
 pages = {054802},
 year = {2023},
 doi = {10.1063/5.0156036},
 version = {1.3.7}
}

CITE-CITE-CITE-CITE-CITE-CITE-CITE-CITE-CITE-CITE-CITE-CITE-CITE

Generated 0 of 6 mixed pair_coeff terms from geometric mixing rule
WARNING: Bonds are defined but no bond style is set (src/force.cpp:198)
WARNING: Likewise 1-2 special neighbor interactions != 1.0 (src/force.cpp:200)
WARNING: Angles are defined but no angle style is set (src/force.cpp:203)
WARNING: Likewise 1-3 special neighbor interactions != 1.0 (src/force.cpp:205)
Neighbor list info ...
  update: every = 1 steps, delay = 10 steps, check = yes
  max neighbors/atom: 2000, page size: 100000
  master list distance cutoff = 11
  ghost atom cutoff = 11
  binsize = 5.5, bins = 4 4 11
  1 neighbor lists, perpetual/occasional/extra = 1 0 0
  (1) pair mbx, perpetual
      attributes: half, newton on
      pair build: half/bin/newton
      stencil: half/bin/3d
      bin: standard
Per MPI rank memory allocation (min/avg/max) = 19.54 | 19.54 | 19.54 Mbytes
   Step          Time           Temp          TotEng         KinEng         PotEng        Enthalpy       Density           Lx             Ly             Lz           Volume          Pxx            Pyy            Pzz           Press     
         0   0              401.20383     -1568.0752      1362.1442     -2930.2194      1718.7757      0.78892437     18.646032      18.646032      58.734995      20420.661      8859.2157      8619.444       15631.065      11036.575    
         1   2              400.6756      -1568.0811      1360.3508     -2928.4319      1516.908       0.78892376     18.646037      18.646037      58.73501       20420.676      10477.273      10127.118      10471.878      10358.756    
         2   4              399.85659     -1568.07        1357.5702     -2925.6401      1516.9516      0.7889229      18.646044      18.646044      58.735031      20420.699      10482.123      10181.985      10412.454      10358.854    
         3   6              398.89003     -1568.0156      1354.2885     -2922.3042      1516.2704      0.78892178     18.646052      18.646052      58.735059      20420.728      10510.436      10217.539      10341.134      10356.37     
         4   8              398.08011     -1567.9399      1351.5387     -2919.4787      1514.9249      0.78892041     18.646063      18.646063      58.735093      20420.763      10558.149      10238.448      10258.141      10351.58     
         5   10             397.79453     -1567.8943      1350.5692     -2918.4634      1512.5877      0.78891879     18.646076      18.646076      58.735133      20420.805      10617.674      10245.915      10167.082      10343.557    
         6   12             398.24976     -1567.9209      1352.1148     -2920.0357      1508.845       0.78891692     18.646091      18.646091      58.73518       20420.853      10671.489      10241.539      10080.137      10331.055    
         7   14             399.34571     -1568.0185      1355.8356     -2923.8542      1503.7037      0.78891482     18.646107      18.646107      58.735232      20420.908      10695.105      10228.334      10018.837      10314.092    
         8   16             400.69094     -1568.1355      1360.4029     -2928.5384      1498.4058      0.78891247     18.646126      18.646126      58.73529       20420.969      10674.248      10209.906      10005.841      10296.665    
         9   18             401.83447     -1568.2         1364.2853     -2932.4853      1494.8658      0.78890991     18.646146      18.646146      58.735354      20421.035      10615.563      10191.41       10047.913      10284.962    
        10   20             402.56875     -1568.1755      1366.7783     -2934.9539      1494.4246      0.78890713     18.646168      18.646168      58.735423      20421.107      10539.066      10182.434      10128.586      10283.362    
        11   22             403.06977     -1568.1089      1368.4794     -2936.5883      1496.3912      0.78890413     18.646191      18.646191      58.735497      20421.184      10459.535      10191.906      10217.667      10289.702    
        12   24             403.7222      -1568.0965      1370.6945     -2938.7909      1498.03        0.78890092     18.646217      18.646217      58.735577      20421.268      10378.515      10218.737      10288.112      10295.121    
        13   26             404.76214     -1568.1985      1374.2252     -2942.4237      1496.5904      0.78889748     18.646244      18.646244      58.735662      20421.357      10296.505      10246.857      10328.395      10290.585    
        14   28             406.04807     -1568.3925      1378.5911     -2946.9836      1491.5284      0.78889382     18.646273      18.646273      58.735753      20421.451      10223.698      10252.931      10345.949      10274.192    
        15   30             407.13843     -1568.6064      1382.2931     -2950.8994      1484.7312      0.78888995     18.646303      18.646303      58.735849      20421.552      10174.419      10220.39       10361.305      10252.038    
        16   32             407.56805     -1568.7838      1383.7517     -2952.5355      1479.0309      0.78888588     18.646335      18.646335      58.73595       20421.657      10153.316      10153.311      10393.697      10233.441    
        17   34             407.09337     -1568.9059      1382.14       -2951.046       1476.6956      0.78888163     18.646369      18.646369      58.736056      20421.767      10152.138      10078.798      10446.929      10225.955    
        18   36             405.79143     -1568.9842      1377.7198     -2946.704       1478.8381      0.78887718     18.646404      18.646404      58.736166      20421.882      10160.031      10034.03       10506.001      10233.354    
        19   38             404.02039     -1569.0488      1371.7069     -2940.7557      1485.2415      0.78887255     18.64644       18.64644       58.736281      20422.002      10173.048      10044.628      10547.355      10255.01     
        20   40             402.28956     -1569.1344      1365.8304     -2934.9648      1494.4701      0.78886771     18.646478      18.646478      58.736401      20422.127      10195.774      10110.229      10552.659      10286.221    
        21   42             401.09653     -1569.271       1361.7799     -2931.0509      1504.1709      0.78886266     18.646518      18.646518      58.736526      20422.258      10238.001      10202.231      10517.32       10319.184    
        22   44             400.77748     -1569.479       1360.6967     -2930.1757      1511.6863      0.78885737     18.64656       18.64656       58.736658      20422.395      10306.254      10277.077      10451.807      10345.046    
        23   46             401.4003      -1569.767       1362.8113     -2932.5783      1515.1474      0.78885183     18.646604      18.646604      58.736795      20422.538      10394.551      10298.367      10379.766      10357.561    
        24   48             402.73018     -1570.1187      1367.3264     -2937.4451      1514.3878      0.78884604     18.646649      18.646649      58.736939      20422.688      10484.162      10254.204      10329.981      10356.116    
        25   50             404.32765     -1570.4744      1372.7501     -2943.2244      1511.2952      0.78884        18.646697      18.646697      58.737089      20422.845      10558.088      10157.83       10324.623      10346.847    
        26   52             405.80944     -1570.7669      1377.7809     -2948.5478      1508.5159      0.78883371     18.646746      18.646746      58.737245      20423.008      10613.166      10033.141      10368.94       10338.416    
        27   54             407.10413     -1571.0055      1382.1766     -2953.1821      1507.4521      0.78882717     18.646798      18.646798      58.737407      20423.177      10655.796      9899.2723      10451.61       10335.56     
        28   56             408.42711     -1571.2754      1386.6683     -2957.9437      1507.2158      0.78882039     18.646851      18.646851      58.737576      20423.352      10686.441      9766.158       10554.151      10335.583    
        29   58             409.9828      -1571.6491      1391.9501     -2963.5992      1505.9591      0.78881337     18.646907      18.646907      58.73775       20423.534      10694.431      9644.2863      10658.863      10332.527    
        30   60             411.6889      -1572.1442      1397.7425     -2969.8867      1503.1733      0.7888061      18.646964      18.646964      58.73793       20423.722      10670.549      9552.5853      10751.088      10324.741    
        31   62             413.12009     -1572.7212      1402.6016     -2975.3229      1500.4662      0.7887986      18.647023      18.647023      58.738116      20423.917      10619.221      9511.111       10822.143      10317.492    
        32   64             413.69568     -1573.2974      1404.5558     -2977.8533      1501.1554      0.78879086     18.647084      18.647084      58.738308      20424.117      10560.066      9530.6063      10874.244      10321.639    
        33   66             413.03026     -1573.799       1402.2967     -2976.0957      1508.7386      0.78878289     18.647147      18.647147      58.738506      20424.323      10516.687      9607.2909      10922.052      10348.677    
        34   68             411.22558     -1574.2283      1396.1695     -2970.3978      1524.14        0.78877467     18.647212      18.647212      58.73871       20424.536      10497.493      9722.7621      10984.891      10401.715    
        35   70             408.86362     -1574.6628      1388.1503     -2962.8132      1544.9757      0.78876617     18.647279      18.647279      58.738921      20424.756      10496.568      9850.5678      11071.893      10473.01     
        36   72             406.70285     -1575.1859      1380.8142     -2956.0001      1566.9879      0.78875736     18.647348      18.647348      58.73914       20424.985      10505.949      9966.9162      11172.772      10548.546    
        37   74             405.32453     -1575.8339      1376.1346     -2951.9685      1586.552       0.78874819     18.64742       18.64742       58.739368      20425.222      10524.382      10062.07       11262.375      10616.276    
        38   76             404.94432     -1576.5964      1374.8437     -2951.4401      1601.9322      0.78873864     18.647496      18.647496      58.739605      20425.469      10554.205      10141.803      11315.007      10670.338    
        39   78             405.42575     -1577.4355      1376.4783     -2953.9138      1613.3512      0.78872867     18.647574      18.647574      58.739852      20425.728      10599.328      10215.011      11319.721      10711.353    
        40   80             406.41072     -1578.3216      1379.8224     -2958.144       1622.3446      0.78871826     18.647656      18.647656      58.740111      20425.997      10664.704      10284.896      11283.531      10744.377    
        41   82             407.44177     -1579.2498      1383.3229     -2962.5727      1629.8467      0.78870739     18.647742      18.647742      58.74038       20426.278      10745.638      10347.904      11224.043      10772.528    
        42   84             408.02568     -1580.2129      1385.3054     -2965.5183      1637.0408      0.78869606     18.647831      18.647831      58.740662      20426.572      10825.493      10410.238      11163.536      10799.756    
        43   86             407.70925     -1581.181       1384.2311     -2965.4121      1646.1489      0.78868424     18.647924      18.647924      58.740955      20426.878      10883.81       10488.987      11127.456      10833.418    
        44   88             406.21955     -1582.1175      1379.1733     -2961.2908      1658.7995      0.78867193     18.648021      18.648021      58.741261      20427.197      10906.782      10589.746      11140.041      10878.856    
        45   90             403.61154     -1583.0006      1370.3188     -2953.3193      1675.4696      0.78865909     18.648122      18.648122      58.74158       20427.53       10896.839      10699.941      11216.018      10937.599    
        46   92             400.31722     -1583.8493      1359.1341     -2942.9834      1695.1063      0.78864569     18.648228      18.648228      58.741912      20427.877      10863.463      10800.28       11354.783      11006.175    
        47   94             397.00715     -1584.7315      1347.8959     -2932.6274      1715.1913      0.7886317      18.648338      18.648338      58.74226       20428.239      10813.869      10879.191      11536.013      11076.357    
        48   96             394.28887     -1585.705       1338.667      -2924.3719      1732.3548      0.78861709     18.648454      18.648454      58.742623      20428.617      10754.267      10934.152      11722.667      11137.029    
        49   98             392.45915     -1586.7613      1332.4548     -2919.2161      1743.9448      0.78860182     18.648574      18.648574      58.743002      20429.013      10699.394      10965.302      11873.083      11179.26     
        50   100            391.50556     -1587.8471      1329.2172     -2917.0643      1750.0693      0.78858587     18.6487        18.6487        58.743398      20429.426      10680.036      10974.756      11954.909      11203.234    
        51   102            391.30306     -1588.9119      1328.5297     -2917.4416      1750.7318      0.78856922     18.648831      18.648831      58.743811      20429.858      10709.945      10960.432      11956.007      11208.794    
        52   104            391.81385     -1589.9471      1330.2639     -2920.211       1746.4658      0.78855188     18.648968      18.648968      58.744242      20430.307      10781.792      10921.31       11890.012      11197.705    
        53   106            393.12237     -1591.0001      1334.7065     -2925.7066      1738.4309      0.78853385     18.64911       18.64911       58.744689      20430.774      10875.203      10858.587      11788.259      11174.017    
        54   108            395.28042     -1592.1242      1342.0334     -2934.1576      1725.6865      0.78851515     18.649257      18.649257      58.745154      20431.259      10954.707      10767.499      11682.053      11134.753    
        55   110            398.13297     -1593.3302      1351.7182     -2945.0484      1707.6926      0.78849578     18.64941       18.64941       58.745635      20431.76       11004.282      10641.69       11588.449      11078.14     
        56   112            401.28991     -1594.5984      1362.4365     -2957.0349      1685.8294      0.78847579     18.649567      18.649567      58.746131      20432.278      11035.22       10481.198      11509.816      11008.745    
        57   114            404.22645     -1595.9083      1372.4065     -2968.3147      1663.1231      0.78845521     18.64973       18.64973       58.746642      20432.812      11068.328      10300.018      11441.619      10936.655    
        58   116            406.42336     -1597.2353      1379.8653     -2977.1006      1642.9288      0.78843408     18.649896      18.649896      58.747167      20433.359      11110.23       10127.34       11381.576      10873.049    
        59   118            407.52432     -1598.5492      1383.6032     -2982.1524      1627.6853      0.78841242     18.650067      18.650067      58.747705      20433.921      11147.392      9996.4546      11334.176      10826.008    
        60   120            407.47786     -1599.8432      1383.4455     -2983.2887      1618.9064      0.78839027     18.650242      18.650242      58.748255      20434.495      11169.281      9924.4719      11308.011      10800.588    
        61   122            406.55689     -1601.1493      1380.3186     -2981.4679      1614.2888      0.78836763     18.65042       18.65042       58.748818      20435.082      11161.252      9899.3652      11306.882      10789.166    
        62   124            405.22035     -1602.5133      1375.7809     -2978.2942      1610.5588      0.78834451     18.650603      18.650603      58.749392      20435.681      11123.715      9892.6355      11326.383      10780.911    
        63   126            403.91327     -1603.9712      1371.3432     -2975.3144      1606.4398      0.78832093     18.650789      18.650789      58.749978      20436.292      11077.003      9881.4598      11356.518      10771.66     
        64   128            402.91652     -1605.5334      1367.959      -2973.4924      1600.6627      0.78829687     18.650978      18.650978      58.750576      20436.916      11023.703      9859.7482      11388.118      10757.19     
        65   130            402.3112      -1607.1871      1365.9039     -2973.091       1592.7364      0.78827235     18.651172      18.651172      58.751185      20437.552      10954.794      9834.3602      11418.278      10735.811    
        66   132            402.04173     -1608.9134      1364.989      -2973.9024      1582.8592      0.78824738     18.651369      18.651369      58.751805      20438.199      10858.713      9814.778       11450.884      10708.125    
        67   134            402.00951     -1610.6943      1364.8796     -2975.574       1571.5836      0.78822198     18.651569      18.651569      58.752436      20438.858      10732.516      9805.7472      11489.519      10675.927    
        68   136            402.13557     -1612.5333      1365.3076     -2977.8409      1559.3868      0.78819616     18.651773      18.651773      58.753078      20439.527      10591.459      9802.3373      11528.694      10640.83     
        69   138            402.33985     -1614.4439      1366.0012     -2980.445       1546.5165      0.78816993     18.651979      18.651979      58.753729      20440.207      10464.547      9788.8771      11557.708      10603.711    
        70   140            402.48635     -1616.4175      1366.4986     -2982.916       1534.0254      0.78814333     18.652189      18.652189      58.75439       20440.897      10379.453      9755.5942      11569.168      10568.072    
        71   142            402.38337     -1618.4485      1366.1489     -2984.5974      1520.6553      0.78811636     18.652402      18.652402      58.755061      20441.597      10328.648      9697.2948      11563.082      10529.675    
        72   144            401.79757     -1620.5453      1364.1601     -2984.7054      1505.9202      0.78808905     18.652618      18.652618      58.755739      20442.305      10288.691      9627.9759      11544.088      10486.918    
        73   146            400.45908     -1622.6834      1359.6157     -2982.2991      1492.064       0.78806142     18.652836      18.652836      58.756426      20443.022      10245.086      9577.9184      11518.735      10447.247    
        74   148            398.18267     -1624.7844      1351.887      -2976.6714      1481.3653      0.78803349     18.653056      18.653056      58.75712       20443.746      10193.435      9564.6807      11496.004      10418.04     
        75   150            395.12666     -1626.803       1341.5114     -2968.3143      1475.5865      0.78800527     18.653279      18.653279      58.757821      20444.479      10140.162      9595.1443      11479.859      10405.055    
        76   152            391.90738     -1628.7952      1330.5815     -2959.3766      1473.499       0.78797677     18.653503      18.653503      58.75853       20445.218      10090.807      9662.0017      11460.27       10404.359    
        77   154            389.32545     -1630.8703      1321.8155     -2952.6857      1470.9543      0.787948       18.65373       18.65373       58.759245      20445.964      10044.328      9747.2992      11415.587      10402.405    
        78   156            387.92225     -1633.0687      1317.0514     -2950.12        1463.7376      0.78791895     18.65396       18.65396       58.759967      20446.718      9996.7266      9830.9736      11327.876      10385.192    
        79   158            387.78374     -1635.3439      1316.5811     -2951.925       1449.9778      0.78788963     18.654191      18.654191      58.760696      20447.479      9944.4542      9897.2047      11197.221      10346.293    
        80   160            388.67827     -1637.6424      1319.6182     -2957.2606      1436.8296      0.78786007     18.654424      18.654424      58.761431      20448.246      9909.1628      9957.5872      11061.819      10309.523    
        81   162            390.26107     -1639.9591      1324.992      -2964.9511      1419.0147      0.78783027     18.65466       18.65466       58.762172      20449.02       9852.9462      9982.3858      10936.165      10257.166    
        82   164            392.14749     -1642.3012      1331.3967     -2973.6978      1391.9592      0.78780027     18.654896      18.654896      58.762918      20449.798      9741.7847      9949.4558      10830.492      10173.911    
        83   166            393.93721     -1644.6511      1337.473      -2982.1241      1364.6243      0.78777012     18.655134      18.655134      58.763667      20450.581      9601.6615      9893.1778      10774.41       10089.75     
        84   168            395.29131     -1646.9871      1342.0704     -2989.0575      1339.1837      0.78773985     18.655373      18.655373      58.76442       20451.367      9444.2961      9830.2357      10761.162      10011.898    
        85   170            396.00608     -1649.3095      1344.4971     -2993.8067      1316.8448      0.7877095      18.655613      18.655613      58.765175      20452.155      9288.5137      9777.5262      10767.174      9944.4045    
        86   172            396.01587     -1651.6251      1344.5304     -2996.1555      1297.7269      0.78767912     18.655853      18.655853      58.76593       20452.944      9154.7073      9747.0141      10761.352      9887.6911    
        87   174            395.3662      -1653.9267      1342.3247     -2996.2514      1281.3345      0.78764872     18.656093      18.656093      58.766686      20453.733      9060.0136      9741.0842      10719.119      9840.0722    
        88   176            394.21582     -1656.2056      1338.419      -2994.6245      1267.0105      0.78761834     18.656333      18.656333      58.767442      20454.522      9016.3292      9749.6385      10631.976      9799.3144    
        89   178            392.82923     -1658.4677      1333.7113     -2992.179       1253.8133      0.787588       18.656572      18.656572      58.768197      20455.31       9025.7101      9750.2515      10510.882      9762.2812    
        90   180            391.52131     -1660.717       1329.2707     -2989.9877      1242.51        0.7875577      18.656811      18.656811      58.76895       20456.097      9087.8274      9724.2745      10382.569      9731.5569    
        91   182            390.59404     -1662.9631      1326.1225     -2989.0856      1230.1961      0.78752748     18.65705       18.65705       58.769702      20456.882      9164.6338      9652.8043      10274.875      9697.4377    
        92   184            390.25683     -1665.2289      1324.9776     -2990.2065      1214.1023      0.78749735     18.657288      18.657288      58.770451      20457.665      9221.6524      9531.0805      10199.424      9650.719     
        93   186            390.53687     -1667.5082      1325.9284     -2993.4366      1195.5912      0.78746733     18.657525      18.657525      58.771198      20458.445      9263.2224      9372.6201      10152.005      9595.949     
        94   188            391.27641     -1669.7753      1328.4392     -2998.2145      1175.4555      0.78743745     18.657761      18.657761      58.771941      20459.221      9291.5228      9193.0246      10122.548      9535.6985    
        95   190            392.21106     -1672.0106      1331.6125     -3003.6231      1155.2208      0.78740775     18.657996      18.657996      58.77268       20459.993      9313.2987      9012.1166      10099.636      9475.0169    
        96   192            393.0494      -1674.1953      1334.4588     -3008.6541      1136.6175      0.78737824     18.658229      18.658229      58.773415      20460.759      9333.3083      8852.2874      10073.323      9419.6395    
        97   194            393.55974     -1676.2994      1336.1915     -3012.4909      1121.2541      0.78734897     18.65846       18.65846       58.774143      20461.52       9350.7101      8734.7274      10039.132      9374.8565    
        98   196            393.67108     -1678.3108      1336.5695     -3014.8803      1110.1544      0.78731996     18.658689      18.658689      58.774865      20462.274      9359.286       8673.2672      9999.6161      9344.0564    
        99   198            393.49553     -1680.2542      1335.9734     -3016.2276      1103.2522      0.78729121     18.658916      18.658916      58.77558       20463.021      9351.6824      8668.3193      9961.2949      9327.0989    
       100   200            393.21386     -1682.1623      1335.0172     -3017.1795      1101.8133      0.78726275     18.659141      18.659141      58.776289      20463.761      9336.6285      8715.635       9932.7382      9328.3339    
Loop time of 287.817 on 1 procs for 100 steps with 2280 atoms

Performance: 0.060 ns/day, 399.746 hours/ns, 0.347 timesteps/s, 792.170 atom-step/s
99.5% CPU use with 1 MPI tasks x 1 OpenMP threads

MPI task timing breakdown:
Section |  min time  |  avg time  |  max time  |%varavg| %total
---------------------------------------------------------------
Pair    | 286.75     | 286.75     | 286.75     |   0.0 | 99.63
Bond    | 3.0425e-05 | 3.0425e-05 | 3.0425e-05 |   0.0 |  0.00
Neigh   | 0.15525    | 0.15525    | 0.15525    |   0.0 |  0.05
Comm    | 0.0078352  | 0.0078352  | 0.0078352  |   0.0 |  0.00
Output  | 0.47741    | 0.47741    | 0.47741    |   0.0 |  0.17
Modify  | 0.42697    | 0.42697    | 0.42697    |   0.0 |  0.15
Other   |            | 0.001446   |            |       |  0.00

Nlocal:           2280 ave        2280 max        2280 min
Histogram: 1 0 0 0 0 0 0 0 0 0
Nghost:          12656 ave       12656 max       12656 min
Histogram: 1 0 0 0 0 0 0 0 0 0
Neighs:         704720 ave      704720 max      704720 min
Histogram: 1 0 0 0 0 0 0 0 0 0

Total # of neighbors = 704720
Ave neighs/atom = 309.08772
Ave special neighs/atom = 3.25
Neighbor list builds = 10
Dangerous builds = 0

write_data      final.data nocoeff
System init for write_data ...
Generated 0 of 6 mixed pair_coeff terms from geometric mixing rule
WARNING: Bonds are defined but no bond style is set (src/force.cpp:198)
WARNING: Likewise 1-2 special neighbor interactions != 1.0 (src/force.cpp:200)
WARNING: Angles are defined but no angle style is set (src/force.cpp:203)
WARNING: Likewise 1-3 special neighbor interactions != 1.0 (src/force.cpp:205)
write_restart   restart.new
System init for write_restart ...
Generated 0 of 6 mixed pair_coeff terms from geometric mixing rule
WARNING: Bonds are defined but no bond style is set (src/force.cpp:198)
WARNING: Likewise 1-2 special neighbor interactions != 1.0 (src/force.cpp:200)
WARNING: Angles are defined but no angle style is set (src/force.cpp:203)
WARNING: Likewise 1-3 special neighbor interactions != 1.0 (src/force.cpp:205)
Total wall time: 0:04:51