LAMMPS (10 Dec 2025 - Development - patch_10Dec2025-670-gf52584f29b-modified)
  using 1 OpenMP thread(s) per MPI task
variable        T   equal  400.00
variable        dt  equal  2.0
variable        P   equal  9869.23
variable        nsteps  equal 100
variable        thermo_freq equal 1
variable        dump_freq equal 1

processors      * * * map xyz

units           real
atom_style      full
boundary        p p p

#read_restart      restart.old
read_data       initial.data
Reading data file ...
  orthogonal box = (-0.05719603 -0.05719603 -0.18016748) to (18.588836 18.588836 58.554827)
  1 by 1 by 1 MPI processor grid
  reading atoms ...
  2280 atoms
  reading velocities ...
  2280 velocities
  scanning bonds ...
  4 = max bonds/atom
  scanning angles ...
  6 = max angles/atom
  orthogonal box = (-0.05719603 -0.05719603 -0.18016748) to (18.588836 18.588836 58.554827)
  1 by 1 by 1 MPI processor grid
  reading bonds ...
  1710 bonds
  reading angles ...
  1995 angles
Finding 1-2 1-3 1-4 neighbors ...
  special bond factors lj:    0        0        0       
  special bond factors coul:  0        0        0       
     4 = max # of 1-2 neighbors
     3 = max # of 1-3 neighbors
     3 = max # of 1-4 neighbors
     4 = max # of special neighbors
  special bonds CPU = 0.001 seconds
  read_data CPU = 0.027 seconds

pair_style      mbx 9.0

bond_style      none
angle_style     none
dihedral_style  none
improper_style  none

pair_coeff      * * 2 ch4 1 2 2 2 2 h2o 3 4 4 json mbx.json

neighbor        2.0 bin
neigh_modify    every 1 delay 10

timestep        ${dt}
timestep        2

compute         mbx all pair mbx
variable        e1bpip    equal c_mbx[1]
variable        e2bpip    equal c_mbx[2]
variable        e3bpip    equal c_mbx[3]
variable        e4bpip    equal c_mbx[4]
variable        edisp     equal c_mbx[5]
variable        ebuck     equal c_mbx[6]
variable        eperm     equal c_mbx[7]
variable        eind      equal c_mbx[8]
variable        eele      equal c_mbx[9]
variable        etot      equal c_mbx[10]

#velocity        all create ${T} 428459 rot yes dist gaussian
#velocity        all zero linear
#velocity        all zero angular

fix             2 all rigid/npt/small molecule temp ${T} ${T} $(50.0*dt) iso ${P} ${P} $(500.0*dt)
fix             2 all rigid/npt/small molecule temp 400 ${T} $(50.0*dt) iso ${P} ${P} $(500.0*dt)
fix             2 all rigid/npt/small molecule temp 400 400 $(50.0*dt) iso ${P} ${P} $(500.0*dt)
fix             2 all rigid/npt/small molecule temp 400 400 100 iso ${P} ${P} $(500.0*dt)
fix             2 all rigid/npt/small molecule temp 400 400 100 iso 9869.23 ${P} $(500.0*dt)
fix             2 all rigid/npt/small molecule temp 400 400 100 iso 9869.23 9869.23 $(500.0*dt)
fix             2 all rigid/npt/small molecule temp 400 400 100 iso 9869.23 9869.23 1000
Fix rigid/npt/small setup ...
  create bodies CPU = 0.000 seconds
  570 rigid bodies with 2280 atoms
  1.0924085 = max distance from body owner to body atom

thermo_style    custom step time temp etotal ke pe enthalpy density lx ly lz vol pxx pyy pzz press
thermo          ${thermo_freq}
thermo          1
thermo_modify   flush yes

fix             thermo_print all print ${thermo_freq} "$(step) $(0.001*time) $(temp) $(etotal) $(ke) $(pe) $(enthalpy) $(density) $(lx) $(ly) $(lz) $(vol) $(pxx) $(pyy) $(pzz) $(press)" file thermo.out screen no title "# step time temp etotal ke pe enthalpy density lx ly lz vol pxx pyy pzz press"
fix             thermo_print all print 1 "$(step) $(0.001*time) $(temp) $(etotal) $(ke) $(pe) $(enthalpy) $(density) $(lx) $(ly) $(lz) $(vol) $(pxx) $(pyy) $(pzz) $(press)" file thermo.out screen no title "# step time temp etotal ke pe enthalpy density lx ly lz vol pxx pyy pzz press"
fix             verbose_mbx_thermo_print all print ${thermo_freq} "$(step) $(0.001*time) $(temp) $(etotal) $(ke) $(pe) $(enthalpy) $(density) $(lx) $(ly) $(lz) $(vol) $(pxx) $(pyy) $(pzz) $(press) $(v_e1bpip) $(v_e2bpip) $(v_e3bpip) $(v_e4bpip) $(v_edisp) $(v_ebuck) $(v_eperm) $(v_eind) $(v_eele) $(v_etot)" file mbx_thermo.out screen no title "# step time temp etotal ke pe enthalpy density lx ly lz vol pxx pyy pzz press e1bpip e2bpip e3bpip e4bpip edisp ebuck eperm eind eele etot"
fix             verbose_mbx_thermo_print all print 1 "$(step) $(0.001*time) $(temp) $(etotal) $(ke) $(pe) $(enthalpy) $(density) $(lx) $(ly) $(lz) $(vol) $(pxx) $(pyy) $(pzz) $(press) $(v_e1bpip) $(v_e2bpip) $(v_e3bpip) $(v_e4bpip) $(v_edisp) $(v_ebuck) $(v_eperm) $(v_eind) $(v_eele) $(v_etot)" file mbx_thermo.out screen no title "# step time temp etotal ke pe enthalpy density lx ly lz vol pxx pyy pzz press e1bpip e2bpip e3bpip e4bpip edisp ebuck eperm eind eele etot"

dump            1 all custom ${dump_freq} dump.lammpstrj id mol type q x y z
dump            1 all custom 1 dump.lammpstrj id mol type q x y z
dump_modify     1 append no sort id format line "%d %d %d %8.4f %15.8f %15.8f %15.8f"

restart         10 restart.1 restart.2

run             ${nsteps}  upto
run             100  upto

CITE-CITE-CITE-CITE-CITE-CITE-CITE-CITE-CITE-CITE-CITE-CITE-CITE

Your simulation uses code contributions which should be cited:

- pair mbx command:

@article{10.1063/5.0156036,
 author = {Riera, Marc and Knight, Christopher and Bull-Vulpe, Ethan F. and Zhu, Xuanyu and Agnew, Henry and Smith, Daniel G. A. and Simmonett, Andrew C. and Paesani, Francesco},
 title = "{MBX: A many-body energy and force calculator for data-driven many-body simulations}",
 journal = {The Journal of Chemical Physics},
 volume = {159},
 number = {5},
 pages = {054802},
 year = {2023},
 doi = {10.1063/5.0156036},
 version = {1.3.5}
}

CITE-CITE-CITE-CITE-CITE-CITE-CITE-CITE-CITE-CITE-CITE-CITE-CITE

Generated 0 of 6 mixed pair_coeff terms from arithmetic mixing rule
WARNING: Bonds are defined but no bond style is set (src/force.cpp:198)
WARNING: Likewise 1-2 special neighbor interactions != 1.0 (src/force.cpp:200)
WARNING: Angles are defined but no angle style is set (src/force.cpp:203)
WARNING: Likewise 1-3 special neighbor interactions != 1.0 (src/force.cpp:205)
Neighbor list info ...
  update: every = 1 steps, delay = 10 steps, check = yes
  max neighbors/atom: 2000, page size: 100000
  master list distance cutoff = 11
  ghost atom cutoff = 11
  binsize = 5.5, bins = 4 4 11
  1 neighbor lists, perpetual/occasional/extra = 1 0 0
  (1) pair mbx, perpetual
      attributes: half, newton on
      pair build: half/bin/newton
      stencil: half/bin/3d
      bin: standard
Per MPI rank memory allocation (min/avg/max) = 19.54 | 19.54 | 19.54 Mbytes
   Step          Time           Temp          TotEng         KinEng         PotEng        Enthalpy       Density           Lx             Ly             Lz           Volume          Pxx            Pyy            Pzz           Press     
         0   0              401.20383     -1568.0752      1362.1442     -2930.2194      1718.7757      0.78892437     18.646032      18.646032      58.734995      20420.661      8859.2157      8619.444       15631.065      11036.575    
         1   2              400.6756      -1568.0811      1360.3508     -2928.432       1516.9078      0.78892376     18.646037      18.646037      58.73501       20420.676      10477.273      10127.117      10471.878      10358.756    
         2   4              399.85659     -1568.07        1357.5702     -2925.6402      1516.9514      0.7889229      18.646044      18.646044      58.735031      20420.699      10482.123      10181.985      10412.453      10358.854    
         3   6              398.89002     -1568.0157      1354.2885     -2922.3042      1516.2702      0.78892178     18.646052      18.646052      58.735059      20420.728      10510.435      10217.539      10341.134      10356.369    
         4   8              398.0801      -1567.94        1351.5387     -2919.4787      1514.9247      0.78892041     18.646063      18.646063      58.735093      20420.763      10558.148      10238.448      10258.141      10351.579    
         5   10             397.79451     -1567.8943      1350.5691     -2918.4634      1512.5875      0.78891879     18.646076      18.646076      58.735133      20420.805      10617.673      10245.915      10167.082      10343.557    
         6   12             398.24975     -1567.921       1352.1147     -2920.0357      1508.8448      0.78891692     18.646091      18.646091      58.73518       20420.853      10671.488      10241.539      10080.137      10331.055    
         7   14             399.34569     -1568.0185      1355.8356     -2923.8541      1503.7036      0.78891482     18.646107      18.646107      58.735232      20420.908      10695.104      10228.335      10018.837      10314.092    
         8   16             400.69092     -1568.1356      1360.4028     -2928.5384      1498.4058      0.78891247     18.646126      18.646126      58.73529       20420.969      10674.248      10209.908      10005.841      10296.665    
         9   18             401.83445     -1568.2         1364.2853     -2932.4853      1494.8658      0.78890991     18.646146      18.646146      58.735354      20421.035      10615.563      10191.411      10047.912      10284.962    
        10   20             402.56874     -1568.1756      1366.7783     -2934.9539      1494.4246      0.78890713     18.646168      18.646168      58.735423      20421.107      10539.066      10182.436      10128.585      10283.362    
        11   22             403.06976     -1568.1089      1368.4793     -2936.5882      1496.3913      0.78890413     18.646191      18.646191      58.735497      20421.184      10459.535      10191.908      10217.665      10289.703    
        12   24             403.72218     -1568.0965      1370.6944     -2938.7909      1498.0301      0.78890092     18.646217      18.646217      58.735577      20421.268      10378.516      10218.74       10288.11       10295.122    
        13   26             404.76212     -1568.1985      1374.2251     -2942.4237      1496.5905      0.78889748     18.646244      18.646244      58.735662      20421.357      10296.505      10246.859      10328.394      10290.586    
        14   28             406.04805     -1568.3925      1378.5911     -2946.9835      1491.5285      0.78889382     18.646273      18.646273      58.735753      20421.451      10223.698      10252.934      10345.947      10274.193    
        15   30             407.13841     -1568.6064      1382.293      -2950.8994      1484.7314      0.78888995     18.646303      18.646303      58.735849      20421.552      10174.42       10220.393      10361.303      10252.039    
        16   32             407.56803     -1568.7838      1383.7516     -2952.5354      1479.0311      0.78888588     18.646335      18.646335      58.73595       20421.657      10153.317      10153.313      10393.696      10233.442    
        17   34             407.09335     -1568.9059      1382.14       -2951.0459      1476.6959      0.78888163     18.646369      18.646369      58.736056      20421.767      10152.139      10078.8        10446.928      10225.956    
        18   36             405.79141     -1568.9842      1377.7197     -2946.7039      1478.8385      0.78887718     18.646404      18.646404      58.736166      20421.882      10160.033      10034.032      10506.001      10233.355    
        19   38             404.02038     -1569.0488      1371.7068     -2940.7556      1485.2418      0.78887255     18.64644       18.64644       58.736281      20422.002      10173.05       10044.63       10547.355      10255.011    
        20   40             402.28954     -1569.1344      1365.8304     -2934.9647      1494.4705      0.78886771     18.646478      18.646478      58.736401      20422.127      10195.776      10110.23       10552.659      10286.222    
        21   42             401.09652     -1569.271       1361.7799     -2931.0508      1504.1713      0.78886266     18.646518      18.646518      58.736526      20422.258      10238.003      10202.233      10517.32       10319.185    
        22   44             400.77747     -1569.4789      1360.6967     -2930.1756      1511.6866      0.78885737     18.64656       18.64656       58.736658      20422.395      10306.256      10277.078      10451.808      10345.047    
        23   46             401.40029     -1569.767       1362.8112     -2932.5782      1515.1478      0.78885183     18.646604      18.646604      58.736795      20422.538      10394.553      10298.367      10379.767      10357.562    
        24   48             402.73018     -1570.1186      1367.3264     -2937.4451      1514.3882      0.78884604     18.646649      18.646649      58.736939      20422.688      10484.164      10254.204      10329.982      10356.117    
        25   50             404.32766     -1570.4743      1372.7501     -2943.2244      1511.2955      0.78884        18.646697      18.646697      58.737089      20422.845      10558.09       10157.83       10324.625      10346.848    
        26   52             405.80944     -1570.7669      1377.7809     -2948.5478      1508.5162      0.78883371     18.646746      18.646746      58.737245      20423.008      10613.168      10033.14       10368.941      10338.417    
        27   54             407.10414     -1571.0055      1382.1766     -2953.1821      1507.4524      0.78882717     18.646798      18.646798      58.737407      20423.177      10655.798      9899.2714      10451.612      10335.56     
        28   56             408.42712     -1571.2753      1386.6683     -2957.9436      1507.216       0.78882039     18.646851      18.646851      58.737576      20423.352      10686.443      9766.157       10554.152      10335.584    
        29   58             409.98281     -1571.6491      1391.9501     -2963.5992      1505.9593      0.78881337     18.646907      18.646907      58.73775       20423.534      10694.433      9644.2854      10658.864      10332.527    
        30   60             411.68891     -1572.1441      1397.7426     -2969.8867      1503.1735      0.7888061      18.646964      18.646964      58.73793       20423.722      10670.551      9552.5846      10751.089      10324.742    
        31   62             413.1201      -1572.7212      1402.6017     -2975.3228      1500.4665      0.7887986      18.647023      18.647023      58.738116      20423.917      10619.223      9511.1106      10822.144      10317.492    
        32   64             413.69568     -1573.2974      1404.5559     -2977.8532      1501.1558      0.78879086     18.647084      18.647084      58.738308      20424.117      10560.068      9530.6063      10874.245      10321.64     
        33   66             413.03026     -1573.799       1402.2966     -2976.0956      1508.739       0.78878289     18.647147      18.647147      58.738506      20424.323      10516.689      9607.2913      10922.054      10348.678    
        34   68             411.22556     -1574.2283      1396.1694     -2970.3977      1524.1405      0.78877467     18.647212      18.647212      58.73871       20424.536      10497.495      9722.763       10984.892      10401.717    
        35   70             408.8636      -1574.6628      1388.1503     -2962.813       1544.9763      0.78876617     18.647279      18.647279      58.738921      20424.756      10496.57       9850.5693      11071.895      10473.011    
        36   72             406.70282     -1575.1859      1380.8141     -2956           1566.9886      0.78875736     18.647348      18.647348      58.73914       20424.985      10505.951      9966.9183      11172.774      10548.548    
        37   74             405.32449     -1575.8338      1376.1345     -2951.9683      1586.5529      0.78874819     18.64742       18.64742       58.739368      20425.222      10524.385      10062.073      11262.378      10616.278    
        38   76             404.94427     -1576.5963      1374.8436     -2951.4399      1601.9332      0.78873864     18.647496      18.647496      58.739605      20425.469      10554.208      10141.807      11315.009      10670.341    
        39   78             405.4257      -1577.4354      1376.4781     -2953.9135      1613.3522      0.78872867     18.647574      18.647574      58.739852      20425.728      10599.331      10215.015      11319.724      10711.357    
        40   80             406.41067     -1578.3215      1379.8222     -2958.1437      1622.3457      0.78871826     18.647656      18.647656      58.740111      20425.997      10664.707      10284.9        11283.534      10744.38     
        41   82             407.44171     -1579.2497      1383.3227     -2962.5724      1629.8479      0.78870739     18.647742      18.647742      58.74038       20426.278      10745.642      10347.908      11224.045      10772.532    
        42   84             408.02563     -1580.2128      1385.3052     -2965.518       1637.0419      0.78869606     18.647831      18.647831      58.740662      20426.572      10825.497      10410.243      11163.538      10799.759    
        43   86             407.70921     -1581.1809      1384.2309     -2965.4119      1646.1499      0.78868424     18.647924      18.647924      58.740955      20426.878      10883.814      10488.991      11127.457      10833.421    
        44   88             406.21952     -1582.1174      1379.1732     -2961.2906      1658.8004      0.78867193     18.648021      18.648021      58.741261      20427.197      10906.786      10589.75       11140.041      10878.859    
        45   90             403.61153     -1583.0004      1370.3187     -2953.3192      1675.4703      0.78865909     18.648122      18.648122      58.74158       20427.53       10896.843      10699.945      11216.017      10937.601    
        46   92             400.31722     -1583.8492      1359.1341     -2942.9833      1695.1069      0.78864569     18.648228      18.648228      58.741912      20427.877      10863.466      10800.284      11354.781      11006.177    
        47   94             397.00716     -1584.7314      1347.896      -2932.6273      1715.1917      0.7886317      18.648338      18.648338      58.74226       20428.239      10813.871      10879.194      11536.011      11076.358    
        48   96             394.2889      -1585.7049      1338.6671     -2924.3719      1732.355       0.78861709     18.648454      18.648454      58.742623      20428.617      10754.269      10934.154      11722.664      11137.029    
        49   98             392.4592      -1586.7612      1332.455      -2919.2161      1743.9448      0.78860182     18.648574      18.648574      58.743002      20429.013      10699.395      10965.303      11873.079      11179.259    
        50   100            391.50563     -1587.847       1329.2174     -2917.0644      1750.0691      0.78858586     18.6487        18.6487        58.743398      20429.426      10680.037      10974.756      11954.905      11203.233    
        51   102            391.30314     -1588.9118      1328.53       -2917.4417      1750.7314      0.78856922     18.648831      18.648831      58.743811      20429.858      10709.945      10960.431      11956.003      11208.793    
        52   104            391.81394     -1589.947       1330.2642     -2920.2112      1746.4653      0.78855188     18.648968      18.648968      58.744242      20430.307      10781.792      10921.308      11890.008      11197.703    
        53   106            393.12248     -1591           1334.7069     -2925.7069      1738.4302      0.78853385     18.64911       18.64911       58.744689      20430.774      10875.203      10858.584      11788.255      11174.014    
        54   108            395.28054     -1592.1241      1342.0338     -2934.1579      1725.6856      0.78851515     18.649257      18.649257      58.745154      20431.259      10954.707      10767.495      11682.048      11134.75     
        55   110            398.13309     -1593.3301      1351.7186     -2945.0487      1707.6916      0.78849578     18.64941       18.64941       58.745635      20431.76       11004.28       10641.685      11588.444      11078.136    
        56   112            401.29005     -1594.5983      1362.437      -2957.0352      1685.8283      0.78847579     18.649567      18.649567      58.746131      20432.278      11035.219      10481.191      11509.812      11008.741    
        57   114            404.2266      -1595.9081      1372.407      -2968.3151      1663.1218      0.78845521     18.64973       18.64973       58.746642      20432.812      11068.326      10300.011      11441.614      10936.65     
        58   116            406.42351     -1597.2352      1379.8658     -2977.101       1642.9274      0.78843408     18.649896      18.649896      58.747167      20433.359      11110.227      10127.332      11381.572      10873.044    
        59   118            407.52447     -1598.5491      1383.6037     -2982.1528      1627.6837      0.78841242     18.650067      18.650067      58.747705      20433.921      11147.389      9996.4461      11334.171      10826.002    
        60   120            407.47801     -1599.8431      1383.446      -2983.2891      1618.9048      0.78839027     18.650242      18.650242      58.748255      20434.495      11169.277      9924.463       11308.007      10800.582    
        61   122            406.55704     -1601.1492      1380.3192     -2981.4683      1614.2871      0.78836763     18.65042       18.65042       58.748818      20435.082      11161.247      9899.3559      11306.877      10789.16     
        62   124            405.22049     -1602.5131      1375.7814     -2978.2945      1610.557       0.78834451     18.650603      18.650603      58.749392      20435.681      11123.71       9892.6258      11326.379      10780.905    
        63   126            403.91342     -1603.9711      1371.3437     -2975.3148      1606.438       0.78832092     18.650789      18.650789      58.749978      20436.292      11076.997      9881.4498      11356.514      10771.654    
        64   128            402.91666     -1605.5333      1367.9595     -2973.4928      1600.6608      0.78829687     18.650978      18.650978      58.750576      20436.916      11023.696      9859.7379      11388.115      10757.183    
        65   130            402.31134     -1607.187       1365.9044     -2973.0914      1592.7345      0.78827235     18.651172      18.651172      58.751185      20437.552      10954.787      9834.3496      11418.275      10735.804    
        66   132            402.04188     -1608.9133      1364.9895     -2973.9028      1582.8572      0.78824738     18.651369      18.651369      58.751805      20438.199      10858.705      9814.7671      11450.881      10708.118    
        67   134            402.00966     -1610.6942      1364.8801     -2975.5744      1571.5815      0.78822198     18.651569      18.651569      58.752436      20438.858      10732.508      9805.7361      11489.516      10675.92     
        68   136            402.13572     -1612.5332      1365.3081     -2977.8413      1559.3847      0.78819616     18.651773      18.651773      58.753078      20439.527      10591.45       9802.3259      11528.691      10640.823    
        69   138            402.33999     -1614.4438      1366.0017     -2980.4455      1546.5144      0.78816993     18.651979      18.651979      58.753729      20440.207      10464.539      9788.8657      11557.706      10603.703    
        70   140            402.48649     -1616.4174      1366.4991     -2982.9164      1534.0233      0.78814333     18.652189      18.652189      58.75439       20440.897      10379.444      9755.5827      11569.167      10568.065    
        71   142            402.3835      -1618.4484      1366.1494     -2984.5978      1520.6532      0.78811636     18.652402      18.652402      58.755061      20441.597      10328.639      9697.2835      11563.08       10529.668    
        72   144            401.7977      -1620.5452      1364.1605     -2984.7057      1505.9182      0.78808905     18.652618      18.652618      58.755739      20442.305      10288.682      9627.965       11544.087      10486.911    
        73   146            400.45919     -1622.6833      1359.6161     -2982.2994      1492.0622      0.78806142     18.652836      18.652836      58.756426      20443.022      10245.078      9577.9081      11518.735      10447.24     
        74   148            398.18277     -1624.7844      1351.8873     -2976.6717      1481.3637      0.78803349     18.653056      18.653056      58.75712       20443.746      10193.427      9564.6713      11496.005      10418.034    
        75   150            395.12674     -1626.8029      1341.5116     -2968.3145      1475.585       0.78800527     18.653279      18.653279      58.757821      20444.479      10140.154      9595.136       11479.86       10405.05     
        76   152            391.90744     -1628.7951      1330.5817     -2959.3768      1473.4977      0.78797677     18.653503      18.653503      58.75853       20445.218      10090.798      9661.9948      11460.272      10404.355    
        77   154            389.32551     -1630.8702      1321.8156     -2952.6859      1470.9533      0.787948       18.65373       18.65373       58.759245      20445.964      10044.32       9747.2937      11415.59       10402.401    
        78   156            387.92229     -1633.0686      1317.0515     -2950.1201      1463.7368      0.78791895     18.65396       18.65396       58.759967      20446.718      9996.7185      9830.9694      11327.88       10385.189    
        79   158            387.78377     -1635.3438      1316.5812     -2951.9251      1449.9771      0.78788963     18.654191      18.654191      58.760696      20447.479      9944.4463      9897.2016      11197.225      10346.291    
        80   160            388.6783      -1637.6424      1319.6183     -2957.2606      1436.8289      0.78786007     18.654424      18.654424      58.761431      20448.246      9909.1549      9957.585       11061.823      10309.521    
        81   162            390.26109     -1639.9591      1324.9921     -2964.9512      1419.0141      0.78783027     18.65466       18.65466       58.762172      20449.02       9852.9384      9982.3843      10936.168      10257.164    
        82   164            392.14752     -1642.3011      1331.3968     -2973.6979      1391.9586      0.78780027     18.654896      18.654896      58.762918      20449.798      9741.777       9949.4549      10830.494      10173.909    
        83   166            393.93723     -1644.6511      1337.4731     -2982.1242      1364.6237      0.78777012     18.655134      18.655134      58.763667      20450.581      9601.6538      9893.1774      10774.412      10089.748    
        84   168            395.29134     -1646.9871      1342.0705     -2989.0576      1339.1831      0.78773985     18.655373      18.655373      58.76442       20451.367      9444.2885      9830.236       10761.163      10011.896    
        85   170            396.00611     -1649.3095      1344.4972     -2993.8068      1316.8442      0.7877095      18.655613      18.655613      58.765175      20452.155      9288.5062      9777.5273      10767.174      9944.4026    
        86   172            396.0159      -1651.6251      1344.5305     -2996.1556      1297.7263      0.78767912     18.655853      18.655853      58.76593       20452.944      9154.7001      9747.0161      10761.352      9887.6893    
        87   174            395.36622     -1653.9268      1342.3247     -2996.2515      1281.334       0.78764872     18.656093      18.656093      58.766686      20453.733      9060.007       9741.0872      10719.118      9840.0706    
        88   176            394.21584     -1656.2056      1338.419      -2994.6246      1267.0101      0.78761834     18.656333      18.656333      58.767442      20454.522      9016.3234      9749.6426      10631.974      9799.3133    
        89   178            392.82923     -1658.4678      1333.7113     -2992.1791      1253.813       0.787588       18.656572      18.656572      58.768197      20455.31       9025.7051      9750.2569      10510.88       9762.2805    
        90   180            391.5213      -1660.7171      1329.2707     -2989.9878      1242.5098      0.78755771     18.656811      18.656811      58.76895       20456.097      9087.8231      9724.2816      10382.565      9731.5567    
        91   182            390.59403     -1662.9632      1326.1224     -2989.0856      1230.1961      0.78752748     18.65705       18.65705       58.769702      20456.882      9164.63        9652.8134      10274.871      9697.438     
        92   184            390.2568      -1665.229       1324.9775     -2990.2065      1214.1025      0.78749735     18.657288      18.657288      58.770451      20457.665      9221.6491      9531.092       10199.419      9650.7199    
        93   186            390.53682     -1667.5084      1325.9282     -2993.4366      1195.5916      0.78746733     18.657525      18.657525      58.771198      20458.445      9263.2196      9372.6344      10151.998      9595.9507    
        94   188            391.27633     -1669.7754      1328.439      -2998.2144      1175.4561      0.78743745     18.657761      18.657761      58.771941      20459.221      9291.5206      9193.0417      10122.541      9535.7011    
        95   190            392.21095     -1672.0108      1331.6121     -3003.6229      1155.2218      0.78740775     18.657996      18.657996      58.77268       20459.993      9313.2975      9012.1364      10099.628      9475.0207    
        96   192            393.04926     -1674.1955      1334.4583     -3008.6538      1136.6188      0.78737824     18.658229      18.658229      58.773415      20460.759      9333.3084      8852.3098      10073.315      9419.6445    
        97   194            393.55955     -1676.2997      1336.1908     -3012.4905      1121.2559      0.78734897     18.65846       18.65846       58.774143      20461.52       9350.7116      8734.7523      10039.125      9374.8631    
        98   196            393.67084     -1678.3111      1336.5687     -3014.8798      1110.1567      0.78731996     18.658689      18.658689      58.774865      20462.274      9359.2891      8673.2946      9999.6104      9344.0647    
        99   198            393.49524     -1680.2544      1335.9725     -3016.2269      1103.255       0.78729121     18.658916      18.658916      58.77558       20463.021      9351.6871      8668.3491      9961.2904      9327.1089    
       100   200            393.21353     -1682.1626      1335.016      -3017.1786      1101.8165      0.78726275     18.659141      18.659141      58.776289      20463.761      9336.635       8715.6667      9932.735       9328.3455    
Loop time of 535.334 on 1 procs for 100 steps with 2280 atoms

Performance: 0.032 ns/day, 743.519 hours/ns, 0.187 timesteps/s, 425.903 atom-step/s
99.6% CPU use with 1 MPI tasks x 1 OpenMP threads

MPI task timing breakdown:
Section |  min time  |  avg time  |  max time  |%varavg| %total
---------------------------------------------------------------
Pair    | 534.04     | 534.04     | 534.04     |   0.0 | 99.76
Bond    | 0.00019568 | 0.00019568 | 0.00019568 |   0.0 |  0.00
Neigh   | 0.15273    | 0.15273    | 0.15273    |   0.0 |  0.03
Comm    | 0.012961   | 0.012961   | 0.012961   |   0.0 |  0.00
Output  | 0.55489    | 0.55489    | 0.55489    |   0.0 |  0.10
Modify  | 0.56856    | 0.56856    | 0.56856    |   0.0 |  0.11
Other   |            | 0.002325   |            |       |  0.00

Nlocal:           2280 ave        2280 max        2280 min
Histogram: 1 0 0 0 0 0 0 0 0 0
Nghost:          12656 ave       12656 max       12656 min
Histogram: 1 0 0 0 0 0 0 0 0 0
Neighs:         704720 ave      704720 max      704720 min
Histogram: 1 0 0 0 0 0 0 0 0 0

Total # of neighbors = 704720
Ave neighs/atom = 309.08772
Ave special neighs/atom = 3.25
Neighbor list builds = 10
Dangerous builds = 0

write_data      final.data nocoeff
System init for write_data ...
Generated 0 of 6 mixed pair_coeff terms from arithmetic mixing rule
WARNING: Bonds are defined but no bond style is set (src/force.cpp:198)
WARNING: Likewise 1-2 special neighbor interactions != 1.0 (src/force.cpp:200)
WARNING: Angles are defined but no angle style is set (src/force.cpp:203)
WARNING: Likewise 1-3 special neighbor interactions != 1.0 (src/force.cpp:205)
write_restart   restart.new
System init for write_restart ...
Generated 0 of 6 mixed pair_coeff terms from arithmetic mixing rule
WARNING: Bonds are defined but no bond style is set (src/force.cpp:198)
WARNING: Likewise 1-2 special neighbor interactions != 1.0 (src/force.cpp:200)
WARNING: Angles are defined but no angle style is set (src/force.cpp:203)
WARNING: Likewise 1-3 special neighbor interactions != 1.0 (src/force.cpp:205)
Total wall time: 0:09:01
