LAMMPS (10 Sep 2025 - Development - c68a6d42d5)
  using 1 OpenMP thread(s) per MPI task
variable        T   equal  298
variable        dt  equal  0.5
# variable        P   equal  1.0
variable        nsteps  equal 100
variable        thermo_freq equal 1
variable        dump_freq equal 1

processors      * * * map xyz

units            real
atom_style      full
boundary        p p p
read_data       initial.data
Reading data file ...
  orthogonal box = (-10 -10 -50) to (10 10 50)
  1 by 1 by 1 MPI processor grid
  reading atoms ...
  1534 atoms
  reading velocities ...
  1534 velocities
  scanning bonds ...
  2 = max bonds/atom
  scanning angles ...
  1 = max angles/atom
  orthogonal box = (-10 -10 -50) to (10 10 50)
  1 by 1 by 1 MPI processor grid
  reading bonds ...
  1022 bonds
  reading angles ...
  511 angles
Finding 1-2 1-3 1-4 neighbors ...
  special bond factors lj:    0        0        0       
  special bond factors coul:  0        0        0       
     2 = max # of 1-2 neighbors
     1 = max # of 1-3 neighbors
     1 = max # of 1-4 neighbors
     2 = max # of special neighbors
  special bonds CPU = 0.001 seconds
  read_data CPU = 0.017 seconds
#read_restart    restart.old

pair_style      mbx 9.0
pair_modify     mix arithmetic

bond_style      none
angle_style     none
dihedral_style  none
improper_style  none

pair_coeff      * * 2 na+ 1 h2o 2 3 3 json mbx.json

neighbor        2.0 bin
neigh_modify    every 1 delay 10

timestep         ${dt}
timestep         0.5

compute         mbx all pair mbx
variable        e1bpip    equal c_mbx[1]
variable        e2bpip    equal c_mbx[2]
variable        e3bpip    equal c_mbx[3]
variable        e4bpip    equal c_mbx[4]
variable        edisp     equal c_mbx[5]
variable        ebuck     equal c_mbx[6]
variable        eperm     equal c_mbx[7]
variable        eind      equal c_mbx[8]
variable        eele      equal c_mbx[9]
variable        etot      equal c_mbx[10]

fix             1 all nvt temp ${T} ${T} $(1000.0*dt)
fix             1 all nvt temp 298 ${T} $(1000.0*dt)
fix             1 all nvt temp 298 298 $(1000.0*dt)
fix             1 all nvt temp 298 298 500

velocity        all create ${T} 428459 rot yes dist gaussian
velocity        all create 298 428459 rot yes dist gaussian
velocity        all zero linear
velocity        all zero angular

thermo_style    custom step time temp etotal pe ke density lx ly lz vol pxx pyy pzz press
thermo          ${thermo_freq}
thermo          1
thermo_modify   flush yes

fix             thermo_print all print ${thermo_freq} "$(step) $(0.001*time) $(temp) $(etotal) $(pe) $(ke) $(density) $(lx) $(ly) $(lz) $(vol) $(pxx) $(pyy) $(pzz) $(press)" file thermo.out screen no title "# step time temp etotal pe ke density lx ly lz vol pxx pyy pzz press"
fix             thermo_print all print 1 "$(step) $(0.001*time) $(temp) $(etotal) $(pe) $(ke) $(density) $(lx) $(ly) $(lz) $(vol) $(pxx) $(pyy) $(pzz) $(press)" file thermo.out screen no title "# step time temp etotal pe ke density lx ly lz vol pxx pyy pzz press"
fix             verbose_mbx_thermo_print all print ${thermo_freq} "$(step) $(0.001*time) $(temp) $(etotal) $(ke) $(pe) $(enthalpy) $(density) $(lx) $(ly) $(lz) $(vol) $(pxx) $(pyy) $(pzz) $(press) $(v_e1bpip) $(v_e2bpip) $(v_e3bpip) $(v_e4bpip) $(v_edisp) $(v_ebuck) $(v_eperm) $(v_eind) $(v_eele) $(v_etot)" file mbx_thermo.out screen no title "# step time temp etotal ke pe enthalpy density lx ly lz vol pxx pyy pzz press e1bpip e2bpip e3bpip e4bpip edisp ebuck eperm eind eele etot"
fix             verbose_mbx_thermo_print all print 1 "$(step) $(0.001*time) $(temp) $(etotal) $(ke) $(pe) $(enthalpy) $(density) $(lx) $(ly) $(lz) $(vol) $(pxx) $(pyy) $(pzz) $(press) $(v_e1bpip) $(v_e2bpip) $(v_e3bpip) $(v_e4bpip) $(v_edisp) $(v_ebuck) $(v_eperm) $(v_eind) $(v_eele) $(v_etot)" file mbx_thermo.out screen no title "# step time temp etotal ke pe enthalpy density lx ly lz vol pxx pyy pzz press e1bpip e2bpip e3bpip e4bpip edisp ebuck eperm eind eele etot"

dump            1 all custom ${dump_freq} dump.lammpstrj id mol type q x y z
dump            1 all custom 1 dump.lammpstrj id mol type q x y z
dump_modify     1 append no sort id format line "%d %d %d %8.4f %15.8f %15.8f %15.8f"

restart         5 restart.1 restart.2

run             ${nsteps}  upto
run             100  upto

CITE-CITE-CITE-CITE-CITE-CITE-CITE-CITE-CITE-CITE-CITE-CITE-CITE

Your simulation uses code contributions which should be cited:

- pair mbx command:

@article{10.1063/5.0156036,
 author = {Riera, Marc and Knight, Christopher and Bull-Vulpe, Ethan F. and Zhu, Xuanyu and Agnew, Henry and Smith, Daniel G. A. and Simmonett, Andrew C. and Paesani, Francesco},
 title = "{MBX: A many-body energy and force calculator for data-driven many-body simulations}",
 journal = {The Journal of Chemical Physics},
 volume = {159},
 number = {5},
 pages = {054802},
 year = {2023},
 doi = {10.1063/5.0156036},
}

CITE-CITE-CITE-CITE-CITE-CITE-CITE-CITE-CITE-CITE-CITE-CITE-CITE

Generated 0 of 3 mixed pair_coeff terms from arithmetic mixing rule
WARNING: Bonds are defined but no bond style is set (src/force.cpp:198)
WARNING: Likewise 1-2 special neighbor interactions != 1.0 (src/force.cpp:200)
WARNING: Angles are defined but no angle style is set (src/force.cpp:203)
WARNING: Likewise 1-3 special neighbor interactions != 1.0 (src/force.cpp:205)
Neighbor list info ...
  update: every = 1 steps, delay = 10 steps, check = yes
  max neighbors/atom: 2000, page size: 100000
  master list distance cutoff = 11
  ghost atom cutoff = 11
  binsize = 5.5, bins = 4 4 19
  1 neighbor lists, perpetual/occasional/extra = 1 0 0
  (1) pair mbx, perpetual
      attributes: half, newton on
      pair build: half/bin/newton
      stencil: half/bin/3d
      bin: standard
Per MPI rank memory allocation (min/avg/max) = 8.784 | 8.784 | 8.784 Mbytes
   Step          Time           Temp          TotEng         PotEng         KinEng        Density           Lx             Ly             Lz           Volume          Pxx            Pyy            Pzz           Press     
         0   0              298           -3243.6847     -4605.4201      1361.7354      0.38301942     20             20             100            40000         -636.3765      -547.97789     -956.11845     -713.49095    
         1   0.5            295.83892     -3243.6746     -4595.5347      1351.8601      0.38301942     20             20             100            40000         -636.17375     -651.2195      -786.88723     -691.42683    
         2   1              293.01322     -3243.4219     -4582.3698      1338.9479      0.38301942     20             20             100            40000         -582.95889     -680.56571     -573.93263     -612.48574    
         3   1.5            290.35001     -3243.0674     -4569.8456      1326.7781      0.38301942     20             20             100            40000         -477.61715     -648.9605      -356.26559     -494.28108    
         4   2              289.00053     -3242.8348     -4563.4463      1320.6116      0.38301942     20             20             100            40000         -335.55421     -579.01307     -171.65152     -362.07293    
         5   2.5            289.73841     -3242.8644     -4566.8478      1323.9834      0.38301942     20             20             100            40000         -184.19305     -493.57377     -39.843404     -239.20341    
         6   3              292.493       -3243.1502     -4579.7209      1336.5707      0.38301942     20             20             100            40000         -56.223439     -407.61746      44.969078     -139.62394    
         7   3.5            296.34583     -3243.5758     -4597.7523      1354.1765      0.38301942     20             20             100            40000          20.247029     -324.78433      106.16969     -66.122536    
         8   4              299.92722     -3243.9451     -4614.4871      1370.542       0.38301942     20             20             100            40000          30.744468     -240.27072      166.82499     -14.233754    
         9   4.5            302.07841     -3244.0449     -4624.4169      1380.372       0.38301942     20             20             100            40000         -22.834055     -149.9275       233.9164       20.384946    
        10   5              302.50328     -3243.8206     -4626.1341      1382.3135      0.38301942     20             20             100            40000         -127.68919     -60.415587      294.23503      35.376752    
        11   5.5            301.90251     -3243.4723     -4623.0405      1379.5682      0.38301942     20             20             100            40000         -268.73414      7.7051061      323.86208      20.944346    
        12   6              301.36828     -3243.2748     -4620.4019      1377.127       0.38301942     20             20             100            40000         -433.74741      27.897012      304.75577     -33.698209    
        13   6.5            301.56638     -3243.3057     -4621.3379      1378.0322      0.38301942     20             20             100            40000         -613.40005     -19.198754      237.296       -131.7676     
        14   7              302.46122     -3243.4273     -4625.5486      1382.1213      0.38301942     20             20             100            40000         -798.81091     -136.92934      140.46826     -265.09066    
        15   7.5            303.65604     -3243.5178     -4631.0989      1387.5811      0.38301942     20             20             100            40000         -978.84761     -311.57248      41.474807     -416.31509    
        16   8              304.74342     -3243.6132     -4636.1632      1392.55        0.38301942     20             20             100            40000         -1138.3713     -516.70007     -35.555529     -563.54229    
        17   8.5            305.27739     -3243.7724     -4638.7624      1394.99        0.38301942     20             20             100            40000         -1258.255      -719.47026     -74.493331     -684.07287    
        18   9              304.69825     -3243.8947     -4636.2383      1392.3436      0.38301942     20             20             100            40000         -1318.4022     -888.20203     -68.084021     -758.22941    
        19   9.5            302.65412     -3243.8006     -4626.8033      1383.0027      0.38301942     20             20             100            40000         -1304.0822     -1001.2069     -19.681886     -774.99032    
        20   10             299.50862     -3243.445      -4612.0741      1368.6291      0.38301942     20             20             100            40000         -1212.7156     -1054.0541      55.54435      -737.07512    
        21   10.5           296.44812     -3242.9879     -4597.6318      1354.6439      0.38301942     20             20             100            40000         -1056.084      -1060.488       135.09098     -660.49367    
        22   11             294.96333     -3242.6913     -4590.5503      1347.8591      0.38301942     20             20             100            40000         -857.40227     -1044.5557      199.35116     -567.53562    
        23   11.5           296.01228     -3242.749      -4595.4013      1352.6523      0.38301942     20             20             100            40000         -645.65872     -1026.5512      242.40404     -476.60196    
        24   12             299.40376     -3243.163      -4611.3129      1368.15        0.38301942     20             20             100            40000         -450.19435     -1010.0431      275.90679     -394.77689    
        25   12.5           303.80481     -3243.7236     -4631.9845      1388.2609      0.38301942     20             20             100            40000         -296.05625     -978.18315      321.18563     -317.68459    
        26   13             307.42799     -3244.1159     -4648.9333      1404.8173      0.38301942     20             20             100            40000         -200.3169      -903.28953      392.71245     -236.96466    
        27   13.5           309.02843     -3244.1327     -4656.2634      1412.1307      0.38301942     20             20             100            40000         -170.07901     -766.0501       483.87931     -150.74994    
        28   14             308.56392     -3243.8087     -4653.8167      1410.0081      0.38301942     20             20             100            40000         -203.38929     -573.11416      565.91027     -70.197729    
        29   14.5           307.10487     -3243.3651     -4646.7059      1403.3408      0.38301942     20             20             100            40000         -291.67108     -360.91594      600.80824     -17.259597    
        30   15             306.12353     -3243.0687     -4641.9252      1398.8565      0.38301942     20             20             100            40000         -421.41046     -182.41282      558.49759     -15.108562    
        31   15.5           306.62161     -3243.0777     -4644.2102      1401.1325      0.38301942     20             20             100            40000         -574.41267     -83.928921      428.566       -76.591865    
        32   16             308.61149     -3243.341      -4653.5664      1410.2254      0.38301942     20             20             100            40000         -728.60504     -85.303826      222.90523     -197.00121    
        33   16.5           311.23563     -3243.6836     -4665.9003      1422.2167      0.38301942     20             20             100            40000         -861.06705     -174.03235     -29.582204     -354.89387    
        34   17             313.28919     -3243.9763     -4675.5769      1431.6006      0.38301942     20             20             100            40000         -951.26145     -314.29312     -292.54993     -519.36817    
        35   17.5           313.70164     -3244.1315     -4677.6169      1433.4853      0.38301942     20             20             100            40000         -983.15213     -463.88108     -531.62519     -659.5528     
        36   18             311.90753     -3244.0484     -4669.3353      1425.287       0.38301942     20             20             100            40000         -947.62879     -589.44765     -722.60152     -753.22599    
        37   18.5           308.16112     -3243.7157     -4651.8831      1408.1674      0.38301942     20             20             100            40000         -845.92682     -674.55636     -857.89957     -792.79425    
        38   19             303.54299     -3243.2763     -4630.3408      1387.0645      0.38301942     20             20             100            40000         -691.322       -719.38702     -946.91728     -785.87543    
        39   19.5           299.51821     -3242.9081     -4611.5811      1368.673       0.38301942     20             20             100            40000         -506.40224     -735.50746     -1007.149      -749.68623    
        40   20             297.34989     -3242.7234     -4601.488       1358.7646      0.38301942     20             20             100            40000         -316.97722     -739.24361     -1050.6457     -702.28883    
        41   20.5           297.66421     -3242.8044     -4603.0054      1360.201       0.38301942     20             20             100            40000         -146.63487     -743.6137      -1074.5177     -654.92208    
        42   21             300.15903     -3243.1949     -4614.7962      1371.6012      0.38301942     20             20             100            40000         -13.228085     -748.27872     -1060.9855     -607.49744    
        43   21.5           303.54084     -3243.7613     -4630.816       1387.0547      0.38301942     20             20             100            40000          73.144947     -733.80927     -987.21411     -549.29281    
        44   22             306.01665     -3244.184      -4642.5521      1398.3681      0.38301942     20             20             100            40000          110.29931     -669.67222     -839.79699     -466.38996    
        45   22.5           306.28854     -3244.2015     -4643.8121      1399.6105      0.38301942     20             20             100            40000          101.36073     -535.33881     -626.26787     -353.41532    
        46   23             304.36095     -3243.8141     -4634.6164      1390.8022      0.38301942     20             20             100            40000          51.192186     -340.01895     -377.22245     -222.0164     
        47   23.5           301.5565      -3243.2487     -4621.2358      1377.9871      0.38301942     20             20             100            40000         -35.443795     -125.76075     -138.58837     -99.930971    
        48   24             299.78129     -3242.8191     -4612.6942      1369.8751      0.38301942     20             20             100            40000         -152.74399      49.543455      41.152326     -20.682736    
        49   24.5           300.48307     -3242.7721     -4615.8541      1373.082       0.38301942     20             20             100            40000         -291.00458      138.90953      124.60919     -9.1619554    
        50   25             303.84695     -3243.1358     -4631.5893      1388.4535      0.38301942     20             20             100            40000         -435.1331       126.49736      97.385622     -70.416705    
        51   25.5           308.68516     -3243.7174     -4654.2795      1410.5621      0.38301942     20             20             100            40000         -566.25371      30.434207     -26.623341     -187.48095    
        52   26             313.04238     -3244.2384     -4674.7112      1430.4728      0.38301942     20             20             100            40000         -665.63702     -110.26848     -211.06482     -328.99011    
        53   26.5           315.13312     -3244.4516     -4684.4782      1440.0266      0.38301942     20             20             100            40000         -719.83495     -254.69758     -412.36757     -462.30003    
        54   27             314.17683     -3244.2559     -4679.9127      1435.6567      0.38301942     20             20             100            40000         -726.01508     -374.77291     -596.66214     -565.81671    
        55   27.5           310.72886     -3243.7816     -4663.6825      1419.9009      0.38301942     20             20             100            40000         -694.8251      -460.36542     -749.20967     -634.80006    
        56   28             306.28529     -3243.2993     -4642.895       1399.5957      0.38301942     20             20             100            40000         -647.74569     -515.65875     -871.49813     -678.30086    
        57   28.5           302.45869     -3242.9893     -4625.099       1382.1097      0.38301942     20             20             100            40000         -608.65786     -551.71383     -969.6714      -710.01437    
        58   29             300.37303     -3242.8558     -4615.4349      1372.5791      0.38301942     20             20             100            40000         -594.6623      -579.57162     -1043.8783     -739.37074    
        59   29.5           300.52319     -3242.8984     -4616.1637      1373.2653      0.38301942     20             20             100            40000         -611.51541     -604.1909      -1084.8112     -766.83916    
        60   30             302.71024     -3243.203      -4626.4622      1383.2592      0.38301942     20             20             100            40000         -654.03957     -618.60159     -1075.4713     -782.70416    
        61   30.5           305.87082     -3243.7317     -4641.4335      1397.7017      0.38301942     20             20             100            40000         -708.86309     -601.92234     -995.74831     -768.84458    
        62   31             308.30669     -3244.1931     -4653.0258      1408.8327      0.38301942     20             20             100            40000         -758.66543     -528.09833     -830.64761     -705.80379    
        63   31.5           308.59283     -3244.2738     -4654.414       1410.1402      0.38301942     20             20             100            40000         -788.78672     -384.49822     -580.51923     -584.60139    
        64   32             306.5327      -3243.909      -4644.6353      1400.7263      0.38301942     20             20             100            40000         -793.77491     -188.17743     -267.73701     -416.56312    
        65   32.5           303.37134     -3243.3056     -4629.5858      1386.2802      0.38301942     20             20             100            40000         -779.22522      13.858563      64.508443     -233.61941    
        66   33             301.13063     -3242.8038     -4618.8448      1376.041       0.38301942     20             20             100            40000         -757.09312      162.86234      360.83564     -77.798382    
        67   33.5           301.49034     -3242.6959     -4620.3807      1377.6848      0.38301942     20             20             100            40000         -737.30814      215.07724      567.18055      14.98322     
        68   34             304.83216     -3243.061      -4636.0165      1392.9555      0.38301942     20             20             100            40000         -721.17717      160.9747       646.65448      28.817339    
        69   34.5           309.97533     -3243.7246     -4660.1822      1416.4576      0.38301942     20             20             100            40000         -700.95975      26.320654      591.65446     -27.661545    
        70   35             314.74514     -3244.3508     -4682.6044      1438.2537      0.38301942     20             20             100            40000         -665.43919     -142.55871      424.75857     -127.74644    
        71   35.5           317.08265     -3244.6035     -4693.5386      1448.9351      0.38301942     20             20             100            40000         -608.97702     -298.74195      185.68271     -240.67875    
        72   36             316.12661     -3244.3595     -4688.9259      1444.5664      0.38301942     20             20             100            40000         -539.59463     -409.41515     -88.080078     -345.69662    
        73   36.5           312.59717     -3243.8221     -4672.2605      1428.4383      0.38301942     20             20             100            40000         -479.82102     -460.99232     -374.27791     -438.36375    
        74   37             308.18727     -3243.3464     -4651.6333      1408.2869      0.38301942     20             20             100            40000         -457.19829     -456.51706     -664.85068     -526.18868    
        75   37.5           304.49843     -3243.1089     -4634.5394      1391.4305      0.38301942     20             20             100            40000         -489.64283     -410.11885     -954.64349     -618.13506    
        76   38             302.43776     -3243.0407     -4625.0548      1382.0141      0.38301942     20             20             100            40000         -576.43401     -341.76804     -1231.011      -716.40436    
        77   38.5           302.28899     -3243.0801     -4624.4144      1381.3343      0.38301942     20             20             100            40000         -699.91662     -272.01609     -1470.6214     -814.18472    
        78   39             303.84731     -3243.3006     -4631.7558      1388.4552      0.38301942     20             20             100            40000         -832.5522      -215.0438      -1641.4533     -896.34975    
        79   39.5           306.27989     -3243.733      -4643.304       1399.571       0.38301942     20             20             100            40000         -942.6635      -172.48942     -1708.7712     -941.30805    
        80   40             308.14599     -3244.1919     -4652.2902      1408.0983      0.38301942     20             20             100            40000         -999.46544     -133.78195     -1645.0026     -926.08334    
        81   40.5           308.01919     -3244.3686     -4651.8874      1407.5189      0.38301942     20             20             100            40000         -980.581       -86.145299     -1440.9523     -835.89287    
        82   41             305.42654     -3244.1001     -4639.7717      1395.6716      0.38301942     20             20             100            40000         -880.72893     -28.71473      -1113.6989     -674.38085    
        83   41.5           301.32868     -3243.5191     -4620.4652      1376.9461      0.38301942     20             20             100            40000         -715.6522       21.324367     -707.28995     -467.20593    
        84   42             297.69788     -3242.9441     -4603.299       1360.3548      0.38301942     20             20             100            40000         -517.43094      37.736607     -285.46506     -255.05313    
        85   42.5           296.4828      -3242.6838     -4597.4862      1354.8024      0.38301942     20             20             100            40000         -322.84589      3.1369971      81.963594     -79.248433    
        86   43             298.56627     -3242.9139     -4607.2368      1364.323       0.38301942     20             20             100            40000         -160.61403     -78.042793      336.8445       32.729227    
        87   43.5           303.19954     -3243.5643     -4629.0594      1385.4951      0.38301942     20             20             100            40000         -43.392438     -180.35661      450.26506      75.505339    
        88   44             308.28202     -3244.274      -4652.9939      1408.7199      0.38301942     20             20             100            40000          30.72344      -269.8582       428.62423      63.163157    
        89   44.5           311.52487     -3244.6068     -4668.1452      1423.5384      0.38301942     20             20             100            40000          68.407071     -319.3808       301.73049      16.918918    
        90   45             311.79523     -3244.4146     -4669.1885      1424.7738      0.38301942     20             20             100            40000          69.798912     -318.72314      101.85682     -49.022471    
        91   45.5           309.59762     -3243.9403     -4658.6719      1414.7316      0.38301942     20             20             100            40000          24.259913     -276.19777     -148.85669     -133.59818    
        92   46             306.39528     -3243.5374     -4643.6357      1400.0983      0.38301942     20             20             100            40000         -83.164892     -212.63483     -435.30175     -243.70049    
        93   46.5           303.5494      -3243.3513     -4630.4452      1387.0938      0.38301942     20             20             100            40000         -260.01807     -152.2664      -739.2522      -383.84556    
        94   47             301.79491     -3243.3104     -4622.387       1379.0765      0.38301942     20             20             100            40000         -498.85544     -114.77729     -1033.8886     -549.17378    
        95   47.5           301.3456      -3243.3409     -4620.3643      1377.0234      0.38301942     20             20             100            40000         -776.80829     -110.10268     -1286.2052     -724.37206    
        96   48             302.08152     -3243.4732     -4623.8595      1380.3862      0.38301942     20             20             100            40000         -1059.0151     -136.40724     -1462.7425     -886.05496    
        97   48.5           303.50083     -3243.7514     -4630.6232      1386.8719      0.38301942     20             20             100            40000         -1303.003      -180.57855     -1535.0779     -1006.2198    
        98   49             304.65966     -3244.1004     -4636.2676      1392.1672      0.38301942     20             20             100            40000         -1465.4917     -221.47434     -1485.0124     -1057.3261    
        99   49.5           304.47255     -3244.2987     -4635.6109      1391.3122      0.38301942     20             20             100            40000         -1513.0573     -237.13237     -1310.113      -1020.1009    
       100   50             302.40622     -3244.1462     -4626.0161      1381.8699      0.38301942     20             20             100            40000         -1433.5292     -215.15968     -1028.2224     -892.30375    
Loop time of 177.503 on 1 procs for 100 steps with 1534 atoms

Performance: 0.024 ns/day, 986.126 hours/ns, 0.563 timesteps/s, 864.212 atom-step/s
99.5% CPU use with 1 MPI tasks x 1 OpenMP threads

MPI task timing breakdown:
Section |  min time  |  avg time  |  max time  |%varavg| %total
---------------------------------------------------------------
Pair    | 176.19     | 176.19     | 176.19     |   0.0 | 99.26
Bond    | 3.2728e-05 | 3.2728e-05 | 3.2728e-05 |   0.0 |  0.00
Neigh   | 0.18864    | 0.18864    | 0.18864    |   0.0 |  0.11
Comm    | 0.0081971  | 0.0081971  | 0.0081971  |   0.0 |  0.00
Output  | 0.37202    | 0.37202    | 0.37202    |   0.0 |  0.21
Modify  | 0.73867    | 0.73867    | 0.73867    |   0.0 |  0.42
Other   |            | 0.001685   |            |       |  0.00

Nlocal:           1534 ave        1534 max        1534 min
Histogram: 1 0 0 0 0 0 0 0 0 0
Nghost:           5238 ave        5238 max        5238 min
Histogram: 1 0 0 0 0 0 0 0 0 0
Neighs:         378015 ave      378015 max      378015 min
Histogram: 1 0 0 0 0 0 0 0 0 0

Total # of neighbors = 378015
Ave neighs/atom = 246.42438
Ave special neighs/atom = 1.9986962
Neighbor list builds = 20
Dangerous builds = 0

write_data      final.data nocoeff
System init for write_data ...
Generated 0 of 3 mixed pair_coeff terms from arithmetic mixing rule
WARNING: Bonds are defined but no bond style is set (src/force.cpp:198)
WARNING: Likewise 1-2 special neighbor interactions != 1.0 (src/force.cpp:200)
WARNING: Angles are defined but no angle style is set (src/force.cpp:203)
WARNING: Likewise 1-3 special neighbor interactions != 1.0 (src/force.cpp:205)
write_restart   restart.new
System init for write_restart ...
Generated 0 of 3 mixed pair_coeff terms from arithmetic mixing rule
WARNING: Bonds are defined but no bond style is set (src/force.cpp:198)
WARNING: Likewise 1-2 special neighbor interactions != 1.0 (src/force.cpp:200)
WARNING: Angles are defined but no angle style is set (src/force.cpp:203)
WARNING: Likewise 1-3 special neighbor interactions != 1.0 (src/force.cpp:205)

[MBX] Total MBX fix/pair time= 179.391980 seconds
[MBX] Timing Summary
[MBX] kernel                      tmin          tavg          tmax         count   %total
[MBX] -----------------------------------------------------------------------------------
[MBX] INIT                :       0.37401       0.37401       0.37401        21     0.21%
[MBX] UPDATE_XYZ          :      0.024018      0.024018      0.024018       101     0.01%
[MBX] ACCUMULATE_F        :      0.062646      0.062646      0.062646       505     0.03%
[MBX] E1B                 :       0.25844       0.25844       0.25844       101     0.14%
[MBX] E2B_LOCAL           :             0             0             0         0     0.00%
[MBX] E2B_GHOST           :        15.271        15.271        15.271       101     8.51%
[MBX] E3B_LOCAL           :             0             0             0         0     0.00%
[MBX] E3B_GHOST           :        58.098        58.098        58.098       101    32.39%
[MBX] E4B_LOCAL           :             0             0             0         0     0.00%
[MBX] E4B_GHOST           :       0.18445       0.18445       0.18445       101     0.10%
[MBX] DISP                :        6.7606        6.7606        6.7606       101     3.77%
[MBX] DISP_PME            :         5.594         5.594         5.594       101     3.12%
[MBX] BUCK                :        5.6514        5.6514        5.6514       202     3.15%
[MBX] ELE                 :        86.011        86.011        86.011       101    47.95%
[MBX] INIT_FULL           :             0             0             0         0     0.00%
[MBX] UPDATE_XYZ_FULL     :             0             0             0         0     0.00%
[MBX] ACCUMULATE_F_FULL   :             0             0             0         0     0.00%
[MBX] INIT_LOCAL          :       0.29178       0.29178       0.29178        21     0.16%
[MBX] UPDATE_XYZ_LOCAL    :     0.0065943     0.0065943     0.0065943       101     0.00%
[MBX] ACCUMULATE_F_LOCAL  :      0.039441      0.039441      0.039441       404     0.02%


[MBX] Electrostatics Summary
[MBX] kernel                      tmin          tavg          tmax         count   %total
[MBX] -----------------------------------------------------------------------------------
[MBX] ELE_PERMDIP_REAL    :         4.987         4.987         4.987       101     2.78%
[MBX] ELE_PERMDIP_PME     :        3.3762        3.3762        3.3762       101     1.88%
[MBX] ELE_DIPFIELD_REAL   :        19.105        19.105        19.105      1212    10.65%
[MBX] ELE_DIPFIELD_PME    :        40.655        40.655        40.655      1212    22.66%
[MBX] ELE_GRAD_REAL       :        4.8514        4.8514        4.8514       101     2.70%
[MBX] ELE_GRAD_PME        :        10.273        10.273        10.273       101     5.73%
[MBX] ELE_GRAD_FIN        :      0.095449      0.095449      0.095449       101     0.05%
[MBX] ELE_PME_SETUP       :    0.00022096    0.00022096    0.00022096      1414     0.00%
[MBX] ELE_PME_C           :        6.5644        6.5644        6.5644       202     3.66%
[MBX] ELE_PME_D           :        44.072        44.072        44.072      1313    24.57%
[MBX] ELE_PME_E           :        3.5942        3.5942        3.5942       101     2.00%
[MBX] DISP_PME_SETUP      :       0.36175       0.36175       0.36175       101     0.20%
[MBX] DISP_PME_E          :        5.1261        5.1261        5.1261       101     2.86%
[MBX] ELE_COMM_REVFOR     :       0.03285       0.03285       0.03285      1313     0.02%
[MBX] ELE_COMM_REVSET     :    0.00082762    0.00082762    0.00082762        21     0.00%
[MBX] ELE_COMM_REV        :    0.00096947    0.00096947    0.00096947      1292     0.00%
[MBX] ELE_COMM_FORSET     :     0.0034498     0.0034498     0.0034498        21     0.00%
[MBX] ELE_COMM_FOR        :      0.021461      0.021461      0.021461      1292     0.01%
Total wall time: 0:02:59
