LAMMPS (10 Dec 2025 - Development - patch_10Dec2025-670-gf52584f29b-modified)
  using 1 OpenMP thread(s) per MPI task
# Depositing TIP3P water into MOF with QeQ charges obtained with Ongari scheme
# Variable defiition
variable        mu index -5.0  #chemical potential of reservoir for gcmc (in kcal/mol for real units)
variable        disp index 0.1  # max MC translation distance for random molecular move
variable        temp index 1000.0  # simulation temperature
variable        dt  equal  0.2
variable        tfac equal 5.0/3.0
variable        pressure equal 1.0

processors * * * map xyz

units        real
atom_style    full
boundary        p p p

box tilt large

The 'box' command has been removed and will be ignored

read_data    initial.data
Reading data file ...
  triclinic box = (0 0 0) to (8.9138002 19.386999 17.062815) with tilt (0 -8.2834166 0)
  1 by 1 by 1 MPI processor grid
  reading atoms ...
  194 atoms
  scanning bonds ...
  5 = max bonds/atom
  scanning angles ...
  10 = max angles/atom
  scanning dihedrals ...
  32 = max dihedrals/atom
  scanning impropers ...
  1 = max impropers/atom
  triclinic box = (0 0 0) to (8.9138002 19.386999 17.062815) with tilt (0 -8.2834166 0)
  1 by 1 by 1 MPI processor grid
  reading bonds ...
  244 bonds
  reading angles ...
  486 angles
  reading dihedrals ...
  912 dihedrals
  reading impropers ...
  48 impropers
Finding 1-2 1-3 1-4 neighbors ...
  special bond factors lj:    0        0        0       
  special bond factors coul:  0        0        0       
     5 = max # of 1-2 neighbors
     8 = max # of 1-3 neighbors
    24 = max # of 1-4 neighbors
    26 = max # of special neighbors
  special bonds CPU = 0.000 seconds
  read_data CPU = 0.011 seconds

group mof type 1 2 3 4 5 6
176 atoms in group mof
#group co2 type 7 8
group h2o type 7 8
18 atoms in group h2o
#molecule h2o H2Otip4p.txt
## Bonded styles ##
bond_style      harmonic
angle_style     harmonic
dihedral_style  harmonic
improper_style  cvff

## MOF ##
bond_coeff      1     32.28973605      2.15620001 # Zn  o
bond_coeff      2      36.9295234      2.05480166 # Zn  nc
bond_coeff      3           510.5      1.36500000 # nc  nc
bond_coeff      4           441.1      1.36900000 # cc  nc
bond_coeff      5           349.1      1.08400000 # cc  ha
bond_coeff      6           637.5      1.21800000 # c  o
bond_coeff      7           291.7      1.54800000 # c  c
angle_coeff    1    30.87978925     131.460673 # Zn-nc-cc
angle_coeff    2      57.496879     120.196951 # Zn-nc-nc
angle_coeff    3     48.4760699     109.336204 # Zn-o-c
angle_coeff    4      11.987154     92.5855661 # nc-Zn-nc
angle_coeff    5      18.429192     74.0971127 # o-Zn-o
angle_coeff    6     20.2159165      86.183884 # o-Zn-nc
angle_coeff    7     23.9870345     116.167131 # o-Zn-nc
angle_coeff    8     74.3545905     169.105528 # o-Zn-nc
angle_coeff    9           72.9     120.000000 # cc-nc-nc
angle_coeff   10           69.9     129.000000 # nc-cc-nc
angle_coeff   11           50.9     116.500000 # ha-cc-nc
angle_coeff   12           71.0     117.200000 # cc-nc-cc
angle_coeff   13           77.9     130.200000 # o-c-o
angle_coeff   14           67.2     120.800000 # c-c-o
dihedral_coeff    1       17.03190        -1         2 # Zn-nc-nc-cc
dihedral_coeff    2       8.367632        -1         2 # Zn-nc-cc-nc
dihedral_coeff    3       3.138488         1         2 # Zn-nc-cc-ha
dihedral_coeff    4       0.864613        -1         2 # Zn-o-c-o
dihedral_coeff    5       0.409487         1         2 # Zn-o-c-c
dihedral_coeff    6       5.537521         1         2 # o-Zn-o-c
dihedral_coeff    7            0.0         1         2 # nc-Zn-nc-cc
dihedral_coeff    8            0.0         1         2 # nc-Zn-nc-nc
dihedral_coeff    9            0.0         1         2 # nc-Zn-o-c
dihedral_coeff   10            0.0         1         2 # o-Zn-nc-cc
dihedral_coeff   11            0.0         1         2 # o-Zn-nc-nc
dihedral_coeff   12         4.7500        -1         2 # nc-cc-nc-nc
dihedral_coeff   13         4.7500        -1         2 # ha-cc-nc-nc
dihedral_coeff   14         4.0000        -1         2 # cc-nc-nc-cc
dihedral_coeff   15         4.7500        -1         2 # nc-cc-nc-cc
dihedral_coeff   16         4.7500        -1         2 # ha-cc-nc-cc
dihedral_coeff   17         0.3000        -1         2 # o-c-c-o
improper_coeff    1    1.1000        -1         2 # ha-cc-nc-nc
improper_coeff    2    1.1000        -1         2 # c-c-o-o


## H2O ##
#set             type 3 charge -1.1128
#set             type 4 charge  0.5564
bond_coeff       8 0.0 0.0
angle_coeff      15 0.0 0.0

## CO2 ##
#bond_coeff  8  0.0  0.0
#angle_coeff  15 0.0  0.0

## LJ ##
#pair_style      lj/cut/coul/long 20.0
pair_style      hybrid/overlay mbx 9.0 lj/cut 9.0 coul/exclude 9.0 #
pair_modify     tail yes


## MOF pair coefficients ##
pair_coeff      2      2         lj/cut      0.170000      3.249999
pair_coeff      2      3         lj/cut      0.120913      3.324834
pair_coeff      2      4         lj/cut      0.050498      2.924820
pair_coeff      2      5         lj/cut      0.188944      3.104782
pair_coeff      2      6         lj/cut      0.120913      3.324834
pair_coeff      3      3         lj/cut      0.086000      3.399670
pair_coeff      3      4         lj/cut      0.035917      2.999656
pair_coeff      3      5         lj/cut      0.134387      3.179618
pair_coeff      3      6         lj/cut      0.086000      3.399670
pair_coeff      4      4         lj/cut      0.015000      2.599642
pair_coeff      4      5         lj/cut      0.056125      2.779604
pair_coeff      4      6         lj/cut      0.035917      2.999656
pair_coeff      5      5         lj/cut      0.210000      2.959566
pair_coeff      5      6         lj/cut      0.134387      3.179618
pair_coeff      6      6         lj/cut      0.086000      3.399670
pair_coeff      1      2         lj/cut      0.145190      2.855776
pair_coeff      1      3         lj/cut      0.103267      2.930611
pair_coeff      1      4         lj/cut      0.043128      2.530598
pair_coeff      1      5         lj/cut      0.161369      2.710559
pair_coeff      1      6         lj/cut      0.103267      2.930611
pair_coeff      1      1         lj/cut      0.124000      2.461553

# H2O MOF Mixed
pair_coeff      2      7         lj/cut      0.177433      3.204449
pair_coeff      2      8         lj/cut      0.000000      0.000000
pair_coeff      3      7         lj/cut      0.126200      3.279285
pair_coeff      3      8         lj/cut      0.000000      0.000000
pair_coeff      4      7         lj/cut      0.052705      2.879271
pair_coeff      4      8         lj/cut      0.000000      0.000000
pair_coeff      5      7         lj/cut      0.197205      3.059233
pair_coeff      5      8         lj/cut      0.000000      0.000000
pair_coeff      6      7         lj/cut      0.126200      3.279285
pair_coeff      6      8         lj/cut      0.000000      0.000000
pair_coeff      1      7         lj/cut      0.151537      2.810227
pair_coeff      1      8         lj/cut      0.000000      0.000000

## TIP4P H2O ##
#pair_coeff      12 12 lj/cut/tip4p/long 0.1852 3.1589
#pair_coeff      12 13 lj/cut/tip4p/long 0.0 0.0
#pair_coeff      13 13 lj/cut/tip4p/long 0.0 0.0

#MBX-water
pair_coeff      * * mbx 2 dp1 1*6 h2o 7 8 8 json mbx.json

#coul exclude
pair_coeff      1*6 1*6 coul/exclude

## Non-bonded k-space ##
#kspace_style    ewald 0.000001
#kspace_style    pppm/tip4p 1.0e-5
special_bonds   amber
Finding 1-2 1-3 1-4 neighbors ...
  special bond factors lj:    0        0        0.5     
  special bond factors coul:  0        0        0.8333333333333334
     5 = max # of 1-2 neighbors
     8 = max # of 1-3 neighbors
    24 = max # of 1-4 neighbors
    26 = max # of special neighbors
  special bonds CPU = 0.000 seconds


neighbor        2.0 bin
neigh_modify    every 1 delay 1 check yes

timestep        ${dt}
timestep        0.2

compute         mbx all pair mbx
variable        e1bpip    equal c_mbx[1]
variable        e2bpip    equal c_mbx[2]
variable        e3bpip    equal c_mbx[3]
variable        e4bpip    equal c_mbx[4]
variable        edisp     equal c_mbx[5]
variable        ebuck     equal c_mbx[6]
variable        eperm     equal c_mbx[7]
variable        eind      equal c_mbx[8]
variable        eele      equal c_mbx[9]
variable        etot      equal c_mbx[10]

#thermo_style    custom step time temp cella cellb cellc vol pe ke etotal
thermo_style    custom step time temp cella cellb cellc evdwl ecoul epair ebond eangle edihed eimp emol elong etail v_e1bpip v_e2bpip v_e3bpip v_e4bpip v_edisp v_ebuck v_eele v_etot pe etotal
thermo          1
thermo_modify   flush yes

#fix             wshake water shake 1e-5 50 0 b 14 a 24 mol h2o
#fix        mynvt all nvt temp ${temp} ${temp} 100.0
fix             mynpt all npt temp ${temp} ${temp} $(100.0*dt) iso ${pressure} ${pressure} $(1000.0*dt) tchain 4
fix             mynpt all npt temp 1000.0 ${temp} $(100.0*dt) iso ${pressure} ${pressure} $(1000.0*dt) tchain 4
fix             mynpt all npt temp 1000.0 1000.0 $(100.0*dt) iso ${pressure} ${pressure} $(1000.0*dt) tchain 4
fix             mynpt all npt temp 1000.0 1000.0 20 iso ${pressure} ${pressure} $(1000.0*dt) tchain 4
fix             mynpt all npt temp 1000.0 1000.0 20 iso 1 ${pressure} $(1000.0*dt) tchain 4
fix             mynpt all npt temp 1000.0 1000.0 20 iso 1 1 $(1000.0*dt) tchain 4
fix             mynpt all npt temp 1000.0 1000.0 20 iso 1 1 200 tchain 4
#fix             3 all npt temp 298.15 298.15 $(250.0*dt) iso 1.0 1.0 $(1000.0*dt)
#fix            4 mof npt temp 298.15 298.15 $(250.0*dt) iso 1.0 1.0 $(1000.0*dt)
#fix             5 water gcmc 100 100 0 0 54341 ${temp} ${mu} ${disp} mol h2o tfac_insert ${tfac} group water shake wshake

#fix             nve all nve
#fix             nvt all nvt temp 300.0 300.0 1.0
#fix             3 all npt temp 298.15 298.15 $(10.0*dt) iso 1.0 1.0 $(100.0*dt)

velocity        all create ${temp} 428879 rot yes dist gaussian
velocity        all create 1000.0 428879 rot yes dist gaussian
#velocity        all zero linear
#velocity        all zero angular

dump            1 all custom 1 dump.lammpstrj id type x y z
dump_modify     1 sort id

restart         5 restart.inter.1 restart.inter.2

run             100

CITE-CITE-CITE-CITE-CITE-CITE-CITE-CITE-CITE-CITE-CITE-CITE-CITE

Your simulation uses code contributions which should be cited:

- pair mbx command:

@article{10.1063/5.0156036,
 author = {Riera, Marc and Knight, Christopher and Bull-Vulpe, Ethan F. and Zhu, Xuanyu and Agnew, Henry and Smith, Daniel G. A. and Simmonett, Andrew C. and Paesani, Francesco},
 title = "{MBX: A many-body energy and force calculator for data-driven many-body simulations}",
 journal = {The Journal of Chemical Physics},
 volume = {159},
 number = {5},
 pages = {054802},
 year = {2023},
 doi = {10.1063/5.0156036},
 version = {1.3.5}
}

CITE-CITE-CITE-CITE-CITE-CITE-CITE-CITE-CITE-CITE-CITE-CITE-CITE

Generated 0 of 28 mixed pair_coeff terms from geometric mixing rule
Neighbor list info ...
  update: every = 1 steps, delay = 1 steps, check = yes
  max neighbors/atom: 2000, page size: 100000
  master list distance cutoff = 11
  ghost atom cutoff = 11
  binsize = 5.5, bins = 4 4 4
  3 neighbor lists, perpetual/occasional/extra = 3 0 0
  (1) pair mbx, perpetual
      attributes: half, newton on
      pair build: half/bin/newton/tri
      stencil: half/bin/3d/tri
      bin: standard
  (2) pair lj/cut, perpetual, skip from (1)
      attributes: half, newton on
      pair build: skip
      stencil: none
      bin: none
  (3) pair coul/exclude, perpetual, skip from (1)
      attributes: half, newton on
      pair build: skip
      stencil: none
      bin: none
WARNING: Inconsistent image flags
For more information see https://docs.lammps.org/err0027 (src/domain.cpp:1052)
WARNING: Bond/angle/dihedral extent > half of periodic box length (src/domain.cpp:1174)
Per MPI rank memory allocation (min/avg/max) = 22.88 | 22.88 | 22.88 Mbytes
   Step          Time           Temp          Cella          Cellb          Cellc          E_vdwl         E_coul         E_pair         E_bond        E_angle        E_dihed        E_impro         E_mol          E_long         E_tail        v_e1bpip       v_e2bpip       v_e3bpip       v_e4bpip       v_edisp        v_ebuck         v_eele         v_etot         PotEng         TotEng    
         0   0              1000           8.9138002      19.386999      18.967199     -2468.2678      1842.9585     -625.30922      86.202045      609.13315      808.83684      0.002529123    1504.1746      0             -13.402122      2.7413427      10.853553      0              0             -4.4139812      0             -2381.256      -2372.0751      878.86534      1454.1617    
         1   0.2            999.3212       8.9138026      19.387004      18.967204     -2468.7735      1843.2288     -625.54468      86.392974      609.40043      808.99776      0.0080469775   1504.7992      0             -13.402111      2.692873       10.751392      0              0             -4.3935763      0             -2381.3167     -2372.266       879.25453      1454.1604    
         2   0.4            995.41249      8.9138101      19.387021      18.96722      -2469.1748      1843.5597     -625.61511      87.852387      610.05001      809.19222      0.022852152    1507.1175      0             -13.402077      2.8166715      10.652393      0              0             -4.3741436      0             -2381.4431     -2372.3482      881.50236      1454.1595    
         3   0.6            988.40822      8.9138229      19.387048      18.967248     -2469.4707      1843.9505     -625.52015      90.517096      611.07624      809.42011      0.046932778    1511.0604      0             -13.40202       3.1044631      10.556358      0              0             -4.355653       0             -2381.6356     -2372.3304      885.54023      1454.1679    
         4   0.8            978.53904      8.9138413      19.387088      18.967287     -2469.6844      1844.4004     -625.28407      94.282973      612.46739      809.68127      0.080278472    1516.5119      0             -13.401937      3.5400921      10.46307       0              0             -4.3380741      0             -2381.8929     -2372.2278      891.22784      1454.1778    
         5   1              966.12508      8.9138653      19.387141      17.074581     -2470.052       1844.9066     -625.14533      99.009769      614.20584      809.97546      0.12287962     1523.3139      0             -13.401828      4.1002075      10.372306      0              0             -4.3215768      0             -2382.4293     -2372.2784      898.16861      1453.9768    
         6   1.2            951.55592      8.9138952      19.387206      17.074638     -2470.1711      1845.4688     -624.70231      104.52747      616.26832      810.30242      0.17472615     1531.2729      0             -13.401694      4.7554534      10.283853      0              0             -4.3057283      0             -2382.8138     -2372.0802      906.57062      1453.9973    
         7   1.4            935.27341      8.9139309      19.387283      17.074706     -2470.2904      1846.0869     -624.20348      110.64392      618.62639      810.6618       0.23580621     1540.1679      0             -13.401532      5.4721871      10.197518      0              0             -4.2906998      0             -2383.2597     -2371.8807      915.96444      1454.0238    
         8   1.6            917.7583       8.9139725      19.387374      17.074786     -2470.4397      1846.7595     -623.68018      117.15328      621.24686      811.05321      0.30610438     1549.7595      0             -13.401345      6.214772       10.11314       0              0             -4.2764614      0             -2383.7653     -2371.7138      926.07928      1454.0623    
         9   1.8            899.5058       8.91402        19.387477      17.074877     -2470.6619      1847.485      -623.17687      123.8449       624.09248      811.47615      0.38559987     1559.7991      0             -13.401131      6.9482839      10.030591      0              0             -4.2629835      0             -2384.3284     -2371.6125      936.62226      1454.1047    
        10   2              881.00612      8.9140733      19.387593      17.074979     -2470.987       1848.2504     -622.73669      130.51223      627.12258      811.93007      0.47426468     1570.0391      0             -13.40089       7.6414181      9.9497863      0              0             -4.2502378      0             -2384.9463     -2371.6054      947.30246      1454.1421    
        11   2.2            862.71884      8.9141323      19.387721      17.075092     -2471.4335      1849.072      -622.36154      136.96137      630.29384      812.41432      0.57206194     1580.2416      0             -13.400624      8.2692801      9.8706765      0              0             -4.2381973      0             -2385.616      -2371.7143      957.88005      1454.199     
        12   2.4            845.05395      8.914197       19.387862      17.075216     -2472.0133      1849.939      -622.07429      143.01872      633.56119      812.92817      0.6789443      1590.187       0             -13.400332      8.8157025      9.7932459      0              0             -4.2268367      0             -2386.3339     -2371.9518      968.11274      1454.2692    
        13   2.6            828.36114      8.9142672      19.388015      17.07535      -2472.73        1850.8479     -621.8821       148.53755      636.87859      813.47081      0.79485284     1599.6818      0             -13.400016      9.2747427      9.7175035      0              0             -4.2161329      0             -2387.0956     -2372.3195      977.7997       1454.3528    
        14   2.8            812.91644      8.9143428      19.388179      17.075495     -2473.5824      1851.795      -621.78733      153.40308      640.19995      814.04132      0.91971637     1608.5641      0             -13.399675      9.6511002      9.6434735      0              0             -4.2060657      0             -2387.8966     -2372.8081      986.77672      1454.4446    
        15   3              798.91653      8.9144237      19.388355      17.07565      -2474.5504      1852.7747     -621.77572      157.53591      643.47993      814.6387       1.0534512      1616.708       0             -13.39931       9.9593287      9.5711845      0              0             -4.196618       0             -2388.7317     -2373.3978      994.93227      1454.546     
        16   3.2            786.4773       8.9145098      19.388542      17.075815     -2475.6054      1853.7843     -621.82109      160.89365      646.67477      815.26188      1.1959613      1624.0263      0             -13.398922      10.221875      9.500659       0              0             -4.1877759      0             -2389.5958     -2374.061       1002.2052      1454.6627    
        17   3.4            775.63795      8.9146008      19.38874       17.075989     -2476.716       1854.8179     -621.89815      163.47072      649.74299      815.90972      1.3471392      1630.4706      0             -13.398512      10.466136      9.4319049      0              0             -4.1795296      0             -2390.4823     -2374.7637      1008.5724      1454.7941    
        18   3.6            766.37016      8.9146967      19.388949      17.076173     -2477.8498      1855.8702     -621.9796       165.29632      652.64612      816.58098      1.5068671      1636.0303      0             -13.398079      10.720862      9.3649078      0              0             -4.171873       0             -2391.3852     -2375.4713      1014.0507      1454.9406    
        19   3.8            758.58989      8.9147973      19.389168      17.076366     -2478.9744      1856.9357     -622.03867      166.43084      655.34918      817.27438      1.6750181      1640.7294      0             -13.397626      11.012289      9.2996274      0              0             -4.1648043      0             -2392.2984     -2376.1513      1018.6907      1455.1047    
        20   4              752.17158      8.9149025      19.389397      17.076567     -2480.061       1858.0088     -622.05217      166.96075      657.82122      817.9886       1.8514585      1644.622       0             -13.397151      11.360463      9.2359964      0              0             -4.1583254      0             -2393.2157     -2376.7776      1022.5698      1455.2914    
        21   4.2            746.96367      8.9150122      19.389635      17.076778     -2481.1042      1859.084      -622.02018      166.99238      660.03563      818.72225      2.036049       1647.7863      0             -13.396656      11.776147      9.1739223      0              0             -4.1524425      0             -2394.1307     -2377.3331      1025.7661      1455.4916    
        22   4.4            742.80392      8.9151263      19.389883      17.076996     -2482.0867      1860.1557     -621.93102      166.64492      661.97046      819.47393      2.2286467      1650.318       0             -13.396142      12.258701      9.113293       0              0             -4.1471656      0             -2395.0374     -2377.8126      1028.3869      1455.7193    
        23   4.6            739.53349      8.9152447      19.390141      17.077223     -2483.0244      1861.2188     -621.80553      166.0429       663.60853      820.24222      2.4291072      1652.3228      0             -13.395609      12.795198      9.053985       0              0             -4.1425083      0             -2395.9303     -2378.2236      1030.5172      1455.9681    
        24   4.8            737.00882      8.9153671      19.390407      17.077457     -2483.9384      1862.2684     -621.67         165.3087       664.93761      821.02566      2.637285       1653.9092      0             -13.395057      13.360963      8.995874       0              0             -4.138488       0             -2396.8043     -2378.5859      1032.2392      1456.2377    
        25   5              735.11063      8.9154936      19.390682      17.0777       -2484.8593      1863.2998     -621.55946      164.55537      665.95034      821.82281      2.8530355      1655.1816      0             -13.394487      13.921518      8.9388465      0              0             -4.1351257      0             -2397.6546     -2378.9294      1033.6221      1456.5285    
        26   5.2            733.74947      8.915624       19.390966      17.077949     -2485.8207      1864.3092     -621.51154      163.88017      666.6443       822.63222      3.0762148      1656.2329      0             -13.393899      14.435815      8.8828128      0              0             -4.1324459      0             -2398.4773     -2379.2911      1034.7214      1456.8447    
        27   5.4            732.86813      8.9157582      19.391258      17.078206     -2486.8623      1865.2929     -621.56944      163.35912      667.02181      823.45245      3.3066804      1657.1401      0             -13.393294      14.860399      8.8277189      0              0             -4.130477       0             -2399.2691     -2379.7115      1035.5706      1457.187     
        28   5.6            732.44093      8.915896       19.391557      17.07847      -2488.0269      1866.2479     -621.77898      163.04292      667.0899       824.28208      3.5442904      1657.9592      0             -13.392673      15.154013      8.7735576      0              0             -4.1292508      0             -2400.028      -2380.2297      1036.1802      1457.5508    
        29   5.8            732.47081      8.9160372      19.391864      17.078741     -2489.3417      1867.172      -622.16972      162.95432      666.86006      825.11968      3.7889029      1658.723       0             -13.392037      15.282053      8.7203762      0              0             -4.1288031      0             -2400.7512     -2380.8776      1036.5533      1457.941     
        30   6              732.98502      8.9161818      19.392179      17.079018     -2490.8298      1868.0627     -622.76719      163.08721      666.34807      825.96387      4.0403745      1659.4395      0             -13.391385      15.220287      8.6682812      0              0             -4.1291736      0             -2401.4382     -2381.6788      1036.6723      1458.3559    
        31   6.2            734.0297       8.9163295      19.3925        17.079301     -2492.5015      1868.9199     -623.58159      163.40736      665.57375      826.81327      4.2985589      1660.0929      0             -13.39072       14.957313      8.6174388      0              0             -4.1304057      0             -2402.0888     -2382.6445      1036.5113      1458.796     
        32   6.4            735.66464      8.9164801      19.392828      17.079589     -2494.355       1869.7426     -624.61234      163.85477      664.56068      827.66654      4.5633041      1660.6453      0             -13.390041      14.495481      8.5680714      0              0             -4.1325443      0             -2402.7037     -2383.7727      1036.033       1459.2581    
        33   6.6            737.9584       8.9166335      19.393161      17.079883     -2496.3714      1870.5307     -625.84076      164.34762      663.33591      828.52234      4.8344509      1661.0403      0             -13.38935       13.85025       8.5204498      0              0             -4.135659       0             -2403.2838     -2385.0487      1035.1996      1459.7443    
        34   6.8            740.98329      8.9167894      19.3935        17.080182     -2498.5196      1871.2845     -627.23519      164.78742      661.92959      829.37937      5.1118294      1661.2082      0             -13.388648      13.048182      8.4748823      0              0             -4.1397744      0             -2403.8307     -2386.4474      1033.973       1460.258     
        35   7              744.81034      8.9169477      19.393845      17.080485     -2500.7659      1872.0047     -628.76121      165.06531      660.37459      830.23637      5.3952573      1661.0715      0             -13.387935      12.124017      8.4317013      0              0             -4.1449604      0             -2404.3467     -2387.936       1032.3103      1460.797     
        36   7.2            749.50384      8.9171081      19.394194      17.080792     -2503.0679      1872.6924     -630.37549      165.06895      658.70607      831.09208      5.6845368      1660.5516      0             -13.387213      11.117317      8.3912491      0              0             -4.1512763      0             -2404.8342     -2389.4769      1030.1761      1461.363     
        37   7.4            755.11539      8.9172705      19.394547      17.081103     -2505.3861      1873.3488     -632.03732      164.68976      656.96097      831.94527      5.9794527      1659.5755      0             -13.386481      10.069181      8.3538638      0              0             -4.1587825      0             -2405.2958     -2391.0316      1027.5381      1461.9532    
        38   7.6            761.67737      8.9174347      19.394904      17.081418     -2507.6783      1873.9751     -633.70314      163.83013      655.17755      832.79475      6.2797699      1658.0822      0             -13.385741      9.0193908      8.3198656      0              0             -4.167538       0             -2405.7343     -2392.5626      1024.3791      1462.5693    
        39   7.8            769.1961       8.9176006      19.395265      17.081736     -2509.9074      1874.5726     -635.33474      162.41016      653.39479      833.63935      6.5852329      1656.0295      0             -13.384994      8.0042303      8.2895461      0              0             -4.1776149      0             -2406.1522     -2394.036       1020.6948      1463.2105    
        40   8              777.64594      8.9177681      19.395629      17.082056     -2512.0354      1875.1384     -636.89706      160.37353      651.65183      834.47791      6.8955641      1653.3988      0             -13.384241      7.0550103      8.2631599      0              0             -4.1890604      0             -2406.552      -2395.4229      1016.5018      1463.8786    
        41   8.2            786.9622       8.9179369      19.395996      17.08238      -2514.0402      1875.6802     -638.36002      157.69228      649.98736      835.30931      7.2104645      1650.1994      0             -13.38348       6.1972504      8.2409191      0              0             -4.201937       0             -2406.9357     -2396.6995      1011.8394      1464.5759    
        42   8.4            797.03701      8.9181071      19.396366      17.082706     -2515.9012      1876.1956     -639.70567      154.37011      648.43904      836.13247      7.529614       1646.4712      0             -13.382714      5.450361       8.2229913      0              0             -4.2163024      0             -2407.3051     -2397.848       1006.7656      1465.298     
        43   8.6            807.71873      8.9182785      19.396739      17.083034     -2517.5969      1876.6845     -640.91239      150.44407      647.04288      836.94629      7.8526728      1642.2859      0             -13.381943      4.8276622      8.2094999      0              0             -4.2322068      0             -2407.6612     -2398.8562      1001.3735      1466.0512    
        44   8.8            818.81206      8.9184512      19.397115      17.083365     -2519.1238      1877.1467     -641.97709      145.98452      645.83268      837.74975      8.1792836      1637.7462      0             -13.381165      4.336592       8.2005281      0              0             -4.249697       0             -2408.0047     -2399.7173      995.76914      1466.8287    
        45   9              830.08214      8.918625       19.397493      17.083698     -2520.4764      1877.5792     -642.89713      141.09324      644.8395       838.5418       8.5090741      1632.9836      0             -13.380383      3.9790086      8.1961237      0              0             -4.2688143      0             -2408.3358     -2400.4295      990.08648      1467.6297    
        46   9.2            841.25982      8.9188         19.397873      17.084033     -2521.6522      1877.9845     -643.66764      135.89991      644.09113      839.32146      8.8416599      1628.1542      0             -13.379595      3.751555       8.1963065      0              0             -4.2895929      0             -2408.6539     -2400.9956      984.48653      1468.4602    
        47   9.4            852.05035      8.9189761      19.398256      17.08437      -2522.6545      1878.3597     -644.29482      130.55701      643.61174      840.08776      9.1766475      1623.4332      0             -13.378803      3.6461076      8.2010751      0              0             -4.3120596      0             -2408.9581     -2401.4229      979.13834      1469.3198    
        48   9.6            862.14526      8.9191534      19.398642      17.08471      -2523.5002      1878.7029     -644.79727      125.23333      643.42142      840.83975      9.513638       1619.0081      0             -13.378005      3.6503714      8.2104142      0              0             -4.3362326      0             -2409.247      -2401.7224      974.21086      1470.1999    
        49   9.8            871.23383      8.9193316      19.39903       17.085051     -2524.1975      1879.0122     -645.18525      120.10659      643.53601      841.57649      9.852229       1615.0713      0             -13.377203      3.748693       8.2243003      0              0             -4.3621228      0             -2409.519      -2401.9081      969.88606      1471.1037    
        50   10             879.01592      8.9195109      19.39942       17.085395     -2524.7625      1879.285      -645.4775       115.35532      643.96678      842.29708      10.192018      1611.8112      0             -13.376396      3.9231499      8.2427051      0              0             -4.3897241      0             -2409.7716     -2401.9955      966.3337       1472.0283    
        51   10.2           885.21366      8.919691       19.399811      17.08574      -2525.2112      1879.52       -645.69122      111.15053      644.72042      843.00064      10.532603      1609.4042      0             -13.375586      4.154921       8.2655972      0              0             -4.4190261      0             -2410.004      -2402.0025      963.71297      1472.9731    
        52   10.4           889.58295      8.9198719      19.400205      17.086086     -2525.5644      1879.7152     -645.84922      107.64758      645.79889      843.68631      10.873587      1608.0064      0             -13.374772      4.4258934      8.2929402      0              0             -4.4500042      0             -2410.2139     -2401.945       962.15715      1473.931     
        53   10.6           891.92436      8.9200533      19.400599      17.086434     -2525.8318      1879.869      -645.96274      104.97866      647.19954      844.35322      11.214574      1607.746       0             -13.373956      4.7203658      8.3246883      0              0             -4.4826211      0             -2410.3991     -2401.8366      961.78325      1474.9041    
        54   10.8           892.09114      8.920235       19.400994      17.086782     -2526.0211      1879.9801     -646.04108      103.24617      648.91513      845.00054      11.555174      1608.717       0             -13.373139      5.0267048      8.3607805      0              0             -4.5168258      0             -2410.558      -2401.6874      962.67594      1475.8927    
        55   11             889.99621      8.9204167      19.40139       17.08713      -2526.1471      1880.047      -646.10004      102.5176       650.93405      845.62742      11.895001      1610.9741      0             -13.372322      5.3386921      8.4011329      0              0             -4.5525531      0             -2410.6894     -2401.5021      964.87404      1476.8856    
        56   11.2           885.61622      8.920598       19.401784      17.087477     -2526.2028      1880.07       -646.13278      102.82181      653.24049      846.23305      12.233673      1614.529       0             -13.371506      5.6563837      8.4456306      0              0             -4.5897226      0             -2410.7923     -2401.28        968.39625      1477.888     
        57   11.4           878.99399      8.9207786      19.402177      17.087823     -2526.1904      1880.0488     -646.14159      104.14729      655.81475      846.81659      12.570811      1619.3494      0             -13.370695      5.9863003      8.4941198      0              0             -4.6282378      0             -2410.866      -2401.0138      973.20785      1478.8899    
        58   11.6           870.23926      8.9209579      19.402567      17.088167     -2526.0912      1879.9838     -646.10745      106.44218      658.63358      847.37721      12.90604       1625.359       0             -13.369888      6.3408492      8.5464011      0              0             -4.6679857      0             -2410.9104     -2400.6911      979.25156      1479.897     
        59   11.8           859.52679      8.9211355      19.402953      17.088507     -2525.8959      1879.8759     -646.01996      109.61636      661.6705       847.91407      13.238986      1632.4399      0             -13.36909       6.7369698      8.6022253      0              0             -4.7088356      0             -2410.9257     -2400.2953      986.41996      1480.9026    
        60   12             847.09254      8.9213106      19.403334      17.088842     -2525.5925      1879.7265     -645.86598      113.54518      664.89627      848.42634      13.569278      1640.4371      0             -13.368303      7.1940933      8.6612895      0              0             -4.7506349      0             -2410.9123     -2399.8075      994.5711       1481.9003    
        61   12.2           833.22773      8.9214828      19.403708      17.089172     -2525.1583      1879.5373     -645.62102      118.07502      668.27931      848.91317      13.896547      1649.1641      0             -13.367529      7.7315942      8.7232369      0              0             -4.7932248      0             -2410.8711     -2399.2095      1003.543       1482.8959    
        62   12.4           818.27096      8.9216513      19.404075      17.089495     -2524.5818      1879.3102     -645.2716       123.03008      671.78619      849.3737       14.220429      1658.4104      0             -13.366771      8.3659872      8.7876567      0              0             -4.8364155      0             -2410.8035     -2398.4863      1013.1388      1483.8871    
        63   12.6           802.5983       8.9218154      19.404432      17.089809     -2523.8588      1879.0476     -644.81115      128.22029      675.38216      849.80707      14.540561      1667.9501      0             -13.366034      9.1081625      8.8540862      0              0             -4.8800029      0             -2410.7106     -2397.6284      1023.1389      1484.8708    
        64   12.8           786.61161      8.9219745      19.404778      17.090114     -2522.9929      1878.7519     -644.24099      133.4499       679.0317       850.21242      14.856589      1677.5506      0             -13.365319      9.9609784      8.9220125      0              0             -4.9237656      0             -2410.5942     -2396.635       1033.3096      1485.8444    
        65   13             770.72524      8.9221278      19.405111      17.090408     -2521.992       1878.4257     -643.56634      138.5262       682.69906      850.58889      15.168164      1686.9823      0             -13.36463       10.917513      8.9908757      0              0             -4.9674656      0             -2410.4558     -2395.5148      1043.416       1486.8114    
        66   13.2           755.35135      8.9222747      19.405431      17.090689     -2520.8782      1878.0715     -642.80675      143.26821      686.34885      850.93563      15.474947      1696.0276      0             -13.36397       11.960246      9.0600713      0              0             -5.0108502      0             -2410.2968     -2394.2874      1053.2209      1487.7717    
        67   13.4           740.8845       8.9224145      19.405735      17.090957     -2519.6838      1877.6917     -641.99205      147.5146       689.94659      851.25177      15.776612      1704.4896      0             -13.363342      13.061349      9.1289535      0              0             -5.0536541      0             -2410.1188     -2392.9821      1062.4975      1488.7257    
        68   13.6           727.68584      8.9225464      19.406022      17.091209     -2518.4505      1877.2889     -641.16163      151.13073      693.45925      851.53651      16.072849      1712.1993      0             -13.362749      14.184187      9.1968388      0              0             -5.0956025      0             -2409.923      -2391.6376      1071.0377      1489.6727    
        69   13.8           716.06768      8.9226699      19.40629       17.091446     -2517.2276      1876.8651     -640.36249      154.01431      696.85582      851.78902      16.363364      1719.0225      0             -13.362194      15.285946      9.263011       0              0             -5.1364139      0             -2409.7105     -2390.298       1078.66        1490.6111    
        70   14             706.27985      8.9227843      19.406539      17.091665     -2516.0624      1876.4197     -639.64264      156.09942      700.10775      852.00853      16.647887      1724.8636      0             -13.36168       16.321186      9.3267274      0              0             -5.1758041      0             -2409.4823     -2389.0101      1085.2209      1491.5412    
        71   14.2           698.49672      8.9228892      19.406767      17.091866     -2514.998       1875.9593     -639.03871      157.35884      703.18937      852.19429      16.926169      1729.6687      0             -13.361209      17.245917      9.3872273      0              0             -5.2134901      0             -2409.2388     -2387.8191      1090.63        1492.4726    
        72   14.4           692.80874      8.9229839      19.406973      17.092047     -2514.0773      1875.4834     -638.59389      157.80437      706.07829      852.34561      17.197987      1733.4263      0             -13.360783      18.021724      9.4437435      0              0             -5.2491941      0             -2408.9807     -2386.7645      1094.8324      1493.4027    
        73   14.6           689.21921      8.9230682      19.407156      17.092209     -2513.3309      1874.9935     -638.33739      157.48533      708.75567      852.46183      17.463147      1736.166       0             -13.360405      18.619368      9.4955145      0              0             -5.2826477      0             -2408.7078     -2385.8756      1097.8286      1494.3339    
        74   14.8           687.64453      8.9231414      19.407316      17.092349     -2512.7793      1874.4908     -638.28842      156.48522      711.2064       852.54233      17.721482      1737.9554      0             -13.360076      19.021392      9.5417998      0              0             -5.3135962      0             -2408.4204     -2385.1708      1099.667       1495.2664    
        75   15             687.92018      8.9232035      19.407451      17.092468     -2512.423       1873.9766     -638.44637      154.91677      713.41927      852.58657      17.972855      1738.8955      0             -13.359797      19.223369      9.5818956      0              0             -5.3418023      0             -2408.1181     -2384.6547      1100.4491      1496.2071    
        76   15.2           689.81188      8.9232539      19.40756       17.092564     -2512.2653      1873.452      -638.81336      152.9156       715.38697      852.59403      18.217159      1739.1138      0             -13.359571      19.233679      9.6151499      0              0             -5.3670498      0             -2407.8011     -2384.3193      1100.3004      1497.1466    
        77   15.4           693.03112      8.9232926      19.407644      17.092639     -2512.2816      1872.9181     -639.36355      150.63282      717.10606      852.56429      18.454317      1738.7575      0             -13.359397      19.071928      9.640978       0              0             -5.3891471      0             -2407.4691     -2384.1453      1099.3939      1498.0922    
        78   15.6           697.25369      8.9233192      19.407702      17.09269      -2512.4385      1872.3762     -640.06226      148.22702      718.57686      852.49695      18.684277      1737.9851      0             -13.359277      18.766327      9.658874       0              0             -5.4079297      0             -2407.1223     -2384.105       1097.9229      1499.0504    
        79   15.8           702.14006      8.9233339      19.407734      17.092718     -2512.7066      1871.8277     -640.8789       145.85591      719.80327      852.39169      18.907015      1736.9579      0             -13.359212      18.350483      9.6684213      0              0             -5.4232633      0             -2406.7608     -2384.1652      1096.079       1500.0176    
        80   16             707.3557       8.9233363      19.40774       17.092722     -2513.0521      1871.2743     -641.77776      143.66817      720.79249      852.24824      19.122531      1735.8314      0             -13.3592        17.860068      9.6692987      0              0             -5.4350455      0             -2406.3853     -2384.291       1094.0537      1500.9928    
        81   16.2           712.5902       8.9233266      19.407718      17.092704     -2513.432       1870.7178     -642.71421      141.79588      721.55474      852.06638      19.330848      1734.7478      0             -13.359244      17.329778      9.6612841      0              0             -5.4432076      0             -2405.9966     -2384.4487      1092.0336      1501.9842    
        82   16.4           717.57383      8.9233048      19.407671      17.092662     -2513.8253      1870.1603     -643.66497      140.34786      722.10293      851.84596      19.532007      1733.8288      0             -13.359342      16.790845      9.6442558      0              0             -5.447716       0             -2405.596      -2384.6086      1090.1638      1502.9814    
        83   16.6           722.09082      8.9232709      19.407597      17.092597     -2514.2086      1869.6044     -644.6042       139.40435      722.45223      851.58689      19.726065      1733.1695      0             -13.359494      16.26924       9.6181905      0              0             -5.4485894      0             -2405.1853     -2384.7464      1088.5653      1503.9815    
        84   16.8           725.98888      8.9232251      19.407498      17.092509     -2514.5597      1869.053      -645.50676      139.01323      722.61972      851.28911      19.913096      1732.8351      0             -13.3597        15.78456       9.5831604      0              0             -5.4458331      0             -2404.7667     -2384.8448      1087.3284      1504.9871    
        85   17             729.18461      8.9231675      19.407373      17.092399     -2514.8717      1868.5091     -646.36258      139.18794      722.62389      850.95264      20.093181      1732.8576      0             -13.359959      15.349503      9.5393298      0              0             -5.4395363      0             -2404.343      -2384.8937      1086.4951      1505.9923    
        86   17.2           731.66498      8.9230985      19.407222      17.092267     -2515.1306      1867.9763     -647.15433      139.90735      722.48426      850.57755      20.266413      1733.2356      0             -13.360269      14.969806      9.4869501      0              0             -5.4298067      0             -2403.9174     -2384.8905      1086.0812      1507.0054    
        87   17.4           733.48503      8.9230182      19.407048      17.092113     -2515.3488      1867.4582     -647.89056      141.11736      722.22088      850.16396      20.432888      1733.9351      0             -13.36063       14.644511      9.4263554      0              0             -5.4167847      0             -2403.4935     -2384.8395      1086.0445      1508.0158    
        88   17.6           734.76199      8.9229269      19.406849      17.091938     -2515.5342      1866.959      -648.57523      142.73434      721.85393      849.71208      20.592707      1734.8931      0             -13.36104       14.366476      9.3579582      0              0             -5.4006409      0             -2403.0754     -2384.7517      1086.3178      1509.0237    
        89   17.8           735.66629      8.922825       19.406628      17.091743     -2515.7045      1866.4825     -649.22199      144.65009      721.40325      849.22214      20.745973      1736.0214      0             -13.361497      14.123093      9.2822446      0              0             -5.3815728      0             -2402.6677     -2384.6439      1086.7995      1510.0256    
        90   18             736.40988      8.9227129      19.406384      17.091528     -2515.8771      1866.0331     -649.84406      146.73814      720.88793      848.69447      20.892785      1737.2133      0             -13.362001      13.897235      9.1997696      0              0             -5.3598008      0             -2402.2744     -2384.5372      1087.3693      1511.0232    
        91   18.2           737.23217      8.9225911      19.406119      17.091295     -2516.0818      1865.6147     -650.46709      148.86099      720.32599      848.12944      21.033244      1738.3497      0             -13.362548      13.668458      9.1111517      0              0             -5.3355641      0             -2401.9006     -2384.4565      1087.8826      1512.0095    
        92   18.4           738.38437      8.92246        19.405834      17.091044     -2516.339       1865.2312     -651.10775      150.87793      719.73398      847.52752      21.167442      1739.3069      0             -13.363137      13.414528      9.0170669      0              0             -5.3091159      0             -2401.5506     -2384.4281      1088.1991      1512.989     
        93   18.6           740.11288      8.92232        19.405529      17.090776     -2516.6707      1864.8863     -651.7844       152.65304      719.12677      846.88922      21.295471      1739.9645      0             -13.363766      13.113253      8.9182416      0              0             -5.2807176      0             -2401.2291     -2384.4784      1088.1801      1513.9643    
        94   18.8           742.64244      8.9221719      19.405207      17.090492     -2517.1         1864.5832     -652.51684      154.06292      718.51726      846.21515      21.417412      1740.2127      0             -13.364432      12.744608      8.815444       0              0             -5.2506343      0             -2400.9409     -2384.6315      1087.6959      1514.9354    
        95   19             746.16015      8.9220161      19.404868      17.090194     -2517.6479      1864.3244     -653.32354      155.00375      717.91634      845.50598      21.533342      1739.9594      0             -13.365132      12.292988      8.7094741      0              0             -5.2191292      0             -2400.6883     -2384.905       1086.6359      1515.8991    
        96   19.2           750.80117      8.9218534      19.404514      17.089882     -2518.3279      1864.112      -654.21592      155.39731      717.33271      844.76245      21.643329      1739.1358      0             -13.365863      11.749417      8.6011527      0              0             -5.1864586      0             -2400.4749     -2385.3108      1084.9199      1516.853     
        97   19.4           756.63721      8.9216843      19.404147      17.089558     -2519.1371      1863.9473     -655.18978      155.19559      716.77295      843.98541      21.747432      1737.7014      0             -13.366623      11.113434      8.4913088      0              0             -5.152868       0             -2400.3031     -2385.8513      1082.5116      1517.8022    
        98   19.6           763.66877      8.9215096      19.403767      17.089223     -2520.0635      1863.8308     -656.23271      154.38388      716.24155      843.17573      21.845703      1735.6469      0             -13.367408      10.394385      8.3807665      0              0             -5.1185876      0             -2400.1745     -2386.5179      1079.4142      1518.75      
        99   19.8           771.82188      8.9213299      19.403376      17.088879     -2521.0912      1863.7623     -657.32888      152.98195      715.74107      842.33442      21.938185      1732.9956      0             -13.368216      9.6118935      8.2703318      0              0             -5.0838296      0             -2400.0896     -2387.2912      1075.6668      1519.6931    
       100   20             780.94947      8.9211461      19.402976      17.088527     -2522.1859      1863.7407     -658.4452       151.04352      715.27228      841.4625       22.024912      1729.8032      0             -13.369042      8.7953124      8.1607786      0              0             -5.0487857      0             -2400.0486     -2388.1413      1071.358       1520.6354    
WARNING: Bond/angle/dihedral extent > half of periodic box length (src/domain.cpp:1174)
Loop time of 5.09542 on 1 procs for 100 steps with 194 atoms

Performance: 0.339 ns/day, 70.770 hours/ns, 19.625 timesteps/s, 3.807 katom-step/s
98.6% CPU use with 1 MPI tasks x 1 OpenMP threads

MPI task timing breakdown:
Section |  min time  |  avg time  |  max time  |%varavg| %total
---------------------------------------------------------------
Pair    | 4.7161     | 4.7161     | 4.7161     |   0.0 | 92.56
Bond    | 0.0097306  | 0.0097306  | 0.0097306  |   0.0 |  0.19
Neigh   | 0.063597   | 0.063597   | 0.063597   |   0.0 |  1.25
Comm    | 0.0023408  | 0.0023408  | 0.0023408  |   0.0 |  0.05
Output  | 0.087427   | 0.087427   | 0.087427   |   0.0 |  1.72
Modify  | 0.21563    | 0.21563    | 0.21563    |   0.0 |  4.23
Other   |            | 0.0005745  |            |       |  0.01

Nlocal:            194 ave         194 max         194 min
Histogram: 1 0 0 0 0 0 0 0 0 0
Nghost:           2968 ave        2968 max        2968 min
Histogram: 1 0 0 0 0 0 0 0 0 0
Neighs:          35679 ave       35679 max       35679 min
Histogram: 1 0 0 0 0 0 0 0 0 0

Total # of neighbors = 35679
Ave neighs/atom = 183.91237
Ave special neighs/atom = 15.195876
Neighbor list builds = 20
Dangerous builds = 0

write_data      final.data nocoeff
System init for write_data ...
Generated 0 of 28 mixed pair_coeff terms from geometric mixing rule
write_restart   restart.inter
System init for write_restart ...
Generated 0 of 28 mixed pair_coeff terms from geometric mixing rule
Total wall time: 0:00:05
