ITEM: TIMESTEP
0
ITEM: NUMBER OF ATOMS
194
ITEM: BOX BOUNDS xy xz yz pp pp pp
-8.2834166000000007e+00 8.9138002000000007e+00 0.0000000000000000e+00
0.0000000000000000e+00 1.9386999100000001e+01 -8.2834166000000007e+00
0.0000000000000000e+00 1.7062815100000002e+01 0.0000000000000000e+00
ITEM: ATOMS id type x y z
1 1 -0.260404 0.546303 3.74276
2 1 5.0325 9.1472 4.78864
3 1 7.10335 5.39305 0.522937
4 1 -2.33126 4.30045 8.00847
5 2 -1.23386 8.59059 3.1504
6 2 6.00595 1.10291 5.38101
7 2 8.07681 3.74384 1.11531
8 2 -3.30471 5.94965 7.4161
9 2 6.40669 8.23356 3.50437
10 2 -1.63459 1.45994 5.02704
11 2 0.43626 3.38681 0.761336
12 2 4.33583 6.30669 7.77007
13 2 7.0941 6.85486 1.9124
14 2 -2.322 2.83864 6.61901
15 2 -0.25115 2.00811 2.3533
16 2 5.02324 7.68539 6.1781
17 5 1.09935 0.742057 5.22719
18 5 3.67274 8.95144 3.30421
19 5 1.60189 5.58881 7.56992
20 5 3.17021 4.10469 0.96149
21 5 3.23852 0.315743 5.774
22 5 1.53357 9.37776 2.7574
23 5 -0.537285 5.16249 7.02311
24 5 5.30938 4.53101 1.5083
25 3 -0.848651 7.75052 2.19032
26 3 5.62074 1.94297 6.34108
27 3 7.6916 2.90378 2.07538
28 3 -2.91951 6.78972 6.45603
29 3 6.0844 7.18878 2.74868
30 3 -1.31231 2.50472 5.78272
31 3 0.758542 2.34203 1.51702
32 3 4.01355 7.35147 7.01439
33 6 2.26632 0.303975 4.97503
34 6 2.50578 9.38952 3.55638
35 6 0.434923 5.15072 7.82208
36 6 4.33717 4.54277 0.709327
37 4 0.121541 7.80365 1.71084
38 4 4.65055 1.88985 6.82057
39 4 6.72141 2.95689 2.55487
40 4 -1.94931 6.7366 5.97654
41 4 5.13202 6.67611 2.79427
42 4 -0.359926 3.01739 5.73713
43 4 1.71093 1.82936 1.47143
44 4 3.06116 7.86414 7.05998
45 1 -4.40211 0.546303 12.2742
46 1 0.890787 9.1472 13.32
47 1 2.96164 5.39305 9.05434
48 1 -6.47297 4.30045 16.5399
49 2 -5.37557 8.59059 11.6818
50 2 1.86424 1.10291 13.9124
51 2 3.9351 3.74384 9.64671
52 2 -7.44642 5.94965 15.9475
53 2 2.26498 8.23356 12.0358
54 2 -5.7763 1.45994 13.5584
55 2 -3.70545 3.38681 9.29274
56 2 0.194124 6.30669 16.3015
57 2 2.95239 6.85486 10.4438
58 2 -6.46371 2.83864 15.1504
59 2 -4.39286 2.00811 10.8847
60 2 0.881535 7.68539 14.7095
61 5 -3.04236 0.742057 13.7586
62 5 -0.468969 8.95144 11.8356
63 5 -2.53982 5.58881 16.1013
64 5 -0.971501 4.10469 9.4929
65 5 -0.903185 0.315743 14.3054
66 5 -2.60814 9.37776 11.2888
67 5 -4.67899 5.16249 15.5545
68 5 1.16767 4.53101 10.0397
69 3 -4.99036 7.75052 10.7217
70 3 1.47903 1.94297 14.8725
71 3 3.54989 2.90378 10.6068
72 3 -7.06121 6.78972 14.9874
73 3 1.9427 7.18878 11.2801
74 3 -5.45402 2.50472 14.3141
75 3 -3.38317 2.34203 10.0484
76 3 -0.128158 7.35147 15.5458
77 6 -1.87539 0.303975 13.5064
78 6 -1.63593 9.38952 12.0878
79 6 -3.70679 5.15072 16.3535
80 6 0.195461 4.54277 9.24073
81 4 -4.02017 7.80365 10.2422
82 4 0.508843 1.88985 15.352
83 4 2.5797 2.95689 11.0863
84 4 -6.09102 6.7366 14.5079
85 4 0.99031 6.67611 11.3257
86 4 -4.50163 3.01739 14.2685
87 4 -2.43078 1.82936 10.0028
88 4 -1.08054 7.86414 15.5914
89 1 -0.260404 10.2398 3.74276
90 1 5.0325 18.8407 4.78864
91 1 7.10335 15.0866 0.522937
92 1 -2.33126 13.9939 8.00847
93 2 -1.23386 18.2841 3.1504
94 2 6.00595 10.7964 5.38101
95 2 8.07681 13.4373 1.11531
96 2 -3.30471 15.6432 7.4161
97 2 6.40669 17.9271 3.50437
98 2 -1.63459 11.1534 5.02704
99 2 0.43626 13.0803 0.761336
100 2 4.33583 16.0002 7.77007
101 2 7.0941 16.5484 1.9124
102 2 -2.322 12.5321 6.61901
103 2 -0.25115 11.7016 2.3533
104 2 5.02324 17.3789 6.1781
105 5 1.09935 10.4356 5.22719
106 5 3.67274 18.6449 3.30421
107 5 1.60189 15.2823 7.56992
108 5 3.17021 13.7982 0.96149
109 5 3.23852 10.0092 5.774
110 5 1.53357 19.0713 2.7574
111 5 -0.537285 14.856 7.02311
112 5 5.30938 14.2245 1.5083
113 3 -0.848651 17.444 2.19032
114 3 5.62074 11.6365 6.34108
115 3 7.6916 12.5973 2.07538
116 3 -2.91951 16.4832 6.45603
117 3 6.0844 16.8823 2.74868
118 3 -1.31231 12.1982 5.78272
119 3 0.758542 12.0355 1.51702
120 3 4.01355 17.045 7.01439
121 6 2.26632 9.99747 4.97503
122 6 2.50578 19.083 3.55638
123 6 0.434923 14.8442 7.82208
124 6 4.33717 14.2363 0.709327
125 4 0.121541 17.4971 1.71084
126 4 4.65055 11.5834 6.82057
127 4 6.72141 12.6504 2.55487
128 4 -1.94931 16.4301 5.97654
129 4 5.13202 16.3696 2.79427
130 4 -0.359926 12.7109 5.73713
131 4 1.71093 11.5229 1.47143
132 4 3.06116 17.5576 7.05998
133 1 -4.40211 10.2398 12.2742
134 1 0.890787 18.8407 13.32
135 1 2.96164 15.0866 9.05434
136 1 -6.47297 13.9939 16.5399
137 2 -5.37557 18.2841 11.6818
138 2 1.86424 10.7964 13.9124
139 2 3.9351 13.4373 9.64671
140 2 -7.44642 15.6432 15.9475
141 2 2.26498 17.9271 12.0358
142 2 -5.7763 11.1534 13.5584
143 2 -3.70545 13.0803 9.29274
144 2 0.194124 16.0002 16.3015
145 2 2.95239 16.5484 10.4438
146 2 -6.46371 12.5321 15.1504
147 2 -4.39286 11.7016 10.8847
148 2 0.881535 17.3789 14.7095
149 5 -3.04236 10.4356 13.7586
150 5 -0.468969 18.6449 11.8356
151 5 -2.53982 15.2823 16.1013
152 5 -0.971501 13.7982 9.4929
153 5 -0.903185 10.0092 14.3054
154 5 -2.60814 19.0713 11.2888
155 5 -4.67899 14.856 15.5545
156 5 1.16767 14.2245 10.0397
157 3 -4.99036 17.444 10.7217
158 3 1.47903 11.6365 14.8725
159 3 3.54989 12.5973 10.6068
160 3 -7.06121 16.4832 14.9874
161 3 1.9427 16.8823 11.2801
162 3 -5.45402 12.1982 14.3141
163 3 -3.38317 12.0355 10.0484
164 3 -0.128158 17.045 15.5458
165 6 -1.87539 9.99747 13.5064
166 6 -1.63593 19.083 12.0878
167 6 -3.70679 14.8442 16.3535
168 6 0.195461 14.2363 9.24073
169 4 -4.02017 17.4971 10.2422
170 4 0.508843 11.5834 15.352
171 4 2.5797 12.6504 11.0863
172 4 -6.09102 16.4301 14.5079
173 4 0.99031 16.3696 11.3257
174 4 -4.50163 12.7109 14.2685
175 4 -2.43078 11.5229 10.0028
176 4 -1.08054 17.5576 15.5914
177 7 -1.63665 13.3676 14.3448
178 8 -2.11849 12.9882 15.0947
179 8 -1.94049 12.939 13.5313
180 7 -2.01116 15.5976 12.4615
181 8 -1.98262 16.5167 12.7664
182 8 -1.15518 15.183 12.6436
183 7 -3.57022 4.95277 12.9251
184 8 -4.52309 5.08719 12.8136
185 8 -3.23009 5.62699 13.5313
186 7 -1.79637 5.68589 11.281
187 8 -1.19254 5.61171 12.0349
188 8 -1.42385 6.31408 10.6451
189 7 3.00718 4.84796 4.50891
190 8 3.08594 5.80574 4.38673
191 8 2.13033 4.56741 4.20855
192 7 4.62829 2.86833 4.20529
193 8 4.30801 3.04005 3.30729
194 8 5.20583 3.5977 4.47405
ITEM: TIMESTEP
1
ITEM: NUMBER OF ATOMS
194
ITEM: BOX BOUNDS xy xz yz pp pp pp
-8.2834200164449747e+00 8.9138013951629080e+00 0.0000000000000000e+00
-2.5994100951720611e-06 1.9387001699410092e+01 -8.2834188212820674e+00
-2.2877833529832969e-06 1.7062817387783355e+01 0.0000000000000000e+00
ITEM: ATOMS id type x y z
1 1 -0.259523 0.545827 3.7423
2 1 5.03145 9.14806 4.78858
3 1 7.10234 5.39331 0.521786
4 1 -2.33086 4.3006 8.00913
5 2 -1.23381 8.59071 3.1502
6 2 6.00659 1.10432 5.38309
7 2 8.07799 3.74204 1.11529
8 2 -3.30459 5.9508 7.41569
9 2 6.40963 8.23328 3.50622
10 2 -1.63059 1.4621 5.02383
11 2 0.435439 3.38764 0.761292
12 2 4.3376 6.30527 7.77356
13 2 7.09357 6.85595 1.91539
14 2 -2.32085 2.83692 6.619
15 2 -0.248587 2.00768 2.35283
16 2 5.021 7.6867 6.17693
17 5 1.09782 0.743429 5.22742
18 5 3.67513 8.95129 3.30417
19 5 1.60134 5.59087 7.56949
20 5 3.16839 4.10462 0.964021
21 5 3.23699 0.315886 5.77294
22 5 1.53382 9.37844 2.7575
23 5 -0.533223 5.16065 7.02658
24 5 5.30746 4.53174 1.50837
25 3 -0.848869 7.74969 2.19143
26 3 5.6192 1.94164 6.34254
27 3 7.69085 2.90365 2.07668
28 3 -2.91978 6.79134 6.4544
29 3 6.08645 7.18633 2.75101
30 3 -1.3153 2.50382 5.7832
31 3 0.75894 2.34289 1.51707
32 3 4.01195 7.35484 7.01379
33 6 2.26835 0.305603 4.97828
34 6 2.50524 9.38845 3.5563
35 6 0.432761 5.1523 7.82058
36 6 4.33745 4.54169 0.710703
37 4 0.129816 7.80179 1.71424
38 4 4.64671 1.88481 6.81944
39 4 6.72082 2.96207 2.54689
40 4 -1.94873 6.74172 5.98498
41 4 5.13231 6.67994 2.79478
42 4 -0.358815 3.00492 5.73571
43 4 1.708 1.83163 1.47294
44 4 3.05518 7.87047 7.06372
45 1 -4.40134 0.546361 12.2744
46 1 0.89103 9.1475 13.3192
47 1 2.96206 5.39147 9.05352
48 1 -6.47265 4.3005 16.5399
49 2 -5.37656 8.59077 11.6833
50 2 1.86109 1.10299 13.9092
51 2 3.93504 3.74534 9.64925
52 2 -7.44524 5.95162 15.9474
53 2 2.26295 8.23301 12.0324
54 2 -5.77606 1.45637 13.5599
55 2 -3.70247 3.38591 9.29263
56 2 0.194642 6.30836 16.3037
57 2 2.95015 6.85564 10.4424
58 2 -6.46342 2.84068 15.1526
59 2 -4.39393 2.00478 10.884
60 2 0.880596 7.68292 14.7077
61 5 -3.04487 0.740856 13.7583
62 5 -0.467296 8.9552 11.8381
63 5 -2.54056 5.58983 16.1034
64 5 -0.971134 4.10371 9.49306
65 5 -0.905612 0.316155 14.3047
66 5 -2.608 9.37845 11.2877
67 5 -4.67832 5.16128 15.5571
68 5 1.16675 4.53207 10.0399
69 3 -4.98756 7.74987 10.723
70 3 1.47884 1.9425 14.8704
71 3 3.54979 2.90387 10.6052
72 3 -7.06075 6.79156 14.9888
73 3 1.94155 7.18805 11.2786
74 3 -5.45524 2.5048 14.3134
75 3 -3.38183 2.34417 10.045
76 3 -0.129511 7.35219 15.5446
77 6 -1.87864 0.305044 13.5053
78 6 -1.63694 9.38794 12.0896
79 6 -3.70775 5.15441 16.3507
80 6 0.196696 4.54292 9.24183
81 4 -4.02942 7.80123 10.2395
82 4 0.510681 1.89102 15.3523
83 4 2.57815 2.96026 11.0933
84 4 -6.09504 6.73834 14.4989
85 4 0.989913 6.6763 11.3196
86 4 -4.50655 3.00848 14.2706
87 4 -2.43145 1.82339 10.0072
88 4 -1.0755 7.85671 15.5933
89 1 -0.260598 10.2393 3.74317
90 1 5.03261 18.8408 4.78782
91 1 7.10308 15.0857 0.523313
92 1 -2.33062 13.9939 8.009
93 2 -1.23246 18.2843 3.15052
94 2 6.00586 10.7984 5.38124
95 2 8.07786 13.4354 1.11319
96 2 -3.30528 15.6444 7.41254
97 2 6.40677 17.9295 3.50317
98 2 -1.63371 11.1549 5.0258
99 2 0.435998 13.0795 0.760638
100 2 4.33651 16.004 7.77084
101 2 7.09493 16.5488 1.91049
102 2 -2.32011 12.5312 6.61756
103 2 -0.253259 11.7024 2.35421
104 2 5.02178 17.3773 6.1791
105 5 1.10031 10.4359 5.22704
106 5 3.6721 18.648 3.30416
107 5 1.60274 15.283 7.56996
108 5 3.17149 13.7994 0.961427
109 5 3.23674 10.0099 5.77665
110 5 1.53253 19.0707 2.75595
111 5 -0.537936 14.856 7.02229
112 5 5.30851 14.2253 1.50857
113 3 -0.848441 17.4451 2.19114
114 3 5.62186 11.6366 6.34101
115 3 7.6915 12.5974 2.07568
116 3 -2.92064 16.4808 6.45492
117 3 6.08465 16.882 2.75073
118 3 -1.31084 12.1979 5.78379
119 3 0.755364 12.0343 1.51887
120 3 4.01364 17.0459 7.01117
121 6 2.26724 9.99939 4.97539
122 6 2.5086 19.0833 3.55367
123 6 0.432967 14.845 7.82442
124 6 4.33615 14.2366 0.710142
125 4 0.123707 17.4882 1.71201
126 4 4.65232 11.5836 6.80816
127 4 6.72046 12.642 2.56179
128 4 -1.9568 16.4216 5.98612
129 4 5.13893 16.3609 2.78658
130 4 -0.347686 12.721 5.73599
131 4 1.71181 11.5158 1.47046
132 4 3.05854 17.5623 7.06249
133 1 -4.40314 10.2391 12.2735
134 1 0.890504 18.8402 13.3207
135 1 2.96052 15.0847 9.05478
136 1 -6.4734 13.9945 16.5394
137 2 -5.37933 18.2845 11.6836
138 2 1.86568 10.7959 13.9122
139 2 3.93584 13.4347 9.64638
140 2 -7.4445 15.6441 15.9448
141 2 2.26225 17.9295 12.0368
142 2 -5.77605 11.1522 13.5582
143 2 -3.70802 13.0798 9.29281
144 2 0.194912 16.0001 16.303
145 2 2.95388 16.548 10.4426
146 2 -6.4645 12.5309 15.1485
147 2 -4.39219 11.7041 10.8855
148 2 0.878661 17.3797 14.711
149 5 -3.04118 10.434 13.7584
150 5 -0.466481 18.6462 11.835
151 5 -2.54138 15.2834 16.102
152 5 -0.970402 13.7981 9.49177
153 5 -0.903218 10.0101 14.3045
154 5 -2.60823 19.0698 11.2887
155 5 -4.676 14.8581 15.5558
156 5 1.16894 14.2222 10.04
157 3 -4.98669 17.4412 10.7227
158 3 1.48104 11.6359 14.8732
159 3 3.55254 12.5957 10.6064
160 3 -7.06368 16.4813 14.9897
161 3 1.94159 16.8826 11.2783
162 3 -5.45555 12.1981 14.3162
163 3 -3.38378 12.0359 10.0475
164 3 -0.125713 17.0439 15.5475
165 6 -1.87532 9.99474 13.5053
166 6 -1.6358 19.0812 12.0889
167 6 -3.70423 14.8433 16.3526
168 6 0.198903 14.2392 9.23962
169 4 -4.02135 17.4888 10.2393
170 4 0.512519 11.589 15.3606
171 4 2.58006 12.6552 11.0975
172 4 -6.09677 16.4332 14.5132
173 4 0.991622 16.3694 11.3302
174 4 -4.49676 12.7118 14.2627
175 4 -2.43823 11.5246 10.0027
176 4 -1.08369 17.5622 15.5875
177 7 -1.63433 13.3676 14.345
178 8 -2.11953 12.9886 15.0984
179 8 -1.9494 12.9441 13.5336
180 7 -2.01056 15.5969 12.4624
181 8 -1.98774 16.5212 12.7669
182 8 -1.15628 15.1861 12.6341
183 7 -3.57072 4.95141 12.9239
184 8 -4.52341 5.08651 12.8181
185 8 -3.23145 5.63633 13.5191
186 7 -1.79528 5.68645 11.2817
187 8 -1.19451 5.61277 12.0421
188 8 -1.42205 6.31154 10.6442
189 7 3.00591 4.84939 4.50799
190 8 3.07116 5.80546 4.38363
191 8 2.13388 4.57719 4.19896
192 7 4.62984 2.86839 4.20515
193 8 4.3119 3.02616 3.30577
194 8 5.20701 3.593 4.47491
ITEM: TIMESTEP
2
ITEM: NUMBER OF ATOMS
194
ITEM: BOX BOUNDS xy xz yz pp pp pp
-8.2834307026237326e+00 8.9138051334711683e+00 0.0000000000000000e+00
-1.0730014022186651e-05 1.9387009830014023e+01 -8.2834257691525632e+00
-9.4436608950587697e-06 1.7062824543660895e+01 0.0000000000000000e+00
ITEM: ATOMS id type x y z
1 1 -0.258644 0.545346 3.74184
2 1 5.0304 9.14892 4.78851
3 1 7.10134 5.39356 0.520631
4 1 -2.33047 4.30076 8.0098
5 2 -1.23375 8.59087 3.15002
6 2 6.00727 1.10563 5.38517
7 2 8.07916 3.74027 1.11526
8 2 -3.30446 5.9519 7.4153
9 2 6.41255 8.23302 3.50808
10 2 -1.62656 1.46423 5.0206
11 2 0.434648 3.38849 0.761224
12 2 4.33934 6.30383 7.77707
13 2 7.09305 6.85698 1.91834
14 2 -2.3197 2.83526 6.61904
15 2 -0.246035 2.0072 2.35239
16 2 5.01877 7.68806 6.17571
17 5 1.09636 0.744772 5.22765
18 5 3.67745 8.95115 3.30412
19 5 1.60071 5.5929 7.56906
20 5 3.16664 4.10457 0.96655
21 5 3.23541 0.316015 5.77184
22 5 1.5341 9.37913 2.75764
23 5 -0.529134 5.15879 7.03008
24 5 5.30552 4.53249 1.50839
25 3 -0.849098 7.74885 2.19253
26 3 5.6177 1.94029 6.34405
27 3 7.69012 2.90352 2.07797
28 3 -2.92007 6.79296 6.45278
29 3 6.08852 7.18387 2.75331
30 3 -1.31831 2.50293 5.78369
31 3 0.759312 2.34374 1.51713
32 3 4.01037 7.35821 7.01318
33 6 2.27033 0.307255 4.98157
34 6 2.50474 9.38736 3.55617
35 6 0.430649 5.1539 7.81904
36 6 4.33769 4.54057 0.712116
37 4 0.138005 7.79978 1.7176
38 4 4.64288 1.87991 6.81836
39 4 6.72023 2.96707 2.539
40 4 -1.94812 6.74698 5.99334
41 4 5.13255 6.68373 2.79531
42 4 -0.35766 2.99249 5.73429
43 4 1.70516 1.83386 1.47441
44 4 3.04921 7.87679 7.06749
45 1 -4.40056 0.546414 12.2747
46 1 0.89127 9.1478 13.3184
47 1 2.96247 5.38989 9.05269
48 1 -6.47234 4.30054 16.5399
49 2 -5.37756 8.59098 11.6848
50 2 1.85793 1.10302 13.906
51 2 3.93497 3.74687 9.65177
52 2 -7.44407 5.95354 15.9473
53 2 2.26089 8.23248 12.029
54 2 -5.77579 1.45278 13.5613
55 2 -3.69947 3.38504 9.2925
56 2 0.19513 6.31001 16.306
57 2 2.94792 6.85637 10.441
58 2 -6.46315 2.84276 15.1549
59 2 -4.39501 2.00139 10.8833
60 2 0.879657 7.6805 14.7058
61 5 -3.04733 0.739624 13.7579
62 5 -0.465696 8.95898 11.8407
63 5 -2.54137 5.59083 16.1054
64 5 -0.970684 4.10274 9.49319
65 5 -0.90808 0.316553 14.304
66 5 -2.60782 9.37915 11.2866
67 5 -4.67762 5.16006 15.5598
68 5 1.16579 4.53314 10.04
69 3 -4.98479 7.7492 10.7244
70 3 1.47866 1.94203 14.8682
71 3 3.5497 2.90396 10.6035
72 3 -7.06031 6.79341 14.9902
73 3 1.94043 7.1873 11.2771
74 3 -5.4565 2.50488 14.3127
75 3 -3.38053 2.34629 10.0417
76 3 -0.130836 7.35291 15.5434
77 6 -1.88192 0.306137 13.5043
78 6 -1.63792 9.38633 12.0914
79 6 -3.70867 5.15812 16.348
80 6 0.197886 4.54304 9.24298
81 4 -4.03859 7.79868 10.2366
82 4 0.51251 1.89231 15.3526
83 4 2.57667 2.96348 11.1004
84 4 -6.09908 6.74019 14.4898
85 4 0.989469 6.67648 11.3135
86 4 -4.51135 2.99961 14.2727
87 4 -2.43209 1.81745 10.0115
88 4 -1.07059 7.84937 15.5952
89 1 -0.260794 10.2388 3.74357
90 1 5.03272 18.8409 4.78699
91 1 7.1028 15.0849 0.523684
92 1 -2.32999 13.9938 8.00953
93 2 -1.23106 18.2846 3.15066
94 2 6.00576 10.8003 5.38145
95 2 8.0789 13.4336 1.11107
96 2 -3.30584 15.6456 7.409
97 2 6.40683 17.932 3.50198
98 2 -1.6328 11.1563 5.02454
99 2 0.435763 13.0787 0.759918
100 2 4.33715 16.0078 7.77163
101 2 7.09577 16.5493 1.90854
102 2 -2.31822 12.5304 6.61615
103 2 -0.255374 11.7032 2.35514
104 2 5.02032 17.3758 6.18006
105 5 1.10134 10.4363 5.22689
106 5 3.67139 18.6511 3.30411
107 5 1.60352 15.2836 7.57
108 5 3.17284 13.8006 0.961361
109 5 3.23493 10.0105 5.77924
110 5 1.53154 19.0702 2.75453
111 5 -0.538551 14.8559 7.02151
112 5 5.30761 14.2262 1.50879
113 3 -0.848247 17.4461 2.19194
114 3 5.62299 11.6368 6.34093
115 3 7.69142 12.5975 2.07597
116 3 -2.92179 16.4783 6.45382
117 3 6.08493 16.8816 2.75276
118 3 -1.30937 12.1976 5.78487
119 3 0.752171 12.033 1.52073
120 3 4.01374 17.0468 7.00794
121 6 2.26811 10.0013 4.9758
122 6 2.51144 19.0836 3.55092
123 6 0.431053 14.8459 7.8267
124 6 4.3351 14.2369 0.711
125 4 0.125856 17.4791 1.71314
126 4 4.65404 11.5839 6.79585
127 4 6.71955 12.6335 2.56874
128 4 -1.96421 16.4132 5.99557
129 4 5.14577 16.3522 2.77896
130 4 -0.335555 12.7311 5.73482
131 4 1.71266 11.5088 1.46945
132 4 3.05592 17.5669 7.06502
133 1 -4.40418 10.2384 12.2728
134 1 0.89022 18.8398 13.3214
135 1 2.9594 15.0829 9.05521
136 1 -6.47385 13.995 16.5389
137 2 -5.38309 18.285 11.6854
138 2 1.86711 10.7954 13.9119
139 2 3.93656 13.4321 9.64603
140 2 -7.44258 15.645 15.942
141 2 2.2595 17.9319 12.0379
142 2 -5.77578 11.1509 13.558
143 2 -3.71057 13.0792 9.29285
144 2 0.195672 15.9999 16.3045
145 2 2.95537 16.5476 10.4414
146 2 -6.4653 12.5296 15.1467
147 2 -4.39152 11.7066 10.8863
148 2 0.875794 17.3805 14.7124
149 5 -3.03994 10.4324 13.7581
150 5 -0.464068 18.6475 11.8345
151 5 -2.54301 15.2845 16.1027
152 5 -0.969231 13.798 9.49063
153 5 -0.903292 10.0109 14.3036
154 5 -2.60828 19.0683 11.2887
155 5 -4.67298 14.8601 15.5571
156 5 1.17018 14.2199 10.0402
157 3 -4.98306 17.4384 10.7238
158 3 1.48305 11.6353 14.874
159 3 3.5552 12.5941 10.6061
160 3 -7.06617 16.4795 14.9919
161 3 1.9405 16.8828 11.2766
162 3 -5.45709 12.198 14.3184
163 3 -3.38442 12.0362 10.0465
164 3 -0.123261 17.0428 15.5491
165 6 -1.87528 9.99203 13.5043
166 6 -1.63563 19.0794 12.09
167 6 -3.70165 14.8425 16.3516
168 6 0.202295 14.242 9.23856
169 4 -4.0225 17.4803 10.2364
170 4 0.516204 11.5947 15.3693
171 4 2.58051 12.6599 11.1087
172 4 -6.10248 16.4364 14.5183
173 4 0.992879 16.3692 11.3347
174 4 -4.49193 12.7127 14.2568
175 4 -2.44556 11.5262 10.0025
176 4 -1.08681 17.5667 15.5837
177 7 -1.63201 13.3677 14.3452
178 8 -2.12047 12.989 15.1018
179 8 -1.95833 12.9491 13.5362
180 7 -2.00997 15.5962 12.4633
181 8 -1.99273 16.5254 12.7673
182 8 -1.15751 15.1893 12.6247
183 7 -3.57125 4.95005 12.9227
184 8 -4.52346 5.0859 12.8228
185 8 -3.23305 5.64552 13.5069
186 7 -1.7942 5.68704 11.2824
187 8 -1.19661 5.6139 12.0489
188 8 -1.42016 6.30888 10.6435
189 7 3.00464 4.85083 4.50705
190 8 3.05619 5.80502 4.38053
191 8 2.13755 4.58709 4.18941
192 7 4.63136 2.86849 4.20494
193 8 4.31591 3.01246 3.30446
194 8 5.20796 3.58819 4.4756
ITEM: TIMESTEP
3
ITEM: NUMBER OF ATOMS
194
ITEM: BOX BOUNDS xy xz yz pp pp pp
-8.2834490245057601e+00 8.9138115429506009e+00 0.0000000000000000e+00
-2.4670260515335940e-05 1.9387023770260516e+01 -8.2834376815551600e+00
-2.1712699911802247e-05 1.7062836812699913e+01 0.0000000000000000e+00
ITEM: ATOMS id type x y z
1 1 -0.257769 0.544859 3.74138
2 1 5.02936 9.14978 4.78844
3 1 7.10034 5.39381 0.519471
4 1 -2.33009 4.30091 8.01046
5 2 -1.23368 8.59108 3.14984
6 2 6.00799 1.10685 5.38727
7 2 8.08032 3.73855 1.11521
8 2 -3.30432 5.95295 7.41491
9 2 6.41544 8.23278 3.50997
10 2 -1.62252 1.46633 5.01735
11 2 0.43389 3.38935 0.761132
12 2 4.34104 6.30238 7.78058
13 2 7.09254 6.85795 1.92124
14 2 -2.31857 2.83365 6.61911
15 2 -0.243497 2.00666 2.35198
16 2 5.01654 7.68948 6.17446
17 5 1.09498 0.746082 5.22787
18 5 3.67969 8.95104 3.30407
19 5 1.60002 5.59491 7.56863
20 5 3.16497 4.10454 0.969074
21 5 3.23381 0.316129 5.77071
22 5 1.53442 9.37983 2.7578
23 5 -0.525026 5.15693 7.0336
24 5 5.30353 4.53323 1.50838
25 3 -0.849331 7.74801 2.19362
26 3 5.61624 1.93893 6.34561
27 3 7.68942 2.90338 2.07926
28 3 -2.9204 6.79459 6.45116
29 3 6.09061 7.18142 2.75561
30 3 -1.32132 2.50204 5.78418
31 3 0.759657 2.34457 1.5172
32 3 4.00881 7.36158 7.01257
33 6 2.27226 0.308928 4.98488
34 6 2.50429 9.38623 3.55599
35 6 0.428602 5.15553 7.81747
36 6 4.33788 4.53942 0.713561
37 4 0.146037 7.79762 1.72095
38 4 4.63909 1.87516 6.81734
39 4 6.71959 2.97186 2.53124
40 4 -1.94745 6.75239 6.00159
41 4 5.13274 6.68747 2.79585
42 4 -0.356456 2.98013 5.73289
43 4 1.70242 1.83602 1.47583
44 4 3.04331 7.88307 7.07129
45 1 -4.3998 0.546462 12.275
46 1 0.891509 9.14811 13.3176
47 1 2.96289 5.3883 9.05187
48 1 -6.47203 4.30058 16.5399
49 2 -5.37854 8.59124 11.6863
50 2 1.85476 1.10301 13.9028
51 2 3.93491 3.74845 9.65427
52 2 -7.44289 5.95541 15.9473
53 2 2.2588 8.23198 12.0256
54 2 -5.7755 1.44916 13.5626
55 2 -3.69647 3.38419 9.29234
56 2 0.195588 6.31164 16.3083
57 2 2.9457 6.85704 10.4395
58 2 -6.46288 2.84489 15.1572
59 2 -4.3961 1.99796 10.8827
60 2 0.878717 7.67814 14.7039
61 5 -3.04972 0.738362 13.7576
62 5 -0.464171 8.96278 11.8432
63 5 -2.54225 5.59181 16.1074
64 5 -0.970152 4.10176 9.4933
65 5 -0.910593 0.31694 14.3032
66 5 -2.60761 9.37986 11.2856
67 5 -4.6769 5.15883 15.5624
68 5 1.1648 4.53421 10.0401
69 3 -4.98207 7.74852 10.7257
70 3 1.47849 1.94157 14.8661
71 3 3.54962 2.90402 10.6019
72 3 -7.05989 6.79527 14.9916
73 3 1.93933 7.18654 11.2756
74 3 -5.4578 2.50496 14.312
75 3 -3.37926 2.34837 10.0383
76 3 -0.132126 7.35363 15.5421
77 6 -1.88523 0.307253 13.5033
78 6 -1.63886 9.38469 12.0931
79 6 -3.70956 5.16184 16.3452
80 6 0.199025 4.54312 9.24416
81 4 -4.04756 7.79604 10.2336
82 4 0.514318 1.89371 15.3531
83 4 2.57531 2.96656 11.1075
84 4 -6.10313 6.74214 14.4807
85 4 0.988961 6.67664 11.3075
86 4 -4.51595 2.9908 14.2747
87 4 -2.43272 1.81156 10.0158
88 4 -1.06589 7.84218 15.5972
89 1 -0.260994 10.2383 3.74396
90 1 5.03284 18.841 4.78617
91 1 7.10254 15.0841 0.524048
92 1 -2.32937 13.9937 8.01006
93 2 -1.22966 18.2849 3.15081
94 2 6.00566 10.8022 5.38164
95 2 8.07994 13.4318 1.10892
96 2 -3.30641 15.6468 7.40548
97 2 6.40685 17.9345 3.50081
98 2 -1.63187 11.1577 5.02327
99 2 0.435557 13.0779 0.759175
100 2 4.33777 16.0115 7.77243
101 2 7.09661 16.5497 1.90657
102 2 -2.31635 12.5296 6.61478
103 2 -0.257496 11.7039 2.35611
104 2 5.01887 17.3743 6.18097
105 5 1.10243 10.4366 5.22673
106 5 3.67062 18.6542 3.30404
107 5 1.60422 15.2842 7.57004
108 5 3.17425 13.8019 0.961292
109 5 3.23307 10.011 5.7818
110 5 1.53059 19.0697 2.75315
111 5 -0.53913 14.8559 7.02077
112 5 5.30667 14.2271 1.50897
113 3 -0.848069 17.4471 2.19274
114 3 5.62415 11.637 6.34085
115 3 7.69135 12.5976 2.07627
116 3 -2.92298 16.4759 6.45272
117 3 6.08525 16.8813 2.75475
118 3 -1.30791 12.1974 5.78595
119 3 0.748971 12.0317 1.5226
120 3 4.01385 17.0477 7.00471
121 6 2.26895 10.0033 4.97625
122 6 2.5143 19.0839 3.54813
123 6 0.429189 14.8468 7.82892
124 6 4.33402 14.2371 0.711895
125 4 0.127981 17.47 1.71424
126 4 4.65566 11.5845 6.78369
127 4 6.71869 12.6249 2.57567
128 4 -1.97144 16.405 6.00483
129 4 5.15248 16.3435 2.77143
130 4 -0.323677 12.741 5.73363
131 4 1.71342 11.5019 1.46842
132 4 3.05337 17.5716 7.06758
133 1 -4.40522 10.2377 12.2722
134 1 0.889933 18.8394 13.3221
135 1 2.95828 15.0811 9.05564
136 1 -6.4743 13.9955 16.5384
137 2 -5.38684 18.2855 11.6872
138 2 1.86852 10.7949 13.9116
139 2 3.93727 13.4296 9.64567
140 2 -7.44066 15.6459 15.9393
141 2 2.25671 17.9343 12.039
142 2 -5.77548 11.1496 13.5577
143 2 -3.71309 13.0787 9.29287
144 2 0.196407 15.9998 16.3061
145 2 2.95686 16.5472 10.4402
146 2 -6.46611 12.5285 15.1449
147 2 -4.39086 11.709 10.8871
148 2 0.872938 17.3813 14.7138
149 5 -3.03863 10.4308 13.7579
150 5 -0.461732 18.6488 11.8339
151 5 -2.54471 15.2856 16.1034
152 5 -0.967985 13.798 9.4895
153 5 -0.903408 10.0117 14.3027
154 5 -2.60829 19.0668 11.2887
155 5 -4.66993 14.8622 15.5585
156 5 1.17138 14.2177 10.0404
157 3 -4.97945 17.4356 10.7248
158 3 1.48507 11.6348 14.8747
159 3 3.55785 12.5926 10.6058
160 3 -7.06869 16.4776 14.9942
161 3 1.93944 16.8831 11.2748
162 3 -5.45865 12.1979 14.3205
163 3 -3.3851 12.0365 10.0456
164 3 -0.120812 17.0418 15.5508
165 6 -1.87529 9.98935 13.5033
166 6 -1.63543 19.0776 12.0911
167 6 -3.69904 14.8417 16.3506
168 6 0.205627 14.2449 9.23755
169 4 -4.02359 17.4718 10.2333
170 4 0.519906 11.6005 15.3779
171 4 2.58112 12.6645 11.1199
172 4 -6.1081 16.4398 14.5233
173 4 0.99407 16.3689 11.3393
174 4 -4.48723 12.7136 14.251
175 4 -2.45272 11.5278 10.0023
176 4 -1.08984 17.5711 15.58
177 7 -1.62968 13.3677 14.3455
178 8 -2.12129 12.9894 15.1047
179 8 -1.9673 12.9542 13.539
180 7 -2.00939 15.5955 12.4642
181 8 -1.99758 16.5291 12.7676
182 8 -1.15876 15.1927 12.6153
183 7 -3.57179 4.94868 12.9215
184 8 -4.52328 5.08536 12.8275
185 8 -3.2349 5.65455 13.4945
186 7 -1.79311 5.68766 11.2831
187 8 -1.19885 5.61509 12.0554
188 8 -1.41817 6.3061 10.6431
189 7 3.00337 4.85228 4.50612
190 8 3.04109 5.80447 4.37745
191 8 2.14125 4.59705 4.17989
192 7 4.63283 2.86862 4.20466
193 8 4.32006 2.99896 3.30333
194 8 5.20873 3.58334 4.47611
ITEM: TIMESTEP
4
ITEM: NUMBER OF ATOMS
194
ITEM: BOX BOUNDS xy xz yz pp pp pp
-8.2834752770329700e+00 8.9138207267796936e+00 0.0000000000000000e+00
-4.4644556812301062e-05 1.9387043744556813e+01 -8.2834547502532772e+00
-3.9292404885316046e-05 1.7062854392404887e+01 0.0000000000000000e+00
ITEM: ATOMS id type x y z
1 1 -0.256897 0.544366 3.74091
2 1 5.02831 9.15064 4.78837
3 1 7.09935 5.39406 0.518307
4 1 -2.3297 4.30105 8.01113
5 2 -1.23361 8.59133 3.14968
6 2 6.00875 1.10797 5.38936
7 2 8.08146 3.73688 1.11515
8 2 -3.30417 5.95396 7.41454
9 2 6.41828 8.23255 3.51186
10 2 -1.61848 1.46839 5.0141
11 2 0.433167 3.39023 0.761017
12 2 4.3427 6.30093 7.78409
13 2 7.09204 6.85886 1.92409
14 2 -2.31746 2.8321 6.61923
15 2 -0.240978 2.00606 2.3516
16 2 5.01433 7.69095 6.17318
17 5 1.09367 0.747361 5.22809
18 5 3.68185 8.95096 3.30402
19 5 1.59924 5.59689 7.5682
20 5 3.16338 4.10453 0.971594
21 5 3.23218 0.316229 5.76955
22 5 1.53477 9.38053 2.75801
23 5 -0.520908 5.15506 7.03713
24 5 5.30152 4.53398 1.50833
25 3 -0.849561 7.74716 2.1947
26 3 5.61483 1.93754 6.34722
27 3 7.68876 2.90322 2.08052
28 3 -2.92076 6.79622 6.44954
29 3 6.09272 7.17896 2.7579
30 3 -1.32435 2.50115 5.78467
31 3 0.759973 2.3454 1.51728
32 3 4.00725 7.36494 7.01196
33 6 2.27411 0.310621 4.9882
34 6 2.50389 9.38507 3.55576
35 6 0.426632 5.15718 7.81589
36 6 4.33801 4.53824 0.71503
37 4 0.153838 7.79528 1.7243
38 4 4.63535 1.87059 6.81638
39 4 6.71887 2.97642 2.52365
40 4 -1.94668 6.75794 6.00971
41 4 5.13285 6.69114 2.79641
42 4 -0.3552 2.96788 5.73155
43 4 1.69984 1.8381 1.47719
44 4 3.03754 7.88928 7.0751
45 1 -4.39904 0.546504 12.2753
46 1 0.891746 9.14841 13.3168
47 1 2.96331 5.38671 9.05104
48 1 -6.47173 4.30062 16.5399
49 2 -5.37953 8.59153 11.6878
50 2 1.85159 1.10294 13.8996
51 2 3.93486 3.75006 9.65675
52 2 -7.44172 5.95723 15.9472
53 2 2.25668 8.2315 12.0223
54 2 -5.7752 1.44552 13.564
55 2 -3.69345 3.38338 9.29216
56 2 0.196017 6.31325 16.3105
57 2 2.94349 6.85766 10.438
58 2 -6.46263 2.84705 15.1596
59 2 -4.39719 1.99448 10.8821
60 2 0.877774 7.67584 14.7019
61 5 -3.05204 0.737071 13.7573
62 5 -0.462722 8.9666 11.8457
63 5 -2.54319 5.59277 16.1094
64 5 -0.969536 4.10078 9.49339
65 5 -0.91315 0.317314 14.3024
66 5 -2.60737 9.38057 11.2846
67 5 -4.67616 5.1576 15.5652
68 5 1.16378 4.53529 10.0401
69 3 -4.9794 7.74782 10.727
70 3 1.47834 1.94112 14.864
71 3 3.54953 2.90406 10.6004
72 3 -7.05949 6.79714 14.993
73 3 1.93825 7.18576 11.2741
74 3 -5.45914 2.50503 14.3113
75 3 -3.37801 2.35041 10.0351
76 3 -0.133372 7.35433 15.5409
77 6 -1.88857 0.308388 13.5023
78 6 -1.63977 9.38302 12.0948
79 6 -3.7104 5.16557 16.3424
80 6 0.200109 4.54316 9.24537
81 4 -4.05625 7.79331 10.2305
82 4 0.516092 1.89522 15.3535
83 4 2.57411 2.9695 11.1145
84 4 -6.1072 6.74416 14.4716
85 4 0.988373 6.67678 11.3016
86 4 -4.52028 2.98211 14.2767
87 4 -2.43333 1.80575 10.0199
88 4 -1.0615 7.8352 15.5992
89 1 -0.261196 10.2377 3.74436
90 1 5.03295 18.8411 4.78534
91 1 7.10227 15.0833 0.524407
92 1 -2.32875 13.9936 8.01059
93 2 -1.22825 18.2852 3.15098
94 2 6.00556 10.804 5.3818
95 2 8.08095 13.43 1.10677
96 2 -3.30698 15.6479 7.40198
97 2 6.40685 17.937 3.49966
98 2 -1.63092 11.1591 5.02197
99 2 0.43538 13.0771 0.758409
100 2 4.33836 16.0153 7.77325
101 2 7.09745 16.55 1.90456
102 2 -2.31449 12.5289 6.61345
103 2 -0.259624 11.7045 2.3571
104 2 5.01744 17.3729 6.18184
105 5 1.10359 10.4369 5.22658
106 5 3.6698 18.6573 3.30396
107 5 1.60484 15.2848 7.57008
108 5 3.17572 13.8032 0.961222
109 5 3.23118 10.0116 5.78432
110 5 1.52968 19.0692 2.7518
111 5 -0.53967 14.8559 7.02007
112 5 5.3057 14.2279 1.50911
113 3 -0.847905 17.4481 2.19351
114 3 5.62533 11.6371 6.34076
115 3 7.69129 12.5976 2.07657
116 3 -2.92422 16.4735 6.45163
117 3 6.0856 16.8809 2.7567
118 3 -1.30642 12.1971 5.78705
119 3 0.745771 12.0304 1.52447
120 3 4.01395 17.0486 7.00147
121 6 2.26975 10.0053 4.97675
122 6 2.51717 19.0841 3.54531
123 6 0.42738 14.8478 7.83107
124 6 4.33292 14.2374 0.712826
125 4 0.130073 17.4607 1.71534
126 4 4.65712 11.5852 6.77172
127 4 6.71792 12.6162 2.58253
128 4 -1.97839 16.397 6.01382
129 4 5.15906 16.3349 2.76403
130 4 -0.312196 12.7507 5.73241
131 4 1.71402 11.4951 1.46737
132 4 3.05092 17.5762 7.07013
133 1 -4.40626 10.237 12.2715
134 1 0.889644 18.8389 13.3228
135 1 2.95716 15.0793 9.05607
136 1 -6.47476 13.9961 16.538
137 2 -5.39056 18.286 11.689
138 2 1.86992 10.7942 13.9113
139 2 3.93796 13.4271 9.6453
140 2 -7.43876 15.6467 15.9367
141 2 2.25389 17.9367 12.0401
142 2 -5.77516 11.1483 13.5575
143 2 -3.71556 13.0782 9.29286
144 2 0.197119 15.9996 16.3076
145 2 2.95835 16.5467 10.4389
146 2 -6.46692 12.5274 15.1431
147 2 -4.3902 11.7113 10.888
148 2 0.870098 17.3823 14.7152
149 5 -3.03726 10.4292 13.7576
150 5 -0.459476 18.6501 11.8333
151 5 -2.54648 15.2867 16.1041
152 5 -0.966661 13.798 9.48837
153 5 -0.903566 10.0125 14.3017
154 5 -2.60827 19.0654 11.2888
155 5 -4.66686 14.8643 15.5599
156 5 1.17254 14.2154 10.0405
157 3 -4.97589 17.4327 10.7258
158 3 1.48709 11.6342 14.8755
159 3 3.56048 12.591 10.6054
160 3 -7.07124 16.4758 14.9964
161 3 1.93841 16.8834 11.273
162 3 -5.4602 12.1979 14.3226
163 3 -3.38582 12.0369 10.0447
164 3 -0.118379 17.0408 15.5524
165 6 -1.87534 9.98671 13.5023
166 6 -1.6352 19.0758 12.092
167 6 -3.69642 14.8409 16.3496
168 6 0.208889 14.2477 9.23661
169 4 -4.02457 17.4631 10.2303
170 4 0.523632 11.6065 15.3866
171 4 2.58197 12.6689 11.131
172 4 -6.11359 16.4433 14.5283
173 4 0.995185 16.3685 11.3438
174 4 -4.48273 12.7145 14.2452
175 4 -2.45964 11.5293 10.002
176 4 -1.09271 17.5753 15.5764
177 7 -1.62737 13.3676 14.3457
178 8 -2.12194 12.99 15.1072
179 8 -1.97629 12.9593 13.5421
180 7 -2.00883 15.5949 12.4651
181 8 -2.00229 16.5324 12.7678
182 8 -1.15995 15.1962 12.6062
183 7 -3.57234 4.94731 12.9203
184 8 -4.52289 5.08488 12.8324
185 8 -3.23696 5.66342 13.4821
186 7 -1.79204 5.6883 11.2839
187 8 -1.20126 5.61636 12.0614
188 8 -1.41607 6.30322 10.6429
189 7 3.0021 4.85375 4.50518
190 8 3.0259 5.80388 4.37439
191 8 2.14491 4.607 4.17037
192 7 4.63426 2.86877 4.2043
193 8 4.32433 2.98568 3.30234
194 8 5.20935 3.57849 4.47645
ITEM: TIMESTEP
5
ITEM: NUMBER OF ATOMS
194
ITEM: BOX BOUNDS xy xz yz pp pp pp
-3.2563455772738337e-05 9.5442209692284017e+00 0.0000000000000000e+00
-7.0823630059280163e-05 1.9387069923630058e+01 6.3038820577262733e-01
-6.2333035566908279e-05 1.7062877433035567e+01 0.0000000000000000e+00
ITEM: ATOMS id type x y z
1 1 8.65784 0.543866 3.74044
2 1 5.02727 9.1515 4.7883
3 1 7.09835 5.3943 0.517138
4 1 6.58454 4.30119 8.01179
5 2 7.68035 8.59163 3.14953
6 2 6.00955 1.10899 5.39146
7 2 8.08258 3.73525 1.11507
8 2 5.60985 5.95491 7.41418
9 2 6.42109 8.23234 3.51376
10 2 7.29942 1.47041 5.01084
11 2 0.432482 3.39112 0.760878
12 2 4.34432 6.29949 7.7876
13 2 7.09155 6.85969 1.9269
14 2 6.59749 2.8306 6.61939
15 2 8.67538 2.00541 2.35126
16 2 5.01212 7.69248 6.17185
17 5 1.09244 0.748606 5.22832
18 5 3.68393 8.9509 3.30396
19 5 1.59838 5.59884 7.56777
20 5 3.16186 4.10454 0.974109
21 5 3.23053 0.316316 5.76838
22 5 1.53516 9.38123 2.75824
23 5 8.39708 5.15319 7.04068
24 5 5.29948 4.53473 1.50824
25 3 8.06408 7.74632 2.19577
26 3 5.61346 1.93614 6.34889
27 3 7.68814 2.90306 2.08177
28 3 5.99271 6.79785 6.44794
29 3 6.09484 7.17651 2.76018
30 3 7.5865 2.50026 5.78516
31 3 0.760259 2.34621 1.51737
32 3 4.00571 7.36828 7.01136
33 6 2.27589 0.312332 4.99151
34 6 2.50355 9.38388 3.55549
35 6 0.424753 5.15885 7.81431
36 6 4.33808 4.53703 0.716516
37 4 0.161339 7.79275 1.72768
38 4 4.63169 1.8662 6.81548
39 4 6.71805 2.98074 2.51626
40 4 6.96808 6.76365 6.01768
41 4 5.13289 6.69473 2.79697
42 4 8.55998 2.95577 5.73028
43 4 1.69745 1.84009 1.47849
44 4 3.03196 7.8954 7.07893
45 1 4.51558 0.546539 12.2756
46 1 0.891979 9.14871 13.3159
47 1 2.96373 5.38512 9.05022
48 1 2.44243 4.30066 16.5399
49 2 3.53337 8.59187 11.6893
50 2 1.84842 1.10283 13.8964
51 2 3.93482 3.75172 9.6592
52 2 1.47331 5.959 15.9472
53 2 2.25453 8.23106 12.019
54 2 3.13899 1.44186 13.5654
55 2 5.22342 3.38261 9.29195
56 2 9.11028 6.31484 16.3129
57 2 2.9413 6.85824 10.4365
58 2 2.45147 2.84925 15.1619
59 2 4.51558 1.99097 10.8815
60 2 0.876826 7.6736 14.7
61 5 5.85955 0.735751 13.757
62 5 8.45252 8.97045 11.8482
63 5 6.36965 5.59371 16.1114
64 5 7.94503 4.09981 9.49345
65 5 7.99811 0.317677 14.3015
66 5 6.30678 9.38129 11.2837
67 5 4.23846 5.15637 15.5679
68 5 1.16272 4.53638 10.0401
69 3 3.93705 7.74709 10.7284
70 3 1.47821 1.9407 14.862
71 3 3.54944 2.90407 10.5988
72 3 1.85477 6.79902 14.9944
73 3 1.93719 7.18497 11.2725
74 3 3.45333 2.5051 14.3107
75 3 5.53707 2.35238 10.0318
76 3 8.7793 7.35502 15.5397
77 6 7.02193 0.309542 13.5014
78 6 7.27323 9.38132 12.0964
79 6 5.20266 5.1693 16.3396
80 6 9.115 4.54317 9.24661
81 4 4.8493 7.79053 10.2272
82 4 9.43169 1.89681 15.354
83 4 2.57313 2.97231 11.1215
84 4 2.80258 6.74625 14.4625
85 4 0.987693 6.67691 11.2956
86 4 4.38959 2.97356 14.2787
87 4 6.47992 1.80006 10.0238
88 4 7.85637 7.82848 15.6012
89 1 8.65246 10.2372 3.74475
90 1 5.03306 18.8412 4.78451
91 1 7.10201 15.0825 0.52476
92 1 6.58574 13.9935 8.01112
93 2 7.68703 18.2857 3.15116
94 2 6.00546 10.8058 5.38195
95 2 8.08195 13.4283 1.1046
96 2 5.60631 15.6489 7.39851
97 2 6.40682 17.9396 3.49853
98 2 7.28392 11.1605 5.02066
99 2 0.435235 13.0763 0.757622
100 2 4.33893 16.019 7.77408
101 2 7.09829 16.5503 1.90254
102 2 6.60121 12.5283 6.61216
103 2 8.65211 11.7051 2.35813
104 2 5.01604 17.3716 6.18265
105 5 1.10482 10.4371 5.22642
106 5 3.66892 18.6605 3.30387
107 5 1.60537 15.2854 7.57013
108 5 3.17725 13.8045 0.96115
109 5 3.22925 10.0122 5.78679
110 5 1.52882 19.0687 2.7505
111 5 8.37369 14.8558 7.01942
112 5 5.30468 14.2288 1.50921
113 3 8.06611 17.4491 2.19426
114 3 5.62655 11.6373 6.34065
115 3 7.69123 12.5977 2.07688
116 3 5.98837 16.4711 6.45055
117 3 6.08599 16.8805 2.75861
118 3 7.60896 12.1969 5.78815
119 3 0.742579 12.0291 1.52634
120 3 4.01405 17.0495 6.99824
121 6 2.2705 10.0073 4.97728
122 6 2.52002 19.0844 3.54246
123 6 0.425633 14.8487 7.83314
124 6 4.33181 14.2376 0.713789
125 4 0.132125 17.4515 1.71645
126 4 4.65838 11.5862 6.75998
127 4 6.71724 12.6076 2.5893
128 4 6.92887 16.3892 6.02248
129 4 5.16545 16.3264 2.75678
130 4 8.61262 12.7601 5.73117
131 4 1.71439 11.4883 1.46631
132 4 3.04863 17.5808 7.07269
133 1 4.50655 10.2363 12.2708
134 1 0.889352 18.8385 13.3235
135 1 2.95604 15.0776 9.0565
136 1 2.43864 13.9966 16.5375
137 2 3.5196 18.2866 11.6909
138 2 1.8713 10.7936 13.911
139 2 3.93863 13.4246 9.64492
140 2 1.47698 15.6475 15.9341
141 2 2.25103 17.9392 12.0412
142 2 3.13905 11.147 13.5572
143 2 5.19587 13.0778 9.29283
144 2 9.11168 15.9994 16.3092
145 2 2.95983 16.5462 10.4376
146 2 2.44613 12.5264 15.1414
147 2 4.52433 11.7136 10.8889
148 2 0.867279 17.3832 14.7165
149 5 5.87803 10.4275 13.7574
150 5 8.45657 18.6515 11.8328
151 5 6.36556 15.2878 16.1049
152 5 7.94861 13.798 9.48724
153 5 8.0101 10.0133 14.3007
154 5 6.30566 19.0639 11.2889
155 5 4.25011 14.8663 15.5613
156 5 1.17367 14.2131 10.0406
157 3 3.94148 17.4299 10.7269
158 3 1.48911 11.6337 14.8762
159 3 3.56309 12.5894 10.6051
160 3 1.84005 16.4741 14.9986
161 3 1.93741 16.8837 11.2713
162 3 3.45212 12.1978 14.3248
163 3 5.52727 12.0372 10.0439
164 3 8.79789 17.0398 15.554
165 6 7.03844 9.9841 13.5015
166 6 7.27894 19.0739 12.093
167 6 5.22008 14.8401 16.3485
168 6 9.12594 14.2504 9.23574
169 4 4.88844 17.4545 10.2271
170 4 9.44126 11.6124 15.3951
171 4 2.58313 12.6732 11.1421
172 4 2.79497 16.4468 14.5331
173 4 0.996216 16.3681 11.3484
174 4 4.43537 12.7154 14.2394
175 4 6.44761 11.5307 10.0016
176 4 7.81851 17.5794 15.5729
177 7 7.28881 13.3676 14.346
178 8 6.79146 12.9908 15.1092
179 8 6.92857 12.9645 13.5454
180 7 6.90557 15.5943 12.466
181 8 6.90704 16.5351 12.7679
182 8 7.7529 15.1997 12.5971
183 7 5.34095 4.94594 12.9191
184 8 4.39154 5.08445 12.8373
185 8 5.67462 5.67211 13.4695
186 7 7.1229 5.68898 11.2847
187 8 7.71002 5.61771 12.067
188 8 7.50003 6.30026 10.6429
189 7 3.00083 4.85523 4.50424
190 8 3.01067 5.8033 4.37137
191 8 2.14847 4.61688 4.16084
192 7 4.63564 2.86893 4.20387
193 8 4.32874 2.97266 3.30147
194 8 5.20987 3.57373 4.47663
ITEM: TIMESTEP
6
ITEM: NUMBER OF ATOMS
194
ITEM: BOX BOUNDS xy xz yz pp pp pp
-4.7496448084771714e-05 9.5442380143419747e+00 0.0000000000000000e+00
-1.0330202333719285e-04 1.9387102402023338e+01 6.3039031789388678e-01
-9.0917800873668853e-05 1.7062906017800874e+01 0.0000000000000000e+00
ITEM: ATOMS id type x y z
1 1 8.65873 0.543361 3.73996
2 1 5.02623 9.15236 4.78822
3 1 7.09736 5.39454 0.515966
4 1 6.58495 4.30133 8.01246
5 2 7.68049 8.59197 3.14938
6 2 6.01042 1.10991 5.39355
7 2 8.08369 3.73367 1.11498
8 2 5.61005 5.95582 7.41383
9 2 6.42385 8.23213 3.51568
10 2 7.30347 1.4724 5.00758
11 2 0.431838 3.39202 0.760715
12 2 4.3459 6.29806 7.79111
13 2 7.09108 6.86045 1.92964
14 2 6.59858 2.82915 6.61961
15 2 8.67788 2.00471 2.35096
16 2 5.00993 7.69407 6.17049
17 5 1.0913 0.749818 5.22854
18 5 3.68592 8.95086 3.3039
19 5 1.59744 5.60077 7.56733
20 5 3.16042 4.10458 0.976619
21 5 3.22887 0.316389 5.76719
22 5 1.53558 9.38194 2.75851
23 5 8.40122 5.1513 7.04422
24 5 5.29741 4.53549 1.50812
25 3 8.06391 7.74548 2.19683
26 3 5.61213 1.93472 6.35062
27 3 7.68757 2.90288 2.08299
28 3 5.9923 6.79947 6.44636
29 3 6.09699 7.17407 2.76247
30 3 7.58352 2.49936 5.78563
31 3 0.760513 2.34702 1.51747
32 3 4.00416 7.37161 7.01077
33 6 2.27757 0.31406 4.99481
34 6 2.50327 9.38267 3.55518
35 6 0.422977 5.16054 7.81274
36 6 4.33809 4.53579 0.718014
37 4 0.168473 7.79004 1.7311
38 4 4.62811 1.862 6.81465
39 4 6.7171 2.98479 2.5091
40 4 6.96916 6.76952 6.02548
41 4 5.13284 6.69822 2.79753
42 4 8.56137 2.94382 5.7291
43 4 1.69527 1.84197 1.47971
44 4 3.02662 7.9014 7.08275
45 1 4.51636 0.546568 12.2759
46 1 0.892211 9.14902 13.3151
47 1 2.96414 5.38352 9.04939
48 1 2.44274 4.30069 16.5399
49 2 3.53243 8.59223 11.6908
50 2 1.84525 1.10267 13.8932
51 2 3.9348 3.75341 9.66163
52 2 1.4745 5.96071 15.9472
53 2 2.25235 8.23064 12.0157
54 2 3.13935 1.43818 13.5667
55 2 5.22646 3.38188 9.29171
56 2 9.11069 6.31641 16.3152
57 2 2.93913 6.85876 10.435
58 2 2.45172 2.85148 15.1643
59 2 4.51452 1.98742 10.8809
60 2 0.875872 7.67142 14.698
61 5 5.85737 0.734402 13.7566
62 5 8.45384 8.97432 11.8507
63 5 6.3686 5.59463 16.1134
64 5 7.94584 4.09884 9.49349
65 5 7.99549 0.318028 14.3006
66 5 6.30713 9.38202 11.2828
67 5 4.23926 5.15514 15.5707
68 5 1.16164 4.53747 10.0401
69 3 3.9396 7.74634 10.7298
70 3 1.47809 1.94029 14.8599
71 3 3.54935 2.90405 10.5973
72 3 1.85517 6.80091 14.9957
73 3 1.93615 7.18417 11.2709
74 3 3.45191 2.50516 14.3101
75 3 5.53828 2.35429 10.0287
76 3 8.77819 7.35567 15.5384
77 6 7.01859 0.310712 13.5006
78 6 7.27244 9.37958 12.098
79 6 5.20193 5.17304 16.3369
80 6 9.11598 4.54315 9.24787
81 4 4.84147 7.78773 10.2236
82 4 9.43339 1.89848 15.3546
83 4 2.57242 2.97498 11.1283
84 4 2.79849 6.74837 14.4535
85 4 0.986908 6.67702 11.2898
86 4 4.38603 2.96521 14.2807
87 4 6.47933 1.79453 10.0277
88 4 7.85993 7.82209 15.6031
89 1 8.65228 10.2367 3.74514
90 1 5.03318 18.8413 4.78367
91 1 7.10174 15.0817 0.525107
92 1 6.58638 13.9934 8.01165
93 2 7.68847 18.2861 3.15135
94 2 6.00537 10.8075 5.38207
95 2 8.08292 13.4266 1.10242
96 2 5.60575 15.6499 7.39507
97 2 6.40676 17.9422 3.49742
98 2 7.28494 11.1618 5.01933
99 2 0.435122 13.0756 0.756815
100 2 4.33947 16.0227 7.77493
101 2 7.09913 16.5506 1.9005
102 2 6.60307 12.5277 6.61091
103 2 8.65 11.7057 2.35919
104 2 5.01465 17.3703 6.18341
105 5 1.1061 10.4374 5.22627
106 5 3.66801 18.6636 3.30375
107 5 1.60581 15.2859 7.57018
108 5 3.17883 13.8058 0.961077
109 5 3.22729 10.0128 5.78922
110 5 1.52801 19.0683 2.74923
111 5 8.37326 14.8558 7.01882
112 5 5.30364 14.2297 1.50927
113 3 8.06628 17.45 2.19499
114 3 5.6278 11.6375 6.34053
115 3 7.69117 12.5977 2.0772
116 3 5.98706 16.4688 6.44948
117 3 6.08644 16.8801 2.76046
118 3 7.61054 12.1968 5.78926
119 3 0.739402 12.0277 1.5282
120 3 4.01413 17.0505 6.99501
121 6 2.27121 10.0094 4.97785
122 6 2.52285 19.0847 3.53959
123 6 0.423953 14.8498 7.83514
124 6 4.33068 14.2378 0.71478
125 4 0.134129 17.4421 1.71761
126 4 4.6594 11.5874 6.74849
127 4 6.71669 12.5989 2.59592
128 4 6.92274 16.3817 6.03076
129 4 5.17164 16.3179 2.74973
130 4 8.62293 12.7691 5.72992
131 4 1.71449 11.4818 1.46524
132 4 3.04655 17.5853 7.07523
133 1 4.50553 10.2356 12.2702
134 1 0.889057 18.8381 13.3241
135 1 2.95492 15.0758 9.05693
136 1 2.4382 13.9971 16.537
137 2 3.51596 18.2873 11.6927
138 2 1.87266 10.7929 13.9107
139 2 3.93928 13.4223 9.64453
140 2 1.47887 15.6482 15.9315
141 2 2.24814 17.9417 12.0423
142 2 3.13945 11.1457 13.5569
143 2 5.19351 13.0773 9.29277
144 2 9.11238 15.9992 16.3108
145 2 2.96132 16.5456 10.4363
146 2 2.44533 12.5254 15.1398
147 2 4.52503 11.7158 10.8898
148 2 0.864485 17.3843 14.7178
149 5 5.87955 10.4259 13.7572
150 5 8.45869 18.6529 11.8322
151 5 6.36371 15.2889 16.1056
152 5 7.95013 13.7981 9.4861
153 5 8.00989 10.0141 14.2997
154 5 6.30578 19.0625 11.289
155 5 4.25327 14.8684 15.5628
156 5 1.17476 14.2109 10.0407
157 3 3.94497 17.4271 10.7279
158 3 1.49113 11.6331 14.877
159 3 3.56565 12.5878 10.6049
160 3 1.83747 16.4724 15.0008
161 3 1.93644 16.884 11.2695
162 3 3.45062 12.1977 14.3269
163 3 5.52647 12.0375 10.043
164 3 8.80029 17.0389 15.5556
165 6 7.03833 9.98152 13.5007
166 6 7.27926 19.072 12.0938
167 6 5.22276 14.8394 16.3474
168 6 9.12906 14.2531 9.23494
169 4 4.88778 17.4458 10.224
170 4 9.44509 11.6185 15.4036
171 4 2.58467 12.6773 11.153
172 4 2.7899 16.4505 14.5377
173 4 0.997157 16.3676 11.3529
174 4 4.43928 12.7162 14.2337
175 4 6.4414 11.5319 10.0012
176 4 7.81619 17.5832 15.5694
177 7 7.29114 13.3675 14.3462
178 8 6.79124 12.9917 15.1107
179 8 6.91957 12.9697 13.5489
180 7 6.9061 15.5937 12.4669
181 8 6.9027 16.5371 12.7678
182 8 7.75216 15.2033 12.5883
183 7 5.3404 4.94457 12.9179
184 8 4.39229 5.08406 12.8423
185 8 5.67218 5.68061 13.4568
186 7 7.12399 5.68968 11.2855
187 8 7.70727 5.61916 12.0721
188 8 7.50243 6.29723 10.6431
189 7 2.99956 4.85673 4.5033
190 8 2.99543 5.80279 4.36839
191 8 2.15186 4.62662 4.15126
192 7 4.63697 2.86912 4.20337
193 8 4.33326 2.9599 3.30067
194 8 5.21034 3.56911 4.47665
ITEM: TIMESTEP
7
ITEM: NUMBER OF ATOMS
194
ITEM: BOX BOUNDS xy xz yz pp pp pp
-6.5358039790908151e-05 9.5442584022758066e+00 0.0000000000000000e+00
-1.4214995065842118e-04 1.9387141249950659e+01 6.3039284423601438e-01
-1.2510849730240636e-04 1.7062940208497302e+01 0.0000000000000000e+00
ITEM: ATOMS id type x y z
1 1 8.65963 0.54285 3.73949
2 1 5.02519 9.15323 4.78815
3 1 7.09637 5.39477 0.514789
4 1 6.58535 4.30147 8.01313
5 2 7.68065 8.59236 3.14925
6 2 6.01134 1.11073 5.39563
7 2 8.08476 3.73214 1.11487
8 2 5.61027 5.95668 7.41349
9 2 6.42657 8.23194 3.51761
10 2 7.3075 1.47434 5.00432
11 2 0.431238 3.39293 0.760529
12 2 4.34743 6.29664 7.79459
13 2 7.09062 6.86114 1.93233
14 2 6.59965 2.82776 6.61987
15 2 8.68035 2.00395 2.35069
16 2 5.00775 7.69571 6.16909
17 5 1.09024 0.750995 5.22877
18 5 3.68783 8.95086 3.30383
19 5 1.59642 5.60267 7.56689
20 5 3.15907 4.10465 0.979121
21 5 3.22719 0.316448 5.766
22 5 1.53604 9.38266 2.7588
23 5 8.40536 5.14941 7.04775
24 5 5.29532 4.53625 1.50797
25 3 8.06376 7.74464 2.19787
26 3 5.61084 1.93329 6.35239
27 3 7.68704 2.9027 2.08419
28 3 5.99185 6.8011 6.44478
29 3 6.09915 7.17164 2.76476
30 3 7.58057 2.49846 5.78609
31 3 0.760735 2.34782 1.51758
32 3 4.00263 7.37492 7.0102
33 6 2.27915 0.315801 4.99808
34 6 2.50306 9.38142 3.55483
35 6 0.421317 5.16225 7.8112
36 6 4.33802 4.53454 0.719517
37 4 0.175176 7.78713 1.73459
38 4 4.62464 1.858 6.8139
39 4 6.716 2.98855 2.5022
40 4 6.97043 6.77554 6.0331
41 4 5.1327 6.70161 2.79808
42 4 8.56282 2.93208 5.72806
43 4 1.69334 1.84373 1.48087
44 4 3.02158 7.90727 7.08657
45 1 4.51714 0.54659 12.2761
46 1 0.892439 9.14932 13.3143
47 1 2.96456 5.38192 9.04857
48 1 2.44306 4.30072 16.5399
49 2 3.53152 8.59263 11.6923
50 2 1.84209 1.10246 13.8899
51 2 3.9348 3.75513 9.66402
52 2 1.47569 5.96237 15.9473
53 2 2.25015 8.23025 12.0125
54 2 3.13972 1.43447 13.568
55 2 5.22949 3.38121 9.29144
56 2 9.11108 6.31796 16.3175
57 2 2.93698 6.85925 10.4334
58 2 2.45196 2.85373 15.1667
59 2 4.51346 1.98385 10.8803
60 2 0.87491 7.6693 14.6959
61 5 5.85524 0.733026 13.7563
62 5 8.4551 8.9782 11.8532
63 5 6.36749 5.59554 16.1154
64 5 7.94675 4.09787 9.49351
65 5 7.99284 0.318369 14.2997
66 5 6.30753 9.38275 11.2819
67 5 4.24007 5.15391 15.5734
68 5 1.16053 4.53856 10.0401
69 3 3.94205 7.74556 10.7312
70 3 1.478 1.93992 14.8579
71 3 3.54924 2.904 10.5958
72 3 1.85557 6.80283 14.9971
73 3 1.93514 7.18334 11.2694
74 3 3.45043 2.5052 14.3095
75 3 5.53945 2.35612 10.0256
76 3 8.77715 7.3563 15.5372
77 6 7.01523 0.311896 13.4998
78 6 7.27168 9.37781 12.0995
79 6 5.20126 5.17676 16.3342
80 6 9.1169 4.54309 9.24915
81 4 4.83418 7.78493 10.2199
82 4 9.43503 1.90023 15.3551
83 4 2.57201 2.97753 11.135
84 4 2.79439 6.75052 14.4445
85 4 0.986006 6.67713 11.2839
86 4 4.38295 2.95707 14.2827
87 4 6.47873 1.78918 10.0313
88 4 7.86298 7.81606 15.6051
89 1 8.65211 10.2362 3.74552
90 1 5.03329 18.8414 4.78283
91 1 7.10148 15.0809 0.525447
92 1 6.58702 13.9934 8.01218
93 2 7.68992 18.2866 3.15156
94 2 6.00528 10.8092 5.38217
95 2 8.08386 13.425 1.10024
96 2 5.60519 15.6509 7.39167
97 2 6.40666 17.9448 3.49632
98 2 7.28598 11.1631 5.01799
99 2 0.435042 13.0749 0.755987
100 2 4.33999 16.0263 7.77578
101 2 7.09997 16.5508 1.89845
102 2 6.6049 12.5271 6.6097
103 2 8.64789 11.7061 2.36029
104 2 5.0133 17.3691 6.18411
105 5 1.10745 10.4376 5.22611
106 5 3.66706 18.6668 3.30362
107 5 1.60616 15.2864 7.57024
108 5 3.18045 13.8071 0.961005
109 5 3.22529 10.0133 5.7916
110 5 1.52725 19.0678 2.748
111 5 8.37287 14.8557 7.01827
112 5 5.30255 14.2305 1.50929
113 3 8.06644 17.451 2.19568
114 3 5.62909 11.6377 6.3404
115 3 7.69112 12.5978 2.07753
116 3 5.9857 16.4664 6.44842
117 3 6.08694 16.8797 2.76226
118 3 7.61219 12.1967 5.79037
119 3 0.736249 12.0264 1.53006
120 3 4.01418 17.0515 6.9918
121 6 2.27188 10.0115 4.97846
122 6 2.52565 19.085 3.53671
123 6 0.422346 14.8509 7.83704
124 6 4.32955 14.2381 0.715794
125 4 0.136074 17.4328 1.71881
126 4 4.66013 11.5888 6.73729
127 4 6.71629 12.5903 2.60237
128 4 6.91712 16.3744 6.0386
129 4 5.17759 16.3096 2.74289
130 4 8.63247 12.7777 5.72867
131 4 1.71424 11.4754 1.46418
132 4 3.04471 17.5898 7.07774
133 1 4.5045 10.2349 12.2695
134 1 0.888759 18.8377 13.3248
135 1 2.95381 15.074 9.05737
136 1 2.43776 13.9977 16.5366
137 2 3.51235 18.2879 11.6945
138 2 1.874 10.7921 13.9104
139 2 3.93989 13.42 9.64413
140 2 1.48074 15.6488 15.929
141 2 2.24521 17.9441 12.0435
142 2 3.13989 11.1443 13.5566
143 2 5.19121 13.0769 9.29268
144 2 9.11308 15.999 16.3124
145 2 2.96279 16.545 10.435
146 2 2.44453 12.5245 15.1382
147 2 4.52574 11.7179 10.8908
148 2 0.861721 17.3853 14.7191
149 5 5.88113 10.4242 13.7569
150 5 8.46074 18.6544 11.8317
151 5 6.36181 15.2899 16.1063
152 5 7.95175 13.7982 9.48496
153 5 8.00965 10.0149 14.2986
154 5 6.30596 19.0611 11.2892
155 5 4.25645 14.8704 15.5643
156 5 1.17582 14.2087 10.0407
157 3 3.94839 17.4242 10.729
158 3 1.49314 11.6326 14.8778
159 3 3.56817 12.5863 10.6046
160 3 1.83486 16.4707 15.003
161 3 1.9355 16.8843 11.2677
162 3 3.44915 12.1977 14.329
163 3 5.52562 12.0379 10.0422
164 3 8.80265 17.038 15.5572
165 6 7.03819 9.97899 13.4999
166 6 7.27963 19.0701 12.0946
167 6 5.22543 14.8387 16.3463
168 6 9.1321 14.2558 9.23421
169 4 4.88732 17.4372 10.2208
170 4 9.44897 11.6245 15.412
171 4 2.58665 12.6813 11.1637
172 4 2.7851 16.4543 14.5422
173 4 0.998003 16.367 11.3573
174 4 4.4428 12.717 14.2281
175 4 6.43561 11.5329 10.0006
176 4 7.81422 17.5868 15.5661
177 7 7.29346 13.3675 14.3465
178 8 6.79127 12.9928 15.1117
179 8 6.91056 12.9749 13.5527
180 7 6.9066 15.5932 12.4678
181 8 6.89855 16.5386 12.7675
182 8 7.75177 15.207 12.5796
183 7 5.33985 4.9432 12.9168
184 8 4.39314 5.08371 12.8473
185 8 5.66955 5.68891 13.4441
186 7 7.12509 5.6904 11.2864
187 8 7.70433 5.62069 12.0767
188 8 7.505 6.29414 10.6435
189 7 2.9983 4.85824 4.50235
190 8 2.98023 5.80241 4.36546
191 8 2.155 4.63615 4.14161
192 7 4.63824 2.86931 4.2028
193 8 4.3379 2.94742 3.29991
194 8 5.21081 3.56469 4.47652
ITEM: TIMESTEP
8
ITEM: NUMBER OF ATOMS
194
ITEM: BOX BOUNDS xy xz yz pp pp pp
-8.6159779125516422e-05 9.5442821462115184e+00 0.0000000000000000e+00
-1.8739252876365242e-04 1.9387186492528762e+01 6.3039578643239169e-01
-1.6492723051086955e-04 1.7062980027230509e+01 0.0000000000000000e+00
ITEM: ATOMS id type x y z
1 1 8.66054 0.542333 3.73901
2 1 5.02415 9.15409 4.78807
3 1 7.09538 5.395 0.513608
4 1 6.58576 4.3016 8.0138
5 2 7.68083 8.5928 3.14913
6 2 6.01232 1.11144 5.3977
7 2 8.08581 3.73067 1.11475
8 2 5.6105 5.95749 7.41317
9 2 6.42923 8.23176 3.51954
10 2 7.3115 1.47624 5.00107
11 2 0.430683 3.39384 0.760319
12 2 4.34891 6.29526 7.79806
13 2 7.09018 6.86175 1.93496
14 2 6.60068 2.82642 6.62019
15 2 8.6828 2.00315 2.35047
16 2 5.00559 7.69741 6.16765
17 5 1.08927 0.752137 5.229
18 5 3.68965 8.95088 3.30377
19 5 1.59532 5.60454 7.56645
20 5 3.15779 4.10473 0.981617
21 5 3.22551 0.316495 5.7648
22 5 1.53653 9.38338 2.75913
23 5 8.40947 5.14752 7.05127
24 5 5.2932 4.53702 1.50779
25 3 8.06364 7.74381 2.1989
26 3 5.6096 1.93185 6.35422
27 3 7.68658 2.90251 2.08535
28 3 5.99135 6.80273 6.44323
29 3 6.10132 7.16924 2.76706
30 3 7.57764 2.49756 5.78653
31 3 0.760923 2.34861 1.51769
32 3 4.00109 7.37819 7.00965
33 6 2.28062 0.317555 5.00131
34 6 2.50292 9.38015 3.55445
35 6 0.419784 5.16399 7.80968
36 6 4.33788 4.53326 0.721016
37 4 0.18139 7.784 1.73817
38 4 4.62128 1.85422 6.81323
39 4 6.71472 2.99201 2.49558
40 4 6.97191 6.78174 6.04051
41 4 5.13247 6.70488 2.79862
42 4 8.56433 2.92056 5.72716
43 4 1.69168 1.84537 1.48194
44 4 3.01687 7.91296 7.09036
45 1 4.51791 0.546606 12.2764
46 1 0.892665 9.14963 13.3135
47 1 2.96497 5.38031 9.04775
48 1 2.44337 4.30075 16.5399
49 2 3.53062 8.59307 11.6938
50 2 1.83894 1.10221 13.8867
51 2 3.93482 3.75689 9.66638
52 2 1.47687 5.96397 15.9473
53 2 2.24792 8.2299 12.0093
54 2 3.14011 1.43075 13.5694
55 2 5.23251 3.38058 9.29114
56 2 9.11144 6.31949 16.3198
57 2 2.93486 6.85969 10.4318
58 2 2.45218 2.856 15.1691
59 2 4.51242 1.98025 10.8797
60 2 0.87394 7.66724 14.6939
61 5 5.85318 0.731623 13.756
62 5 8.45628 8.98211 11.8557
63 5 6.36632 5.59643 16.1174
64 5 7.94774 4.0969 9.49351
65 5 7.99013 0.318699 14.2987
66 5 6.30797 9.38349 11.2811
67 5 4.24088 5.15268 15.5762
68 5 1.1594 4.53966 10.04
69 3 3.94441 7.74474 10.7326
70 3 1.47793 1.93957 14.8559
71 3 3.54911 2.9039 10.5943
72 3 1.85596 6.80476 14.9984
73 3 1.93414 7.18251 11.2677
74 3 3.44889 2.50522 14.3089
75 3 5.5406 2.35787 10.0226
76 3 8.77619 7.35688 15.536
77 6 7.01188 0.313092 13.499
78 6 7.27097 9.37602 12.1009
79 6 5.20063 5.18048 16.3315
80 6 9.11776 4.543 9.25044
81 4 4.8275 7.78215 10.2158
82 4 9.4366 1.90204 15.3557
83 4 2.57194 2.97995 11.1416
84 4 2.79025 6.75266 14.4356
85 4 0.984977 6.67723 11.2782
86 4 4.38039 2.94917 14.2848
87 4 6.4781 1.78404 10.0347
88 4 7.86543 7.81046 15.607
89 1 8.65193 10.2357 3.74591
90 1 5.03341 18.8416 4.782
91 1 7.10123 15.0801 0.52578
92 1 6.58766 13.9933 8.01271
93 2 7.69137 18.2872 3.15179
94 2 6.0052 10.8109 5.38223
95 2 8.08478 13.4235 1.09804
96 2 5.60463 15.6517 7.38831
97 2 6.40654 17.9474 3.49525
98 2 7.28704 11.1644 5.01663
99 2 0.434995 13.0742 0.755139
100 2 4.34048 16.03 7.77664
101 2 7.10081 16.551 1.89638
102 2 6.60673 12.5267 6.60854
103 2 8.64578 11.7065 2.36142
104 2 5.01198 17.368 6.18474
105 5 1.10886 10.4378 5.22595
106 5 3.66608 18.67 3.30347
107 5 1.60642 15.2869 7.5703
108 5 3.18212 13.8085 0.960935
109 5 3.22327 10.0139 5.79394
110 5 1.52655 19.0674 2.74681
111 5 8.37252 14.8557 7.01777
112 5 5.30143 14.2314 1.50927
113 3 8.06661 17.4519 2.19634
114 3 5.63042 11.6379 6.34025
115 3 7.69106 12.5978 2.07787
116 3 5.98427 16.4641 6.44738
117 3 6.08749 16.8793 2.764
118 3 7.6139 12.1966 5.79147
119 3 0.733125 12.025 1.5319
120 3 4.0142 17.0524 6.98861
121 6 2.27251 10.0136 4.9791
122 6 2.52841 19.0852 3.53383
123 6 0.420818 14.8521 7.83886
124 6 4.32842 14.2383 0.716829
125 4 0.137953 17.4235 1.7201
126 4 4.66053 11.5905 6.72641
127 4 6.71605 12.5818 2.6086
128 4 6.9121 16.3673 6.04596
129 4 5.18329 16.3015 2.73629
130 4 8.64112 12.7857 5.72742
131 4 1.71361 11.4692 1.46313
132 4 3.04317 17.5942 7.08023
133 1 4.50347 10.2342 12.2689
134 1 0.888458 18.8373 13.3255
135 1 2.95269 15.0722 9.0578
136 1 2.43732 13.9982 16.5361
137 2 3.5088 18.2887 11.6963
138 2 1.87531 10.7913 13.9101
139 2 3.94048 13.4177 9.64372
140 2 1.48258 15.6494 15.9266
141 2 2.24224 17.9466 12.0446
142 2 3.14035 11.143 13.5563
143 2 5.18898 13.0765 9.29256
144 2 9.11377 15.9987 16.3141
145 2 2.96426 16.5443 10.4336
146 2 2.44373 12.5237 15.1366
147 2 4.52646 11.72 10.8918
148 2 0.858992 17.3864 14.7204
149 5 5.88278 10.4225 13.7567
150 5 8.4627 18.6559 11.8312
151 5 6.35987 15.291 16.1071
152 5 7.95346 13.7983 9.48382
153 5 8.00938 10.0157 14.2975
154 5 6.30618 19.0596 11.2895
155 5 4.25965 14.8725 15.5659
156 5 1.17686 14.2065 10.0407
157 3 3.95175 17.4214 10.7301
158 3 1.49514 11.6321 14.8786
159 3 3.57063 12.5847 10.6044
160 3 1.83222 16.4691 15.0051
161 3 1.9346 16.8846 11.2659
162 3 3.44772 12.1976 14.331
163 3 5.52471 12.0382 10.0414
164 3 8.80496 17.0372 15.5588
165 6 7.03802 9.97649 13.4993
166 6 7.28003 19.0682 12.0954
167 6 5.22811 14.838 16.3452
168 6 9.13504 14.2583 9.23356
169 4 4.88709 17.4286 10.2175
170 4 9.45292 11.6305 15.4202
171 4 2.58914 12.6852 11.1741
172 4 2.7806 16.4581 14.5466
173 4 0.998752 16.3662 11.3617
174 4 4.44585 12.7176 14.2227
175 4 6.4303 11.5337 10
176 4 7.81266 17.59 15.563
177 7 7.29578 13.3674 14.3469
178 8 6.79154 12.9941 15.1122
179 8 6.90156 12.9801 13.5565
180 7 6.90705 15.5927 12.4687
181 8 6.89459 16.5393 12.7671
182 8 7.75182 15.2106 12.5711
183 7 5.33929 4.94183 12.9156
184 8 4.39407 5.08339 12.8524
185 8 5.66677 5.697 13.4312
186 7 7.12619 5.69114 11.2873
187 8 7.7012 5.62232 12.0809
188 8 7.50774 6.29103 10.6441
189 7 2.99705 4.85977 4.50141
190 8 2.96512 5.80219 4.36261
191 8 2.15785 4.64541 4.13188
192 7 4.63947 2.8695 4.20217
193 8 4.34266 2.93524 3.29916
194 8 5.21134 3.56054 4.47624
ITEM: TIMESTEP
9
ITEM: NUMBER OF ATOMS
194
ITEM: BOX BOUNDS xy xz yz pp pp pp
-1.0989465910604679e-04 9.5443092381510599e+00 0.0000000000000000e+00
-2.3901451787011752e-04 1.9387238114517867e+01 6.3039914349195147e-01
-2.1036058771350952e-04 1.7063025460587713e+01 0.0000000000000000e+00
ITEM: ATOMS id type x y z
1 1 8.66144 0.541811 3.73852
2 1 5.02311 9.15495 4.78799
3 1 7.09439 5.39523 0.512424
4 1 6.58618 4.30172 8.01447
5 2 7.68104 8.59328 3.14903
6 2 6.01337 1.11205 5.39975
7 2 8.08683 3.72925 1.11462
8 2 5.61076 5.95824 7.41286
9 2 6.43185 8.23158 3.52148
10 2 7.31546 1.4781 4.99783
11 2 0.430177 3.39477 0.760085
12 2 4.35034 6.2939 7.8015
13 2 7.08976 6.86228 1.93752
14 2 6.60168 2.82514 6.62057
15 2 8.6852 2.00229 2.35028
16 2 5.00345 7.69917 6.16618
17 5 1.08839 0.753243 5.22924
18 5 3.69137 8.95093 3.3037
19 5 1.59413 5.60639 7.56601
20 5 3.1566 4.10485 0.984106
21 5 3.22383 0.316529 5.7636
22 5 1.53704 9.3841 2.75948
23 5 8.41357 5.14561 7.05477
24 5 5.29107 4.53779 1.50758
25 3 8.06356 7.74299 2.19991
26 3 5.60841 1.93041 6.3561
27 3 7.68618 2.90231 2.08649
28 3 5.9908 6.80435 6.44169
29 3 6.10351 7.16685 2.76937
30 3 7.57475 2.49666 5.78694
31 3 0.761078 2.3494 1.51781
32 3 3.99954 7.38143 7.00914
33 6 2.28197 0.319319 5.00449
34 6 2.50285 9.37885 3.55403
35 6 0.418389 5.16574 7.80822
36 6 4.33765 4.53196 0.722507
37 4 0.187062 7.78067 1.74185
38 4 4.61806 1.85066 6.81263
39 4 6.71326 2.99515 2.48927
40 4 6.97362 6.78811 6.04772
41 4 5.13215 6.70803 2.79913
42 4 8.56588 2.90928 5.72643
43 4 1.69032 1.84687 1.48293
44 4 3.01255 7.91848 7.09413
45 1 4.51869 0.546615 12.2767
46 1 0.892887 9.14993 13.3127
47 1 2.96539 5.3787 9.04693
48 1 2.44368 4.30077 16.54
49 2 3.52974 8.59353 11.6953
50 2 1.83579 1.1019 13.8834
51 2 3.93489 3.75869 9.66871
52 2 1.47804 5.96552 15.9474
53 2 2.24566 8.22958 12.0061
54 2 3.14051 1.42702 13.5707
55 2 5.23551 3.38002 9.29081
56 2 9.11179 6.32101 16.3222
57 2 2.93277 6.86009 10.4301
58 2 2.4524 2.85829 15.1715
59 2 4.51139 1.97664 10.8791
60 2 0.872958 7.66524 14.6918
61 5 5.85117 0.730194 13.7557
62 5 8.45739 8.98604 11.8582
63 5 6.3651 5.59731 16.1193
64 5 7.94883 4.09593 9.49348
65 5 7.98739 0.31902 14.2977
66 5 6.30845 9.38423 11.2804
67 5 4.2417 5.15145 15.579
68 5 1.15825 4.54077 10.04
69 3 3.94666 7.74389 10.734
70 3 1.47788 1.93925 14.8539
71 3 3.54896 2.90377 10.593
72 3 1.85635 6.80671 14.9997
73 3 1.93317 7.18165 11.2661
74 3 3.44729 2.50523 14.3084
75 3 5.54172 2.35951 10.0197
76 3 8.77531 7.35743 15.5348
77 6 7.00854 0.314298 13.4984
78 6 7.27031 9.37419 12.1023
79 6 5.20007 5.18417 16.329
80 6 9.11854 4.54288 9.25173
81 4 4.82147 7.77942 10.2115
82 4 9.43809 1.90391 15.3564
83 4 2.57226 2.98225 11.1479
84 4 2.78608 6.75478 14.4267
85 4 0.983814 6.67733 11.2724
86 4 4.3784 2.94154 14.2868
87 4 6.47745 1.77916 10.0378
88 4 7.86724 7.8053 15.6089
89 1 8.65176 10.2352 3.74629
90 1 5.03352 18.8417 4.78115
91 1 7.10097 15.0793 0.526107
92 1 6.5883 13.9932 8.01324
93 2 7.69283 18.2879 3.15204
94 2 6.00513 10.8125 5.38226
95 2 8.08566 13.4219 1.09585
96 2 5.60405 15.6526 7.38499
97 2 6.40639 17.9501 3.49419
98 2 7.28812 11.1657 5.01526
99 2 0.434983 13.0734 0.754273
100 2 4.34096 16.0336 7.77751
101 2 7.10163 16.5512 1.89432
102 2 6.60853 12.5263 6.60743
103 2 8.64368 11.7069 2.36258
104 2 5.0107 17.367 6.1853
105 5 1.11032 10.438 5.2258
106 5 3.66507 18.6732 3.30329
107 5 1.60658 15.2873 7.57037
108 5 3.18384 13.8098 0.960866
109 5 3.22121 10.0144 5.79624
110 5 1.5259 19.0669 2.74567
111 5 8.37222 14.8556 7.01733
112 5 5.30027 14.2323 1.50921
113 3 8.06676 17.4528 2.19696
114 3 5.63179 11.6381 6.34008
115 3 7.691 12.5978 2.07823
116 3 5.98278 16.4618 6.44635
117 3 6.08811 16.8788 2.76566
118 3 7.6157 12.1966 5.79257
119 3 0.730037 12.0236 1.53374
120 3 4.01418 17.0534 6.98544
121 6 2.27309 10.0157 4.97977
122 6 2.53111 19.0856 3.53094
123 6 0.419372 14.8533 7.84057
124 6 4.3273 14.2385 0.717879
125 4 0.139757 17.4142 1.72148
126 4 4.66057 11.5925 6.71586
127 4 6.71599 12.5733 2.61457
128 4 6.90773 16.3605 6.05278
129 4 5.18872 16.2935 2.72996
130 4 8.64878 12.7931 5.72617
131 4 1.71253 11.4633 1.4621
132 4 3.04195 17.5985 7.08266
133 1 4.50244 10.2335 12.2682
134 1 0.888153 18.8369 13.3262
135 1 2.95157 15.0704 9.05823
136 1 2.43687 13.9988 16.5357
137 2 3.50529 18.2894 11.6981
138 2 1.8766 10.7905 13.9098
139 2 3.94102 13.4155 9.64331
140 2 1.48439 15.6499 15.9242
141 2 2.23924 17.9491 12.0458
142 2 3.14085 11.1416 13.556
143 2 5.18681 13.0761 9.29241
144 2 9.11446 15.9984 16.3157
145 2 2.96572 16.5436 10.4323
146 2 2.44294 12.523 15.1352
147 2 4.5272 11.722 10.8929
148 2 0.8563 17.3876 14.7216
149 5 5.88449 10.4207 13.7565
150 5 8.46459 18.6574 11.8306
151 5 6.3579 15.2921 16.1078
152 5 7.95526 13.7985 9.48267
153 5 8.00908 10.0164 14.2963
154 5 6.30644 19.0582 11.2897
155 5 4.26288 14.8745 15.5674
156 5 1.17786 14.2043 10.0406
157 3 3.95504 17.4186 10.7312
158 3 1.49713 11.6316 14.8794
159 3 3.57303 12.5832 10.6042
160 3 1.82955 16.4676 15.0071
161 3 1.93374 16.885 11.2641
162 3 3.44634 12.1975 14.3331
163 3 5.52374 12.0385 10.0406
164 3 8.80721 17.0365 15.5604
165 6 7.03781 9.97403 13.4987
166 6 7.28046 19.0662 12.096
167 6 5.23079 14.8373 16.3441
168 6 9.13787 14.2609 9.23299
169 4 4.8871 17.4201 10.2143
170 4 9.45693 11.6365 15.4282
171 4 2.59218 12.6889 11.1843
172 4 2.77643 16.462 14.5508
173 4 0.999403 16.3654 11.3661
174 4 4.44839 12.7182 14.2173
175 4 6.42552 11.5343 9.99935
176 4 7.81155 17.5928 15.5599
177 7 7.29809 13.3672 14.3472
178 8 6.79208 12.9956 15.1121
179 8 6.89255 12.9854 13.5606
180 7 6.90746 15.5923 12.4696
181 8 6.89085 16.5394 12.7664
182 8 7.75236 15.2142 12.5628
183 7 5.33872 4.94046 12.9145
184 8 4.39503 5.0831 12.8575
185 8 5.66385 5.70488 13.4182
186 7 7.12728 5.69191 11.2882
187 8 7.69788 5.62404 12.0844
188 8 7.51067 6.2879 10.6449
189 7 2.9958 4.86131 4.50046
190 8 2.95012 5.80219 4.35983
191 8 2.16035 4.65435 4.12204
192 7 4.64063 2.86969 4.20148
193 8 4.34754 2.92337 3.29838
194 8 5.21195 3.55672 4.47583
ITEM: TIMESTEP
10
ITEM: NUMBER OF ATOMS
194
ITEM: BOX BOUNDS xy xz yz pp pp pp
-1.3653924554901664e-04 9.5443396513457159e+00 0.0000000000000000e+00
-2.9696494998532330e-04 1.9387296064949982e+01 6.3040291210016464e-01
-2.6136371115015322e-04 1.7063076463711148e+01 0.0000000000000000e+00
ITEM: ATOMS id type x y z
1 1 8.66235 0.541282 3.73804
2 1 5.02207 9.15582 4.78791
3 1 7.0934 5.39545 0.511237
4 1 6.58659 4.30185 8.01514
5 2 7.68128 8.59381 3.14893
6 2 6.01449 1.11256 5.40178
7 2 8.08782 3.72788 1.11447
8 2 5.61104 5.95895 7.41256
9 2 6.43441 8.2314 3.52343
10 2 7.31938 1.4799 4.9946
11 2 0.429721 3.39569 0.759829
12 2 4.35172 6.29259 7.80492
13 2 7.08935 6.86273 1.94002
14 2 6.60263 2.82391 6.62101
15 2 8.68758 2.00138 2.35014
16 2 5.00132 7.70098 6.16467
17 5 1.08761 0.754314 5.22948
18 5 3.693 8.951 3.30363
19 5 1.59286 5.60821 7.56555
20 5 3.15549 4.10498 0.986588
21 5 3.22216 0.316551 5.76241
22 5 1.53759 9.38483 2.75986
23 5 8.41763 5.14371 7.05823
24 5 5.28892 4.53856 1.50735
25 3 8.06352 7.74218 2.20091
26 3 5.60727 1.92895 6.35803
27 3 7.68584 2.9021 2.08759
28 3 5.99021 6.80597 6.44018
29 3 6.1057 7.1645 2.77169
30 3 7.57191 2.49574 5.78732
31 3 0.7612 2.35019 1.51794
32 3 3.998 7.38462 7.00866
33 6 2.2832 0.321092 5.0076
34 6 2.50285 9.37752 3.55358
35 6 0.417141 5.1675 7.80682
36 6 4.33735 4.53064 0.723981
37 4 0.192145 7.77712 1.74563
38 4 4.61499 1.84733 6.81212
39 4 6.71158 2.99795 2.4833
40 4 6.97557 6.79466 6.05471
41 4 5.13172 6.71106 2.79962
42 4 8.56748 2.89828 5.7259
43 4 1.68927 1.84823 1.48383
44 4 3.00865 7.92379 7.09786
45 1 4.51946 0.546617 12.277
46 1 0.893107 9.15023 13.3119
47 1 2.9658 5.37709 9.04611
48 1 2.44399 4.3008 16.54
49 2 3.52888 8.59402 11.6968
50 2 1.83266 1.10155 13.8801
51 2 3.93499 3.76052 9.671
52 2 1.4792 5.967 15.9476
53 2 2.24337 8.2293 12.003
54 2 3.14092 1.42326 13.572
55 2 5.23848 3.37951 9.29044
56 2 9.11213 6.32252 16.3245
57 2 2.93072 6.86044 10.4284
58 2 2.4526 2.86059 15.1739
59 2 4.51037 1.97301 10.8785
60 2 0.871966 7.66332 14.6896
61 5 5.84922 0.728739 13.7554
62 5 8.45844 8.98998 11.8607
63 5 6.36383 5.59819 16.1213
64 5 7.95001 4.09497 9.49344
65 5 7.98461 0.319331 14.2967
66 5 6.30897 9.38497 11.2797
67 5 4.24252 5.15022 15.5818
68 5 1.15708 4.54188 10.0399
69 3 3.94879 7.743 10.7355
70 3 1.47785 1.93897 14.8519
71 3 3.54879 2.90359 10.5916
72 3 1.85674 6.80868 15.001
73 3 1.93221 7.18078 11.2645
74 3 3.44563 2.50522 14.3078
75 3 5.5428 2.36105 10.017
76 3 8.77452 7.35792 15.5336
77 6 7.00521 0.315512 13.4977
78 6 7.26969 9.37233 12.1036
79 6 5.19955 5.18784 16.3265
80 6 9.11924 4.54272 9.25303
81 4 4.81617 7.77676 10.2069
82 4 9.43949 1.90582 15.357
83 4 2.57299 2.98444 11.154
84 4 2.78188 6.75687 14.418
85 4 0.982511 6.67744 11.2668
86 4 4.37703 2.9342 14.2888
87 4 6.47676 1.77455 10.0407
88 4 7.86836 7.80064 15.6108
89 1 8.6516 10.2347 3.74667
90 1 5.03363 18.8419 4.78031
91 1 7.10072 15.0785 0.526428
92 1 6.58895 13.9932 8.01377
93 2 7.69429 18.2885 3.1523
94 2 6.00507 10.814 5.38227
95 2 8.08651 13.4205 1.09364
96 2 5.60346 15.6533 7.38172
97 2 6.4062 17.9527 3.49315
98 2 7.28922 11.1669 5.01388
99 2 0.435007 13.0728 0.75339
100 2 4.34141 16.0372 7.77838
101 2 7.10245 16.5513 1.89225
102 2 6.61031 12.526 6.60637
103 2 8.64157 11.7071 2.36378
104 2 5.00945 17.366 6.1858
105 5 1.11184 10.4382 5.22565
106 5 3.66405 18.6764 3.30309
107 5 1.60664 15.2877 7.57045
108 5 3.18558 13.8112 0.960801
109 5 3.21912 10.0149 5.7985
110 5 1.52532 19.0665 2.74456
111 5 8.37196 14.8555 7.01693
112 5 5.29908 14.2332 1.50912
113 3 8.06692 17.4536 2.19753
114 3 5.63321 11.6382 6.33989
115 3 7.69093 12.5978 2.07861
116 3 5.98123 16.4596 6.44535
117 3 6.08879 16.8783 2.76725
118 3 7.61758 12.1967 5.79367
119 3 0.726991 12.0222 1.53555
120 3 4.01412 17.0544 6.9823
121 6 2.27363 10.0178 4.98047
122 6 2.53374 19.0859 3.52807
123 6 0.418014 14.8546 7.84219
124 6 4.3262 14.2387 0.718942
125 4 0.141478 17.4049 1.72297
126 4 4.66024 11.5948 6.70567
127 4 6.71613 12.565 2.62025
128 4 6.90406 16.3541 6.05904
129 4 5.19386 16.2857 2.72393
130 4 8.65536 12.7999 5.72494
131 4 1.71098 11.4577 1.4611
132 4 3.04111 17.6027 7.08504
133 1 4.50142 10.2328 12.2676
134 1 0.887845 18.8365 13.3269
135 1 2.95045 15.0687 9.05866
136 1 2.43643 13.9993 16.5352
137 2 3.50184 18.2902 11.6999
138 2 1.87786 10.7896 13.9095
139 2 3.94153 13.4134 9.64289
140 2 1.48617 15.6503 15.9219
141 2 2.2362 17.9516 12.0469
142 2 3.14138 11.1403 13.5557
143 2 5.1847 13.0757 9.29222
144 2 9.11515 15.9981 16.3174
145 2 2.96717 16.5428 10.4309
146 2 2.44214 12.5224 15.1337
147 2 4.52796 11.7239 10.894
148 2 0.853651 17.3887 14.7228
149 5 5.88625 10.419 13.7563
150 5 8.4664 18.6589 11.8301
151 5 6.35589 15.2931 16.1086
152 5 7.95717 13.7987 9.48152
153 5 8.00874 10.0172 14.2951
154 5 6.30676 19.0568 11.2901
155 5 4.26613 14.8765 15.569
156 5 1.17883 14.2021 10.0405
157 3 3.95826 17.4158 10.7324
158 3 1.4991 11.6311 14.8802
159 3 3.57535 12.5817 10.604
160 3 1.82684 16.4662 15.0092
161 3 1.93291 16.8854 11.2623
162 3 3.44502 12.1975 14.3351
163 3 5.52271 12.0389 10.0399
164 3 8.80939 17.0358 15.5619
165 6 7.03757 9.97161 13.4982
166 6 7.28092 19.0643 12.0966
167 6 5.23346 14.8366 16.343
168 6 9.14059 14.2633 9.2325
169 4 4.88737 17.4116 10.211
170 4 9.46103 11.6424 15.4361
171 4 2.59582 12.6924 11.1942
172 4 2.77262 16.466 14.5548
173 4 0.999958 16.3644 11.3704
174 4 4.45035 12.7187 14.2122
175 4 6.42129 11.5346 9.99856
176 4 7.81094 17.5952 15.5571
177 7 7.3004 13.3671 14.3476
178 8 6.79289 12.9973 15.1116
179 8 6.88355 12.9908 13.5648
180 7 6.90782 15.5919 12.4705
181 8 6.88732 16.5388 12.7656
182 8 7.75346 15.2177 12.5546
183 7 5.33816 4.9391 12.9134
184 8 4.39597 5.08281 12.8626
185 8 5.66079 5.71254 13.405
186 7 7.12837 5.69269 11.2892
187 8 7.69439 5.62585 12.0875
188 8 7.5138 6.28478 10.6458
189 7 2.99455 4.86287 4.49952
190 8 2.93529 5.80245 4.35716
191 8 2.16248 4.66291 4.11207
192 7 4.64174 2.86987 4.20072
193 8 4.35252 2.91182 3.29753
194 8 5.21272 3.55328 4.4753
ITEM: TIMESTEP
11
ITEM: NUMBER OF ATOMS
194
ITEM: BOX BOUNDS xy xz yz pp pp pp
-1.6605615254761119e-04 9.5443733431217233e+00 0.0000000000000000e+00
-3.6116251293094592e-04 1.9387360262512928e+01 6.3040708696917158e-01
-3.1786503664044119e-04 1.7063132965036637e+01 0.0000000000000000e+00
ITEM: ATOMS id type x y z
1 1 8.66326 0.540749 3.73755
2 1 5.02104 9.15668 4.78782
3 1 7.09242 5.39567 0.510046
4 1 6.58701 4.30196 8.01581
5 2 7.68155 8.59438 3.14885
6 2 6.01569 1.11297 5.40378
7 2 8.08877 3.72656 1.11431
8 2 5.61135 5.95961 7.41228
9 2 6.43691 8.23123 3.52539
10 2 7.32325 1.48166 4.99139
11 2 0.429318 3.39662 0.75955
12 2 4.35303 6.29131 7.80829
13 2 7.08897 6.86309 1.94245
14 2 6.60355 2.82273 6.62151
15 2 8.6899 2.00042 2.35004
16 2 4.99922 7.70285 6.16312
17 5 1.08691 0.755348 5.22972
18 5 3.69454 8.95111 3.30355
19 5 1.59151 5.61 7.5651
20 5 3.15447 4.10514 0.989061
21 5 3.22049 0.316561 5.76124
22 5 1.53817 9.38556 2.76027
23 5 8.42165 5.14179 7.06167
24 5 5.28676 4.53934 1.5071
25 3 8.06353 7.74138 2.20189
26 3 5.60618 1.92748 6.36001
27 3 7.68558 2.90188 2.08864
28 3 5.98956 6.80758 6.43868
29 3 6.10791 7.16217 2.77404
30 3 7.56912 2.49483 5.78766
31 3 0.761289 2.35097 1.51807
32 3 3.99645 7.38777 7.00822
33 6 2.28429 0.32287 5.01064
34 6 2.50294 9.37616 3.5531
35 6 0.416051 5.16929 7.80548
36 6 4.33695 4.5293 0.725433
37 4 0.196598 7.77335 1.74954
38 4 4.61207 1.84424 6.8117
39 4 6.7097 3.00039 2.47767
40 4 6.97777 6.80139 6.06147
41 4 5.13121 6.71394 2.80009
42 4 8.56912 2.88757 5.72559
43 4 1.68855 1.84944 1.48464
44 4 3.00522 7.92888 7.10155
45 1 4.52023 0.546612 12.2773
46 1 0.893323 9.15054 13.3111
47 1 2.96622 5.37547 9.04529
48 1 2.4443 4.30082 16.5401
49 2 3.52804 8.59454 11.6983
50 2 1.82955 1.10116 13.8769
51 2 3.93514 3.76238 9.67325
52 2 1.48036 5.96843 15.9477
53 2 2.24106 8.22906 11.9999
54 2 3.14134 1.4195 13.5733
55 2 5.24143 3.37908 9.29003
56 2 9.11245 6.32401 16.3268
57 2 2.9287 6.86076 10.4267
58 2 2.45279 2.8629 15.1763
59 2 4.50937 1.96939 10.8779
60 2 0.870961 7.66146 14.6875
61 5 5.84731 0.727261 13.7552
62 5 8.45941 8.99395 11.8632
63 5 6.3625 5.59905 16.1232
64 5 7.95128 4.094 9.49337
65 5 7.98178 0.319635 14.2957
66 5 6.30954 9.38572 11.279
67 5 4.24334 5.149 15.5846
68 5 1.1559 4.54299 10.0397
69 3 3.95081 7.74207 10.737
70 3 1.47785 1.93874 14.85
71 3 3.5486 2.90336 10.5903
72 3 1.85712 6.81068 15.0023
73 3 1.93128 7.17988 11.2628
74 3 3.44389 2.50518 14.3073
75 3 5.54385 2.36247 10.0143
76 3 8.77381 7.35836 15.5324
77 6 7.0019 0.316731 13.4972
78 6 7.26912 9.37044 12.1048
79 6 5.19909 5.19149 16.3241
80 6 9.11987 4.54254 9.25431
81 4 4.81161 7.77419 10.2019
82 4 9.4408 1.90776 15.3576
83 4 2.57416 2.98651 11.1598
84 4 2.77763 6.7589 14.4095
85 4 0.981061 6.67756 11.2612
86 4 4.37631 2.92716 14.2909
87 4 6.47603 1.77025 10.0433
88 4 7.86875 7.7965 15.6126
89 1 8.65143 10.2342 3.74704
90 1 5.03374 18.842 4.77947
91 1 7.10047 15.0777 0.526741
92 1 6.58959 13.9931 8.01429
93 2 7.69575 18.2893 3.15259
94 2 6.00502 10.8155 5.38223
95 2 8.08732 13.4191 1.09144
96 2 5.60285 15.654 7.3785
97 2 6.40598 17.9554 3.49214
98 2 7.29033 11.1681 5.01249
99 2 0.435066 13.0721 0.75249
100 2 4.34184 16.0408 7.77926
101 2 7.10327 16.5514 1.89018
102 2 6.61208 12.5257 6.60536
103 2 8.63947 11.7073 2.36502
104 2 5.00825 17.3651 6.18621
105 5 1.11341 10.4384 5.2255
106 5 3.66301 18.6796 3.30286
107 5 1.60661 15.2881 7.57054
108 5 3.18736 13.8126 0.96074
109 5 3.217 10.0155 5.80071
110 5 1.5248 19.0661 2.7435
111 5 8.37175 14.8554 7.01659
112 5 5.29785 14.2341 1.50899
113 3 8.06708 17.4544 2.19806
114 3 5.63468 11.6384 6.33969
115 3 7.69086 12.5978 2.07901
116 3 5.9796 16.4573 6.44436
117 3 6.08954 16.8778 2.76877
118 3 7.61956 12.1968 5.79475
119 3 0.723992 12.0208 1.53735
120 3 4.01401 17.0554 6.9792
121 6 2.27413 10.02 4.9812
122 6 2.53629 19.0863 3.52521
123 6 0.416748 14.8559 7.84369
124 6 4.32511 14.2389 0.720012
125 4 0.143108 17.3957 1.7246
126 4 4.6595 11.5973 6.69585
127 4 6.71647 12.5568 2.62562
128 4 6.90113 16.3479 6.0647
129 4 5.19869 16.2781 2.71823
130 4 8.66079 12.806 5.72372
131 4 1.7089 11.4523 1.46013
132 4 3.04065 17.6069 7.08735
133 1 4.50039 10.2321 12.2669
134 1 0.887532 18.8361 13.3276
135 1 2.94933 15.0669 9.05909
136 1 2.43599 13.9999 16.5348
137 2 3.49846 18.2911 11.7016
138 2 1.87909 10.7886 13.9092
139 2 3.942 13.4113 9.64247
140 2 1.48791 15.6506 15.9197
141 2 2.23312 17.954 12.0481
142 2 3.14194 11.1389 13.5554
143 2 5.18268 13.0754 9.292
144 2 9.11584 15.9978 16.3191
145 2 2.96861 16.5419 10.4294
146 2 2.44135 12.5218 15.1324
147 2 4.52874 11.7257 10.8952
148 2 0.851049 17.3899 14.7239
149 5 5.88808 10.4172 13.756
150 5 8.46813 18.6605 11.8296
151 5 6.35386 15.2942 16.1094
152 5 7.95918 13.7989 9.48037
153 5 8.00837 10.0179 14.2939
154 5 6.30712 19.0554 11.2905
155 5 4.2694 14.8786 15.5706
156 5 1.17978 14.2 10.0403
157 3 3.96139 17.413 10.7336
158 3 1.50106 11.6306 14.8811
159 3 3.5776 12.5802 10.6039
160 3 1.8241 16.4649 15.0111
161 3 1.93213 16.8858 11.2606
162 3 3.44375 12.1974 14.337
163 3 5.52161 12.0392 10.0392
164 3 8.8115 17.0352 15.5635
165 6 7.0373 9.96923 13.4977
166 6 7.28142 19.0623 12.0972
167 6 5.23611 14.8359 16.3419
168 6 9.1432 14.2657 9.2321
169 4 4.88792 17.4033 10.2077
170 4 9.4652 11.6483 15.4437
171 4 2.6001 12.6958 11.2038
172 4 2.76919 16.47 14.5586
173 4 1.00042 16.3633 11.3746
174 4 4.45171 12.719 14.2072
175 4 6.41765 11.5347 9.99767
176 4 7.81087 17.5972 15.5544
177 7 7.3027 13.3669 14.3479
178 8 6.79396 12.9992 15.1106
179 8 6.87457 12.9961 13.5691
180 7 6.90813 15.5916 12.4714
181 8 6.88401 16.5375 12.7647
182 8 7.75516 15.2212 12.5467
183 7 5.3376 4.93774 12.9123
184 8 4.39686 5.08253 12.8677
185 8 5.65763 5.71996 13.3918
186 7 7.12946 5.69349 11.2902
187 8 7.69073 5.62776 12.0901
188 8 7.51715 6.28168 10.6468
189 7 2.99331 4.86445 4.49857
190 8 2.92066 5.803 4.35461
191 8 2.1642 4.67103 4.10197
192 7 4.64278 2.87005 4.1999
193 8 4.3576 2.90061 3.29659
194 8 5.21366 3.55028 4.47464
ITEM: TIMESTEP
12
ITEM: NUMBER OF ATOMS
194
ITEM: BOX BOUNDS xy xz yz pp pp pp
-1.9839683177380607e-04 9.5444102580640795e+00 0.0000000000000000e+00
-4.3150161690164168e-04 1.9387430601616899e+01 6.3041166123230064e-01
-3.7977163286839755e-04 1.7063194871632867e+01 0.0000000000000000e+00
ITEM: ATOMS id type x y z
1 1 8.66418 0.54021 3.73705
2 1 5.02001 9.15755 4.78774
3 1 7.09144 5.39588 0.508853
4 1 6.58743 4.30208 8.01649
5 2 7.68185 8.59501 3.14878
6 2 6.01697 1.11326 5.40576
7 2 8.08968 3.7253 1.11414
8 2 5.61167 5.96021 7.412
9 2 6.43936 8.23105 3.52735
10 2 7.32705 1.48336 4.9882
11 2 0.42897 3.39755 0.759249
12 2 4.35429 6.2901 7.81163
13 2 7.08861 6.86337 1.94481
14 2 6.60441 2.82161 6.62208
15 2 8.69219 1.99941 2.34998
16 2 4.99713 7.70478 6.16154
17 5 1.08632 0.756347 5.22997
18 5 3.69598 8.95124 3.30347
19 5 1.59007 5.61177 7.56463
20 5 3.15353 4.10533 0.991527
21 5 3.21884 0.31656 5.76008
22 5 1.53878 9.3863 2.7607
23 5 8.42563 5.13987 7.06505
24 5 5.28458 4.54012 1.50682
25 3 8.06358 7.7406 2.20285
26 3 5.60513 1.92602 6.36204
27 3 7.68539 2.90165 2.08966
28 3 5.98885 6.80919 6.43722
29 3 6.11012 7.15988 2.77641
30 3 7.56639 2.4939 5.78797
31 3 0.761345 2.35176 1.5182
32 3 3.99489 7.39087 7.00783
33 6 2.28524 0.324652 5.01358
34 6 2.50311 9.37478 3.5526
35 6 0.415128 5.17108 7.80423
36 6 4.33647 4.52795 0.726856
37 4 0.200387 7.76936 1.75358
38 4 4.60933 1.84139 6.81137
39 4 6.7076 3.00245 2.4724
40 4 6.98023 6.80831 6.068
41 4 5.1306 6.71669 2.80051
42 4 8.57078 2.87718 5.72552
43 4 1.68817 1.85051 1.48536
44 4 3.00227 7.93375 7.10519
45 1 4.521 0.5466 12.2776
46 1 0.893535 9.15084 13.3103
47 1 2.96663 5.37385 9.04447
48 1 2.44461 4.30083 16.5401
49 2 3.52722 8.59509 11.6997
50 2 1.82645 1.10071 13.8736
51 2 3.93534 3.76427 9.67545
52 2 1.4815 5.9698 15.9479
53 2 2.23873 8.22886 11.9969
54 2 3.14176 1.41572 13.5746
55 2 5.24434 3.37871 9.28958
56 2 9.11275 6.32549 16.3292
57 2 2.92672 6.86105 10.425
58 2 2.45296 2.86521 15.1788
59 2 4.50838 1.96576 10.8772
60 2 0.869942 7.65966 14.6853
61 5 5.84546 0.725759 13.7549
62 5 8.46031 8.99793 11.8657
63 5 6.36114 5.59991 16.1251
64 5 7.95263 4.09304 9.49329
65 5 7.97891 0.31993 14.2946
66 5 6.31016 9.38647 11.2784
67 5 4.24416 5.14779 15.5873
68 5 1.15471 4.54411 10.0396
69 3 3.95269 7.74109 10.7385
70 3 1.47787 1.93854 14.8481
71 3 3.54838 2.90309 10.5891
72 3 1.85751 6.8127 15.0036
73 3 1.93036 7.17897 11.2611
74 3 3.44208 2.50513 14.3068
75 3 5.54486 2.36376 10.0117
76 3 8.7732 7.35874 15.5313
77 6 6.99861 0.317954 13.4967
78 6 7.26859 9.36852 12.106
79 6 5.19869 5.1951 16.3218
80 6 9.12041 4.54233 9.25559
81 4 4.80784 7.77174 10.1966
82 4 9.44202 1.90974 15.3582
83 4 2.57579 2.98847 11.1654
84 4 2.77334 6.76086 14.4011
85 4 0.979464 6.67769 11.2557
86 4 4.37625 2.92044 14.293
87 4 6.47525 1.76627 10.0456
88 4 7.86839 7.79291 15.6143
89 1 8.65127 10.2337 3.74741
90 1 5.03386 18.8422 4.77862
91 1 7.10023 15.0769 0.527048
92 1 6.59023 13.9931 8.01482
93 2 7.69722 18.2901 3.1529
94 2 6.00499 10.8169 5.38216
95 2 8.08809 13.4178 1.08923
96 2 5.60223 15.6546 7.37534
97 2 6.40573 17.9581 3.49114
98 2 7.29146 11.1693 5.0111
99 2 0.435162 13.0714 0.751575
100 2 4.34225 16.0443 7.78014
101 2 7.10407 16.5515 1.88812
102 2 6.61382 12.5256 6.60439
103 2 8.63738 11.7075 2.36628
104 2 5.0071 17.3643 6.18655
105 5 1.11504 10.4385 5.22535
106 5 3.66196 18.6828 3.30259
107 5 1.60647 15.2884 7.57063
108 5 3.18917 13.814 0.960684
109 5 3.21486 10.016 5.80288
110 5 1.52434 19.0657 2.74248
111 5 8.37159 14.8553 7.01631
112 5 5.29659 14.235 1.50882
113 3 8.06724 17.4552 2.19853
114 3 5.63619 11.6386 6.33946
115 3 7.69078 12.5977 2.07943
116 3 5.97789 16.4551 6.44338
117 3 6.09036 16.8773 2.7702
118 3 7.62164 12.197 5.79583
119 3 0.721045 12.0194 1.53912
120 3 4.01384 17.0564 6.97613
121 6 2.2746 10.0221 4.98194
122 6 2.53876 19.0867 3.52237
123 6 0.415576 14.8574 7.84509
124 6 4.32405 14.2391 0.721085
125 4 0.14464 17.3866 1.72638
126 4 4.65834 11.6002 6.6864
127 4 6.71703 12.5489 2.63062
128 4 6.89899 16.342 6.06974
129 4 5.20322 16.2708 2.71286
130 4 8.66501 12.8114 5.72252
131 4 1.70628 11.4473 1.45921
132 4 3.04063 17.6109 7.08958
133 1 4.49936 10.2314 12.2663
134 1 0.887215 18.8357 13.3283
135 1 2.94822 15.0651 9.05953
136 1 2.43555 14.0004 16.5344
137 2 3.49513 18.2919 11.7034
138 2 1.88029 10.7876 13.9089
139 2 3.94243 13.4094 9.64204
140 2 1.4896 15.6509 15.9176
141 2 2.23 17.9564 12.0493
142 2 3.14254 11.1376 13.555
143 2 5.18072 13.075 9.29174
144 2 9.11654 15.9974 16.3207
145 2 2.97004 16.5411 10.428
146 2 2.44057 12.5214 15.1311
147 2 4.52954 11.7274 10.8964
148 2 0.848497 17.3912 14.7251
149 5 5.88995 10.4154 13.7558
150 5 8.46978 18.6621 11.8291
151 5 6.35181 15.2952 16.1101
152 5 7.96129 13.7992 9.47921
153 5 8.00798 10.0187 14.2926
154 5 6.30752 19.0541 11.2909
155 5 4.27268 14.8806 15.5723
156 5 1.1807 14.1978 10.0402
157 3 3.96443 17.4102 10.7348
158 3 1.50299 11.6301 14.882
159 3 3.57976 12.5787 10.6038
160 3 1.82134 16.4636 15.013
161 3 1.93138 16.8863 11.2588
162 3 3.44255 12.1973 14.3389
163 3 5.52045 12.0396 10.0385
164 3 8.81352 17.0346 15.565
165 6 7.037 9.96688 13.4973
166 6 7.28194 19.0603 12.0977
167 6 5.23874 14.8353 16.3408
168 6 9.14568 14.268 9.23179
169 4 4.88875 17.3951 10.2045
170 4 9.46946 11.654 15.451
171 4 2.60506 12.699 11.2129
172 4 2.76616 16.4741 14.5623
173 4 1.0008 16.362 11.3787
174 4 4.45241 12.7193 14.2025
175 4 6.41462 11.5345 9.99669
176 4 7.81135 17.5988 15.552
177 7 7.30499 13.3668 14.3484
178 8 6.79531 13.0013 15.1091
179 8 6.8656 13.0015 13.5735
180 7 6.90839 15.5913 12.4723
181 8 6.88093 16.5355 12.7635
182 8 7.75748 15.2247 12.539
183 7 5.33704 4.93639 12.9112
184 8 4.39766 5.08225 12.8728
185 8 5.65437 5.72716 13.3785
186 7 7.13054 5.6943 11.2913
187 8 7.68694 5.62977 12.0921
188 8 7.52072 6.27863 10.6479
189 7 2.99208 4.86604 4.49762
190 8 2.90626 5.80386 4.35219
191 8 2.1655 4.67868 4.09171
192 7 4.64375 2.87021 4.19903
193 8 4.3628 2.88973 3.29551
194 8 5.21483 3.54774 4.47387
ITEM: TIMESTEP
13
ITEM: NUMBER OF ATOMS
194
ITEM: BOX BOUNDS xy xz yz pp pp pp
-2.3350418162060294e-04 9.5444503309947315e+00 0.0000000000000000e+00
-5.0785806921282983e-04 1.9387506958069210e+01 6.3041662681310484e-01
-4.4697419582107045e-04 1.7063262074195819e+01 0.0000000000000000e+00
ITEM: ATOMS id type x y z
1 1 8.6651 0.539666 3.73656
2 1 5.01898 9.15841 4.78766
3 1 7.09046 5.3961 0.507658
4 1 6.58785 4.30219 8.01716
5 2 7.68219 8.59568 3.14872
6 2 6.01832 1.11346 5.40771
7 2 8.09055 3.7241 1.11396
8 2 5.61202 5.96077 7.41175
9 2 6.44174 8.23088 3.52931
10 2 7.33079 1.48501 4.98504
11 2 0.428678 3.39848 0.758926
12 2 4.35549 6.28893 7.81492
13 2 7.08828 6.86355 1.94709
14 2 6.60523 2.82054 6.62271
15 2 8.69442 1.99836 2.34997
16 2 4.99508 7.70677 6.15992
17 5 1.08582 0.75731 5.23023
18 5 3.69733 8.9514 3.30339
19 5 1.58855 5.61351 7.56417
20 5 3.15268 4.10554 0.993984
21 5 3.21721 0.316548 5.75894
22 5 1.53942 9.38703 2.76116
23 5 8.42956 5.13795 7.06839
24 5 5.2824 4.54091 1.50653
25 3 8.06369 7.73983 2.2038
26 3 5.60414 1.92454 6.36412
27 3 7.68528 2.90142 2.09064
28 3 5.98809 6.81079 6.43577
29 3 6.11233 7.15763 2.77881
30 3 7.56372 2.49297 5.78823
31 3 0.761371 2.35254 1.51833
32 3 3.99332 7.3939 7.0075
33 6 2.28605 0.326435 5.01642
34 6 2.50336 9.37338 3.55208
35 6 0.414377 5.17289 7.80307
36 6 4.33589 4.52659 0.728243
37 4 0.203488 7.76515 1.75776
38 4 4.60677 1.8388 6.81113
39 4 6.70528 3.00414 2.4675
40 4 6.98295 6.81542 6.07431
41 4 5.12991 6.71929 2.80089
42 4 8.57245 2.86712 5.7257
43 4 1.68813 1.85143 1.48598
44 4 2.99984 7.93836 7.10876
45 1 4.52177 0.546581 12.2779
46 1 0.893745 9.15114 13.3095
47 1 2.96705 5.37223 9.04366
48 1 2.44492 4.30085 16.5402
49 2 3.52643 8.59565 11.7012
50 2 1.82338 1.10023 13.8703
51 2 3.93559 3.76619 9.67761
52 2 1.48263 5.97111 15.9481
53 2 2.23637 8.2287 11.9939
54 2 3.14218 1.41193 13.5759
55 2 5.24721 3.37842 9.2891
56 2 9.11305 6.32696 16.3315
57 2 2.92479 6.8613 10.4232
58 2 2.45311 2.86752 15.1812
59 2 4.50742 1.96214 10.8766
60 2 0.868909 7.65794 14.6831
61 5 5.84364 0.724236 13.7546
62 5 8.46114 9.00193 11.8681
63 5 6.35973 5.60076 16.1269
64 5 7.95408 4.09208 9.49319
65 5 7.976 0.320218 14.2934
66 5 6.31081 9.38723 11.2778
67 5 4.24496 5.14657 15.5901
68 5 1.1535 4.54523 10.0394
69 3 3.95444 7.74006 10.74
70 3 1.47792 1.93839 14.8463
71 3 3.54813 2.90275 10.588
72 3 1.8579 6.81475 15.0048
73 3 1.92946 7.17804 11.2594
74 3 3.44021 2.50505 14.3063
75 3 5.54583 2.36493 10.0093
76 3 8.77267 7.35906 15.5301
77 6 6.99535 0.319176 13.4962
78 6 7.2681 9.36658 12.1071
79 6 5.19835 5.19867 16.3197
80 6 9.12087 4.54209 9.25684
81 4 4.80487 7.76943 10.191
82 4 9.44313 1.91173 15.3588
83 4 2.5779 2.99032 11.1706
84 4 2.76899 6.76273 14.3928
85 4 0.977717 6.67785 11.2502
86 4 4.37687 2.91403 14.2951
87 4 6.47442 1.76264 10.0476
88 4 7.86726 7.78987 15.616
89 1 8.65111 10.2331 3.74778
90 1 5.03397 18.8424 4.77777
91 1 7.09998 15.0761 0.527349
92 1 6.59087 13.993 8.01534
93 2 7.69869 18.291 3.15324
94 2 6.00499 10.8183 5.38206
95 2 8.08881 13.4165 1.08703
96 2 5.60158 15.6552 7.37224
97 2 6.40545 17.9608 3.49016
98 2 7.29261 11.1705 5.0097
99 2 0.435295 13.0707 0.750646
100 2 4.34264 16.0478 7.78102
101 2 7.10486 16.5516 1.88607
102 2 6.61553 12.5255 6.60348
103 2 8.63528 11.7075 2.36759
104 2 5.00599 17.3636 6.18681
105 5 1.11671 10.4386 5.22521
106 5 3.66092 18.686 3.3023
107 5 1.60623 15.2887 7.57074
108 5 3.191 13.8154 0.960635
109 5 3.21269 10.0165 5.805
110 5 1.52394 19.0653 2.7415
111 5 8.37147 14.8552 7.01609
112 5 5.2953 14.2359 1.50863
113 3 8.0674 17.456 2.19896
114 3 5.63775 11.6388 6.33922
115 3 7.69068 12.5977 2.07988
116 3 5.97611 16.453 6.44242
117 3 6.09126 16.8767 2.77154
118 3 7.62382 12.1973 5.79689
119 3 0.718153 12.018 1.54086
120 3 4.01361 17.0575 6.97311
121 6 2.27502 10.0243 4.9827
122 6 2.54112 19.0872 3.51956
123 6 0.414502 14.8589 7.84638
124 6 4.32302 14.2393 0.722157
125 4 0.146068 17.3776 1.72833
126 4 4.65676 11.6035 6.67735
127 4 6.71782 12.5411 2.63525
128 4 6.89764 16.3364 6.07412
129 4 5.20743 16.2638 2.70786
130 4 8.66798 12.816 5.72135
131 4 1.70309 11.4425 1.45833
132 4 3.04104 17.6147 7.09173
133 1 4.49834 10.2307 12.2657
134 1 0.886894 18.8354 13.329
135 1 2.9471 15.0634 9.05996
136 1 2.4351 14.001 16.5339
137 2 3.49188 18.2928 11.7051
138 2 1.88146 10.7866 13.9086
139 2 3.94281 13.4074 9.64161
140 2 1.49125 15.651 15.9156
141 2 2.22685 17.9589 12.0504
142 2 3.14317 11.1362 13.5547
143 2 5.17885 13.0747 9.29144
144 2 9.11725 15.997 16.3224
145 2 2.97146 16.5401 10.4266
146 2 2.43978 12.521 15.1299
147 2 4.53037 11.7291 10.8977
148 2 0.845999 17.3924 14.7262
149 5 5.89188 10.4136 13.7556
150 5 8.47135 18.6637 11.8286
151 5 6.34974 15.2963 16.1109
152 5 7.96351 13.7995 9.47805
153 5 8.00755 10.0194 14.2913
154 5 6.30798 19.0527 11.2914
155 5 4.27597 14.8826 15.5739
156 5 1.18161 14.1957 10.0399
157 3 3.96738 17.4074 10.7361
158 3 1.50491 11.6296 14.8828
159 3 3.58182 12.5772 10.6037
160 3 1.81854 16.4625 15.0148
161 3 1.93067 16.8868 11.257
162 3 3.44142 12.1972 14.3407
163 3 5.51922 12.0399 10.0378
164 3 8.81546 17.0342 15.5665
165 6 7.03667 9.96458 13.497
166 6 7.28249 19.0583 12.0981
167 6 5.24135 14.8346 16.3397
168 6 9.14803 14.2703 9.23156
169 4 4.88988 17.3871 10.2013
170 4 9.4738 11.6596 15.458
171 4 2.6107 12.7021 11.2217
172 4 2.76354 16.4782 14.5658
173 4 1.00109 16.3605 11.3827
174 4 4.45243 12.7194 14.1979
175 4 6.41222 11.5341 9.99559
176 4 7.81241 17.5998 15.5497
177 7 7.30727 13.3666 14.3488
178 8 6.79691 13.0035 15.1071
179 8 6.85666 13.007 13.578
180 7 6.90859 15.5911 12.4732
181 8 6.87809 16.5329 12.7622
182 8 7.76042 15.228 12.5314
183 7 5.33648 4.93504 12.9101
184 8 4.39833 5.08195 12.8779
185 8 5.65104 5.73411 13.365
186 7 7.13161 5.69514 11.2924
187 8 7.68302 5.63186 12.0937
188 8 7.52454 6.27563 10.6492
189 7 2.99085 4.86766 4.49667
190 8 2.89212 5.80504 4.34992
191 8 2.16639 4.68581 4.08131
192 7 4.64466 2.87035 4.19811
193 8 4.36809 2.8792 3.29428
194 8 5.21625 3.54571 4.47299
ITEM: TIMESTEP
14
ITEM: NUMBER OF ATOMS
194
ITEM: BOX BOUNDS xy xz yz pp pp pp
-2.7131504772892612e-04 9.5444934898267704e+00 0.0000000000000000e+00
-5.9009451279301572e-04 1.9387589194512792e+01 6.3042197477903683e-01
-5.1935183529216999e-04 1.7063334451835292e+01 0.0000000000000000e+00
ITEM: ATOMS id type x y z
1 1 8.66602 0.539117 3.73606
2 1 5.01795 9.15928 4.78757
3 1 7.08949 5.3963 0.506461
4 1 6.58828 4.3023 8.01784
5 2 7.68256 8.5964 3.14867
6 2 6.01977 1.11355 5.40962
7 2 8.09137 3.72296 1.11376
8 2 5.6124 5.96128 7.4115
9 2 6.44407 8.2307 3.53128
10 2 7.33445 1.4866 4.9819
11 2 0.428444 3.39941 0.758582
12 2 4.35662 6.28784 7.81816
13 2 7.08797 6.86365 1.9493
14 2 6.60599 2.81952 6.62341
15 2 8.69661 1.99726 2.35
16 2 4.99304 7.70882 6.15827
17 5 1.08542 0.758236 5.23049
18 5 3.69857 8.95159 3.3033
19 5 1.58695 5.61523 7.56369
20 5 3.15191 4.10578 0.996433
21 5 3.2156 0.316526 5.75782
22 5 1.54008 9.38777 2.76164
23 5 8.43342 5.13601 7.07167
24 5 5.28021 4.5417 1.50622
25 3 8.06384 7.73908 2.20473
26 3 5.6032 1.92307 6.36624
27 3 7.68525 2.90118 2.09158
28 3 5.98727 6.81239 6.43435
29 3 6.11455 7.15541 2.78124
30 3 7.56113 2.49203 5.78844
31 3 0.761366 2.35332 1.51847
32 3 3.99175 7.39688 7.00721
33 6 2.2867 0.328218 5.01915
34 6 2.50369 9.37195 3.55155
35 6 0.413808 5.17471 7.80202
36 6 4.33522 4.52522 0.729589
37 4 0.205883 7.76072 1.76207
38 4 4.60439 1.83646 6.81099
39 4 6.70274 3.00541 2.46299
40 4 6.98591 6.82272 6.08039
41 4 5.12915 6.72176 2.80123
42 4 8.57413 2.85741 5.72617
43 4 1.68845 1.8522 1.4865
44 4 2.99795 7.94273 7.11227
45 1 4.52254 0.546555 12.2782
46 1 0.893951 9.15145 13.3087
47 1 2.96746 5.3706 9.04284
48 1 2.44523 4.30086 16.5402
49 2 3.52566 8.59624 11.7026
50 2 1.82033 1.0997 13.867
51 2 3.9359 3.76814 9.67972
52 2 1.48375 5.97236 15.9484
53 2 2.23399 8.22858 11.9909
54 2 3.1426 1.40814 13.5772
55 2 5.25004 3.37821 9.28858
56 2 9.11334 6.32842 16.3338
57 2 2.92291 6.86151 10.4214
58 2 2.45325 2.86983 15.1836
59 2 4.50648 1.95852 10.8759
60 2 0.86786 7.65628 14.6808
61 5 5.84188 0.722691 13.7543
62 5 8.4619 9.00595 11.8706
63 5 6.35827 5.60162 16.1287
64 5 7.95561 4.09112 9.49308
65 5 7.97304 0.3205 14.2923
66 5 6.31152 9.38799 11.2773
67 5 4.24575 5.14537 15.5928
68 5 1.15229 4.54635 10.0393
69 3 3.95605 7.73898 10.7416
70 3 1.47799 1.9383 14.8445
71 3 3.54785 2.90237 10.5869
72 3 1.85829 6.81682 15.006
73 3 1.92858 7.17709 11.2577
74 3 3.43826 2.50494 14.3059
75 3 5.54676 2.36596 10.007
76 3 8.77225 7.35932 15.529
77 6 6.99212 0.320397 13.4958
78 6 7.26766 9.3646 12.1081
79 6 5.19805 5.2022 16.3177
80 6 9.12125 4.54183 9.25808
81 4 4.80271 7.76727 10.1851
82 4 9.44414 1.91373 15.3594
83 4 2.58049 2.99208 11.1755
84 4 2.76459 6.7645 14.3848
85 4 0.97582 6.67804 11.2448
86 4 4.37818 2.90794 14.2973
87 4 6.47353 1.75938 10.0492
88 4 7.86535 7.78741 15.6175
89 1 8.65095 10.2326 3.74815
90 1 5.03408 18.8425 4.77692
91 1 7.09974 15.0753 0.527642
92 1 6.59152 13.993 8.01586
93 2 7.70016 18.2919 3.15359
94 2 6.005 10.8196 5.38191
95 2 8.08949 13.4153 1.08483
96 2 5.60091 15.6556 7.3692
97 2 6.40514 17.9635 3.4892
98 2 7.29376 11.1716 5.00829
99 2 0.435465 13.07 0.749704
100 2 4.34302 16.0513 7.7819
101 2 7.10565 16.5516 1.88404
102 2 6.61722 12.5254 6.60263
103 2 8.63319 11.7075 2.36893
104 2 5.00494 17.3629 6.18699
105 5 1.11843 10.4387 5.22507
106 5 3.65987 18.6892 3.30196
107 5 1.60589 15.289 7.57085
108 5 3.19285 13.8169 0.960594
109 5 3.21049 10.017 5.80709
110 5 1.52362 19.0649 2.74056
111 5 8.3714 14.8551 7.01593
112 5 5.29398 14.2368 1.5084
113 3 8.06757 17.4567 2.19932
114 3 5.63935 11.639 6.33895
115 3 7.69057 12.5976 2.08035
116 3 5.97426 16.4508 6.44148
117 3 6.09223 16.8761 2.77279
118 3 7.62612 12.1976 5.79794
119 3 0.71532 12.0165 1.54258
120 3 4.01332 17.0585 6.97014
121 6 2.27541 10.0265 4.98348
122 6 2.54337 19.0877 3.51678
123 6 0.41353 14.8604 7.84755
124 6 4.32203 14.2395 0.723223
125 4 0.147387 17.3687 1.73046
126 4 4.65476 11.6071 6.66868
127 4 6.71883 12.5335 2.63946
128 4 6.8971 16.3312 6.07784
129 4 5.21131 16.2571 2.70326
130 4 8.66967 12.8198 5.72021
131 4 1.69931 11.4382 1.4575
132 4 3.04192 17.6185 7.09379
133 1 4.49731 10.23 12.265
134 1 0.886568 18.835 13.3297
135 1 2.94598 15.0616 9.06039
136 1 2.43466 14.0015 16.5335
137 2 3.4887 18.2938 11.7067
138 2 1.8826 10.7855 13.9083
139 2 3.94314 13.4056 9.64117
140 2 1.49285 15.6511 15.9137
141 2 2.22365 17.9613 12.0516
142 2 3.14383 11.1349 13.5544
143 2 5.17706 13.0744 9.2911
144 2 9.11797 15.9966 16.3241
145 2 2.97286 16.5392 10.4251
146 2 2.439 12.5207 15.1288
147 2 4.53122 11.7307 10.899
148 2 0.843558 17.3937 14.7273
149 5 5.89386 10.4117 13.7554
150 5 8.47284 18.6654 11.8282
151 5 6.34766 15.2974 16.1117
152 5 7.96583 13.7999 9.47689
153 5 8.0071 10.0201 14.29
154 5 6.30848 19.0513 11.2919
155 5 4.27928 14.8846 15.5756
156 5 1.18248 14.1936 10.0397
157 3 3.97023 17.4046 10.7374
158 3 1.5068 11.6291 14.8837
159 3 3.5838 12.5758 10.6037
160 3 1.81571 16.4614 15.0166
161 3 1.93 16.8873 11.2553
162 3 3.44037 12.1971 14.3425
163 3 5.51792 12.0403 10.0372
164 3 8.8173 17.0338 15.568
165 6 7.03631 9.96231 13.4968
166 6 7.28306 19.0562 12.0984
167 6 5.24393 14.8339 16.3387
168 6 9.15025 14.2724 9.23143
169 4 4.89131 17.3793 10.1981
170 4 9.47823 11.665 15.4648
171 4 2.61706 12.705 11.23
172 4 2.76134 16.4824 14.569
173 4 1.00132 16.359 11.3867
174 4 4.45174 12.7194 14.1937
175 4 6.41045 11.5334 9.9944
176 4 7.81407 17.6003 15.5477
177 7 7.30954 13.3663 14.3492
178 8 6.79876 13.006 15.1048
179 8 6.84776 13.0125 13.5825
180 7 6.90873 15.5909 12.4741
181 8 6.87548 16.5297 12.7607
182 8 7.76399 15.2313 12.524
183 7 5.33592 4.9337 12.9091
184 8 4.39883 5.08163 12.883
185 8 5.64766 5.74081 13.3515
186 7 7.13267 5.69598 11.2935
187 8 7.67901 5.63403 12.0949
188 8 7.5286 6.27271 10.6505
189 7 2.98962 4.8693 4.49572
190 8 2.87827 5.80656 4.34783
191 8 2.16689 4.69239 4.07076
192 7 4.64551 2.87048 4.19713
193 8 4.37349 2.86901 3.29286
194 8 5.21794 3.54421 4.47199
ITEM: TIMESTEP
15
ITEM: NUMBER OF ATOMS
194
ITEM: BOX BOUNDS xy xz yz pp pp pp
-3.1176240839148051e-04 9.5445396580589481e+00 0.0000000000000000e+00
-6.7806517930435461e-04 1.9387677165179305e+01 6.3042769565055112e-01
-5.9677625818288504e-04 1.7063411876258186e+01 0.0000000000000000e+00
ITEM: ATOMS id type x y z
1 1 8.66695 0.538564 3.73555
2 1 5.01692 9.16014 4.78748
3 1 7.08851 5.3965 0.505262
4 1 6.58872 4.3024 8.01852
5 2 7.68296 8.59717 3.14864
6 2 6.0213 1.11354 5.41149
7 2 8.09215 3.72188 1.11356
8 2 5.6128 5.96173 7.41127
9 2 6.44632 8.23051 3.53324
10 2 7.33802 1.48814 4.9788
11 2 0.428269 3.40034 0.758217
12 2 4.35769 6.28681 7.82134
13 2 7.08769 6.86366 1.95142
14 2 6.60669 2.81856 6.62419
15 2 8.69874 1.99611 2.35008
16 2 4.99103 7.71092 6.15659
17 5 1.08511 0.759128 5.23077
18 5 3.69972 8.95181 3.30321
19 5 1.58528 5.61693 7.56321
20 5 3.15123 4.10604 0.998874
21 5 3.21401 0.316494 5.75674
22 5 1.54077 9.38851 2.76215
23 5 8.43722 5.13408 7.07489
24 5 5.27801 4.54249 1.5059
25 3 8.06406 7.73834 2.20564
26 3 5.60232 1.9216 6.36841
27 3 7.6853 2.90093 2.09247
28 3 5.98639 6.81397 6.43296
29 3 6.11677 7.15324 2.78371
30 3 7.55861 2.49109 5.7886
31 3 0.761334 2.3541 1.51861
32 3 3.99018 7.39978 7.00699
33 6 2.28719 0.329999 5.02176
34 6 2.50412 9.3705 3.551
35 6 0.413425 5.17655 7.80108
36 6 4.33446 4.52385 0.730887
37 4 0.207563 7.75607 1.76652
38 4 4.60222 1.83439 6.81095
39 4 6.69999 3.00628 2.45886
40 4 6.98911 6.83021 6.08624
41 4 5.12832 6.72407 2.80151
42 4 8.57579 2.84806 5.72693
43 4 1.68911 1.85283 1.48691
44 4 2.9966 7.94683 7.11571
45 1 4.5233 0.546523 12.2785
46 1 0.894153 9.15175 13.3079
47 1 2.96788 5.36897 9.04203
48 1 2.44554 4.30088 16.5403
49 2 3.52491 8.59685 11.7041
50 2 1.81731 1.09913 13.8637
51 2 3.93627 3.77011 9.68177
52 2 1.48484 5.97355 15.9487
53 2 2.23159 8.2285 11.9881
54 2 3.14302 1.40433 13.5785
55 2 5.25282 3.37808 9.28803
56 2 9.11361 6.32986 16.3361
57 2 2.92108 6.8617 10.4196
58 2 2.45338 2.87212 15.186
59 2 4.50556 1.95492 10.8752
60 2 0.866795 7.65469 14.6785
61 5 5.84015 0.721126 13.7541
62 5 8.46259 9.00998 11.873
63 5 6.35678 5.60247 16.1305
64 5 7.95723 4.09017 9.49294
65 5 7.97004 0.320777 14.2911
66 5 6.31226 9.38875 11.2768
67 5 4.24653 5.14417 15.5955
68 5 1.15106 4.54748 10.0391
69 3 3.95752 7.73786 10.7432
70 3 1.47809 1.93825 14.8428
71 3 3.54754 2.90192 10.5859
72 3 1.85869 6.81893 15.0072
73 3 1.92771 7.17611 11.256
74 3 3.43625 2.50482 14.3055
75 3 5.54765 2.36684 10.0049
76 3 8.77191 7.35952 15.528
77 6 6.98894 0.321614 13.4954
78 6 7.26726 9.3626 12.1091
79 6 5.19782 5.20568 16.3158
80 6 9.12155 4.54155 9.25928
81 4 4.80135 7.76529 10.1789
82 4 9.44504 1.91574 15.3599
83 4 2.58356 2.99374 11.1801
84 4 2.76013 6.76614 14.377
85 4 0.973776 6.67827 11.2395
86 4 4.38017 2.90216 14.2995
87 4 6.4726 1.75651 10.0505
88 4 7.86268 7.78552 15.619
89 1 8.6508 10.2321 3.74851
90 1 5.03419 18.8427 4.77606
91 1 7.0995 15.0745 0.52793
92 1 6.59216 13.9929 8.01638
93 2 7.70162 18.2928 3.15398
94 2 6.00504 10.8209 5.38172
95 2 8.09012 13.4141 1.08263
96 2 5.60022 15.656 7.36623
97 2 6.40479 17.9662 3.48825
98 2 7.29493 11.1727 5.00689
99 2 0.435673 13.0694 0.748749
100 2 4.34338 16.0548 7.78277
101 2 7.10642 16.5516 1.88202
102 2 6.61889 12.5255 6.60182
103 2 8.63111 11.7074 2.3703
104 2 5.00395 17.3624 6.18708
105 5 1.12019 10.4388 5.22493
106 5 3.65884 18.6924 3.30159
107 5 1.60544 15.2893 7.57098
108 5 3.19472 13.8183 0.960561
109 5 3.20827 10.0174 5.80913
110 5 1.52336 19.0645 2.73967
111 5 8.37137 14.8549 7.01582
112 5 5.29262 14.2377 1.50815
113 3 8.06774 17.4573 2.19962
114 3 5.641 11.6391 6.33867
115 3 7.69046 12.5975 2.08084
116 3 5.97233 16.4487 6.44054
117 3 6.09327 16.8754 2.77395
118 3 7.62852 12.198 5.79897
119 3 0.712549 12.0151 1.54426
120 3 4.01296 17.0595 6.96722
121 6 2.27576 10.0287 4.98427
122 6 2.5455 19.0882 3.51405
123 6 0.41266 14.8621 7.84861
124 6 4.32108 14.2398 0.72428
125 4 0.148593 17.36 1.73279
126 4 4.65235 11.611 6.66041
127 4 6.72006 12.5262 2.64325
128 4 6.89737 16.3264 6.08089
129 4 5.21486 16.2507 2.69905
130 4 8.67006 12.8228 5.7191
131 4 1.69494 11.4341 1.45673
132 4 3.04327 17.6221 7.09575
133 1 4.49629 10.2293 12.2644
134 1 0.886237 18.8347 13.3304
135 1 2.94487 15.0599 9.06082
136 1 2.43422 14.0021 16.5331
137 2 3.48559 18.2947 11.7084
138 2 1.8837 10.7843 13.908
139 2 3.94342 13.4038 9.64073
140 2 1.49439 15.6511 15.9119
141 2 2.22042 17.9636 12.0527
142 2 3.14452 11.1335 13.5541
143 2 5.17536 13.0741 9.29072
144 2 9.1187 15.9962 16.3258
145 2 2.97424 16.5382 10.4237
146 2 2.43823 12.5205 15.1277
147 2 4.5321 11.7322 10.9003
148 2 0.841178 17.395 14.7283
149 5 5.89588 10.4099 13.7552
150 5 8.47425 18.6671 11.8277
151 5 6.34558 15.2984 16.1125
152 5 7.96825 13.8003 9.47572
153 5 8.00663 10.0208 14.2886
154 5 6.30903 19.0499 11.2924
155 5 4.2826 14.8866 15.5773
156 5 1.18334 14.1915 10.0394
157 3 3.97299 17.4018 10.7387
158 3 1.50867 11.6287 14.8846
159 3 3.58568 12.5743 10.6037
160 3 1.81285 16.4605 15.0183
161 3 1.92937 16.8879 11.2536
162 3 3.43939 12.1969 14.3442
163 3 5.51656 12.0407 10.0366
164 3 8.81904 17.0334 15.5695
165 6 7.03593 9.96009 13.4967
166 6 7.28366 19.0542 12.0987
167 6 5.24647 14.8332 16.3377
168 6 9.15234 14.2745 9.23138
169 4 4.89303 17.3717 10.1949
170 4 9.48274 11.6703 15.4712
171 4 2.62412 12.7078 11.2379
172 4 2.75956 16.4866 14.5722
173 4 1.0015 16.3572 11.3905
174 4 4.45033 12.7194 14.1896
175 4 6.40932 11.5324 9.99309
176 4 7.81631 17.6004 15.5459
177 7 7.31181 13.3661 14.3497
178 8 6.80083 13.0086 15.1022
179 8 6.8389 13.0181 13.5871
180 7 6.90883 15.5908 12.475
181 8 6.87311 16.526 12.7592
182 8 7.76814 15.2346 12.5168
183 7 5.33538 4.93237 12.908
184 8 4.39913 5.08127 12.8881
185 8 5.64424 5.74727 13.3378
186 7 7.13372 5.69684 11.2947
187 8 7.67494 5.63628 12.0957
188 8 7.53293 6.26987 10.6518
189 7 2.98839 4.87097 4.49476
190 8 2.86475 5.80841 4.34594
191 8 2.16702 4.69838 4.06008
192 7 4.64629 2.87059 4.1961
193 8 4.379 2.85919 3.29124
194 8 5.21991 3.54324 4.47087
ITEM: TIMESTEP
16
ITEM: NUMBER OF ATOMS
194
ITEM: BOX BOUNDS xy xz yz pp pp pp
-3.5477746754342121e-04 9.5445887571646857e+00 0.0000000000000000e+00
-7.7162044129686080e-04 1.9387770720441296e+01 6.3043377969713832e-01
-6.7911577492729691e-04 1.7063494215774931e+01 0.0000000000000000e+00
ITEM: ATOMS id type x y z
1 1 8.66788 0.538007 3.73505
2 1 5.01589 9.16101 4.7874
3 1 7.08754 5.3967 0.504061
4 1 6.58915 4.3025 8.0192
5 2 7.6834 8.59798 3.14862
6 2 6.02292 1.11342 5.41333
7 2 8.09289 3.72085 1.11334
8 2 5.61322 5.96214 7.41105
9 2 6.44852 8.23032 3.53521
10 2 7.3415 1.48962 4.97573
11 2 0.428155 3.40126 0.757832
12 2 4.3587 6.28586 7.82447
13 2 7.08744 6.86357 1.95347
14 2 6.60733 2.81764 6.62504
15 2 8.7008 1.99492 2.3502
16 2 4.98905 7.71308 6.15488
17 5 1.08491 0.759983 5.23105
18 5 3.70078 8.95206 3.30311
19 5 1.58352 5.6186 7.56271
20 5 3.15063 4.10632 1.00131
21 5 3.21246 0.316452 5.75569
22 5 1.54149 9.38926 2.76267
23 5 8.44095 5.13213 7.07805
24 5 5.27581 4.54329 1.50556
25 3 8.06432 7.73762 2.20653
26 3 5.60149 1.92012 6.37063
27 3 7.68543 2.90068 2.09331
28 3 5.98546 6.81555 6.43159
29 3 6.11898 7.15111 2.78621
30 3 7.55618 2.49014 5.78871
31 3 0.761276 2.35488 1.51875
32 3 3.9886 7.40261 7.00684
33 6 2.28752 0.331773 5.02423
34 6 2.50463 9.36904 3.55044
35 6 0.413233 5.17839 7.80026
36 6 4.33359 4.52247 0.732132
37 4 0.208525 7.75121 1.77111
38 4 4.60024 1.83258 6.81102
39 4 6.69705 3.00672 2.45513
40 4 6.99253 6.8379 6.09187
41 4 5.12743 6.72624 2.80175
42 4 8.57743 2.83908 5.728
43 4 1.69011 1.85332 1.48723
44 4 2.99582 7.95068 7.11907
45 1 4.52407 0.546483 12.2788
46 1 0.894352 9.15205 13.3071
47 1 2.96829 5.36733 9.04122
48 1 2.44584 4.30089 16.5404
49 2 3.52418 8.59748 11.7055
50 2 1.81431 1.09852 13.8604
51 2 3.93671 3.77211 9.68378
52 2 1.48592 5.97467 15.949
53 2 2.22917 8.22847 11.9852
54 2 3.14343 1.40053 13.5798
55 2 5.25554 3.37803 9.28743
56 2 9.11388 6.3313 16.3384
57 2 2.9193 6.86185 10.4178
58 2 2.45348 2.87441 15.1884
59 2 4.50467 1.95135 10.8745
60 2 0.865714 7.65318 14.6762
61 5 5.83846 0.719542 13.7539
62 5 8.46322 9.01402 11.8754
63 5 6.35526 5.60332 16.1323
64 5 7.95893 4.08921 9.4928
65 5 7.967 0.321049 14.2898
66 5 6.31306 9.38951 11.2764
67 5 4.24728 5.14298 15.5981
68 5 1.14984 4.54861 10.0389
69 3 3.95885 7.73667 10.7449
70 3 1.47821 1.93826 14.8411
71 3 3.54721 2.90141 10.5849
72 3 1.85909 6.82106 15.0083
73 3 1.92686 7.17512 11.2542
74 3 3.43417 2.50467 14.305
75 3 5.5485 2.36757 10.0029
76 3 8.77166 7.35965 15.5269
77 6 6.9858 0.322824 13.4951
78 6 7.2669 9.36058 12.11
79 6 5.19763 5.2091 16.3141
80 6 9.12176 4.54125 9.26045
81 4 4.80079 7.7635 10.1724
82 4 9.44583 1.91775 15.3604
83 4 2.58712 2.99531 11.1844
84 4 2.75561 6.76765 14.3694
85 4 0.971589 6.67855 11.2342
86 4 4.38283 2.8967 14.3018
87 4 6.47161 1.75404 10.0514
88 4 7.85925 7.78421 15.6204
89 1 8.65065 10.2316 3.74887
90 1 5.0343 18.8429 4.77521
91 1 7.09927 15.0738 0.52821
92 1 6.5928 13.9929 8.0169
93 2 7.70309 18.2939 3.15438
94 2 6.0051 10.8221 5.3815
95 2 8.0907 13.413 1.08044
96 2 5.5995 15.6564 7.36333
97 2 6.40442 17.969 3.48733
98 2 7.29611 11.1738 5.00548
99 2 0.435919 13.0687 0.747785
100 2 4.34373 16.0582 7.78364
101 2 7.10717 16.5516 1.88003
102 2 6.62053 12.5256 6.60107
103 2 8.62903 11.7073 2.37171
104 2 5.00301 17.3619 6.18708
105 5 1.122 10.4389 5.2248
106 5 3.65782 18.6956 3.30118
107 5 1.60489 15.2895 7.57111
108 5 3.1966 13.8197 0.960537
109 5 3.20603 10.0179 5.81113
110 5 1.52318 19.0641 2.73881
111 5 8.37139 14.8548 7.01578
112 5 5.29124 14.2386 1.50786
113 3 8.06791 17.4579 2.19987
114 3 5.64269 11.6393 6.33837
115 3 7.69032 12.5973 2.08136
116 3 5.97033 16.4467 6.43962
117 3 6.09439 16.8747 2.77501
118 3 7.63103 12.1984 5.79998
119 3 0.709841 12.0136 1.54592
120 3 4.01252 17.0605 6.96435
121 6 2.27608 10.0309 4.98506
122 6 2.5475 19.0889 3.51137
123 6 0.411894 14.8638 7.84954
124 6 4.32018 14.24 0.725321
125 4 0.149683 17.3514 1.73533
126 4 4.64954 11.6153 6.65252
127 4 6.72152 12.5192 2.64658
128 4 6.89843 16.3219 6.08326
129 4 5.2181 16.2447 2.69528
130 4 8.66916 12.825 5.71802
131 4 1.68998 11.4304 1.45603
132 4 3.0451 17.6256 7.09759
133 1 4.49527 10.2286 12.2638
134 1 0.885902 18.8343 13.3311
135 1 2.94376 15.0581 9.06125
136 1 2.43378 14.0027 16.5327
137 2 3.48257 18.2957 11.71
138 2 1.88477 10.7831 13.9077
139 2 3.94365 13.4022 9.64029
140 2 1.49588 15.6509 15.9102
141 2 2.21716 17.966 12.0539
142 2 3.14525 11.1322 13.5538
143 2 5.17375 13.0738 9.2903
144 2 9.11945 15.9957 16.3275
145 2 2.97561 16.5371 10.4222
146 2 2.43746 12.5205 15.1267
147 2 4.53301 11.7336 10.9017
148 2 0.838861 17.3963 14.7293
149 5 5.89795 10.408 13.755
150 5 8.47558 18.6688 11.8273
151 5 6.34349 15.2995 16.1132
152 5 7.97079 13.8007 9.47455
153 5 8.00612 10.0215 14.2872
154 5 6.30963 19.0486 11.293
155 5 4.28592 14.8887 15.579
156 5 1.18418 14.1895 10.039
157 3 3.97564 17.3991 10.7401
158 3 1.51051 11.6282 14.8856
159 3 3.58745 12.5729 10.6038
160 3 1.80996 16.4597 15.0198
161 3 1.92878 16.8885 11.2519
162 3 3.4385 12.1968 14.3459
163 3 5.51513 12.0411 10.036
164 3 8.82069 17.0332 15.571
165 6 7.03552 9.9579 13.4966
166 6 7.28428 19.0521 12.099
167 6 5.24897 14.8325 16.3367
168 6 9.15428 14.2765 9.23143
169 4 4.89504 17.3643 10.1919
170 4 9.48734 11.6754 15.4773
171 4 2.6319 12.7104 11.2453
172 4 2.7582 16.4908 14.5751
173 4 1.00163 16.3553 11.3941
174 4 4.4482 12.7192 14.1859
175 4 6.40881 11.5312 9.99168
176 4 7.81914 17.5999 15.5443
177 7 7.31407 13.3658 14.3502
178 8 6.80311 13.0114 15.0993
179 8 6.8301 13.0237 13.5918
180 7 6.90887 15.5907 12.4759
181 8 6.87099 16.5218 12.7575
182 8 7.77284 15.2379 12.5097
183 7 5.33483 4.93105 12.907
184 8 4.39921 5.08086 12.8932
185 8 5.6408 5.75349 13.3241
186 7 7.13476 5.69772 11.2959
187 8 7.67084 5.63861 12.0962
188 8 7.53751 6.26714 10.6532
189 7 2.98714 4.87266 4.4938
190 8 2.85157 5.81058 4.34426
191 8 2.16682 4.70378 4.04927
192 7 4.647 2.87068 4.19503
193 8 4.38461 2.84972 3.2894
194 8 5.22218 3.54281 4.46962
ITEM: TIMESTEP
17
ITEM: NUMBER OF ATOMS
194
ITEM: BOX BOUNDS xy xz yz pp pp pp
-4.0029141790398626e-04 9.5446407086046090e+00 0.0000000000000000e+00
-8.7061064691873469e-04 1.9387869710646918e+01 6.3044021718670151e-01
-7.6623867448155636e-04 1.7063581338674481e+01 0.0000000000000000e+00
ITEM: ATOMS id type x y z
1 1 8.66881 0.537445 3.73454
2 1 5.01487 9.16188 4.78731
3 1 7.08657 5.3969 0.50286
4 1 6.58959 4.3026 8.01988
5 2 7.68388 8.59884 3.14861
6 2 6.02464 1.1132 5.41512
7 2 8.09357 3.71989 1.11312
8 2 5.61367 5.96249 7.41084
9 2 6.45064 8.23013 3.53718
10 2 7.34489 1.49104 4.9727
11 2 0.428104 3.40217 0.757428
12 2 4.35963 6.28498 7.82753
13 2 7.08722 6.86338 1.95544
14 2 6.60791 2.81678 6.62596
15 2 8.70281 1.99369 2.35037
16 2 4.98709 7.7153 6.15314
17 5 1.0848 0.760804 5.23134
18 5 3.70173 8.95233 3.30301
19 5 1.58169 5.62025 7.56221
20 5 3.15012 4.10663 1.00373
21 5 3.21093 0.316402 5.75468
22 5 1.54223 9.39 2.76321
23 5 8.4446 5.13019 7.08113
24 5 5.27361 4.54409 1.50522
25 3 8.06464 7.73691 2.20741
26 3 5.60072 1.91865 6.37289
27 3 7.68565 2.90042 2.09412
28 3 5.98447 6.81713 6.43024
29 3 6.12119 7.14903 2.78875
30 3 7.55385 2.48919 5.78876
31 3 0.761194 2.35566 1.51888
32 3 3.98701 7.40536 7.00675
33 6 2.28769 0.333541 5.02655
34 6 2.50522 9.36756 3.54988
35 6 0.413236 5.18023 7.79958
36 6 4.33263 4.52109 0.733317
37 4 0.208778 7.74614 1.77582
38 4 4.59847 1.83104 6.81119
39 4 6.69392 3.00672 2.45179
40 4 6.99615 6.84578 6.0973
41 4 5.1265 6.72827 2.80192
42 4 8.57903 2.8305 5.7294
43 4 1.69145 1.85368 1.48743
44 4 2.99559 7.95427 7.12235
45 1 4.52483 0.546437 12.2791
46 1 0.894547 9.15235 13.3064
47 1 2.9687 5.36569 9.04042
48 1 2.44615 4.3009 16.5405
49 2 3.52348 8.59812 11.7068
50 2 1.81135 1.09787 13.8571
51 2 3.93722 3.77414 9.68574
52 2 1.48698 5.97573 15.9494
53 2 2.22673 8.22849 11.9824
54 2 3.14383 1.39671 13.5811
55 2 5.2582 3.37808 9.28679
56 2 9.11415 6.33273 16.3407
57 2 2.91757 6.86197 10.4159
58 2 2.45357 2.87667 15.1908
59 2 4.5038 1.94779 10.8737
60 2 0.864616 7.65173 14.6738
61 5 5.83681 0.717941 13.7536
62 5 8.46378 9.01808 11.8778
63 5 6.3537 5.60418 16.134
64 5 7.96071 4.08825 9.49264
65 5 7.96391 0.321316 14.2886
66 5 6.31389 9.39027 11.276
67 5 4.24802 5.1418 15.6007
68 5 1.14861 4.54975 10.0387
69 3 3.96003 7.73543 10.7465
70 3 1.47836 1.93833 14.8394
71 3 3.54684 2.90084 10.5841
72 3 1.8595 6.82323 15.0094
73 3 1.92602 7.1741 11.2524
74 3 3.43203 2.50449 14.3047
75 3 5.5493 2.36814 10.001
76 3 8.77151 7.35972 15.5259
77 6 6.98271 0.324024 13.4948
78 6 7.26657 9.35853 12.1108
79 6 5.1975 5.21247 16.3126
80 6 9.12188 4.54093 9.26158
81 4 4.801 7.76192 10.1657
82 4 9.44651 1.91974 15.3608
83 4 2.59116 2.99679 11.1884
84 4 2.75103 6.76902 14.362
85 4 0.969263 6.67888 11.2291
86 4 4.38612 2.89154 14.3042
87 4 6.47058 1.75198 10.0519
88 4 7.85509 7.78347 15.6216
89 1 8.6505 10.2311 3.74923
90 1 5.03441 18.8431 4.77435
91 1 7.09904 15.073 0.528485
92 1 6.59344 13.9928 8.01741
93 2 7.70455 18.2949 3.15482
94 2 6.00519 10.8233 5.38122
95 2 8.09123 13.4119 1.07826
96 2 5.59875 15.6566 7.3605
97 2 6.40402 17.9717 3.48642
98 2 7.2973 11.1749 5.00407
99 2 0.436202 13.068 0.746811
100 2 4.34406 16.0617 7.78451
101 2 7.10791 16.5516 1.87806
102 2 6.62215 12.5259 6.60038
103 2 8.62695 11.7071 2.37316
104 2 5.00213 17.3615 6.187
105 5 1.12384 10.439 5.22468
106 5 3.65682 18.6988 3.30073
107 5 1.60424 15.2896 7.57125
108 5 3.19848 13.8211 0.960525
109 5 3.20377 10.0183 5.81309
110 5 1.52306 19.0638 2.738
111 5 8.37146 14.8546 7.01579
112 5 5.28982 14.2395 1.50755
113 3 8.06809 17.4584 2.20004
114 3 5.64443 11.6395 6.33806
115 3 7.69018 12.5972 2.08191
116 3 5.96826 16.4446 6.4387
117 3 6.09559 16.874 2.77597
118 3 7.63365 12.1989 5.80098
119 3 0.707198 12.0121 1.54753
120 3 4.01202 17.0615 6.96154
121 6 2.27637 10.0331 4.98586
122 6 2.54936 19.0896 3.50874
123 6 0.411234 14.8656 7.85036
124 6 4.31933 14.2403 0.726343
125 4 0.150656 17.343 1.73809
126 4 4.64635 11.62 6.64502
127 4 6.72319 12.5125 2.64945
128 4 6.90027 16.3177 6.08496
129 4 5.22101 16.2392 2.69194
130 4 8.667 12.8264 5.71698
131 4 1.68442 11.427 1.45539
132 4 3.04741 17.629 7.09933
133 1 4.49424 10.2279 12.2632
134 1 0.885561 18.834 13.3318
135 1 2.94265 15.0564 9.06168
136 1 2.43334 14.0032 16.5323
137 2 3.47964 18.2967 11.7116
138 2 1.8858 10.7818 13.9074
139 2 3.94383 13.4006 9.63984
140 2 1.4973 15.6507 15.9086
141 2 2.21386 17.9683 12.055
142 2 3.14601 11.1309 13.5535
143 2 5.17222 13.0735 9.28984
144 2 9.12021 15.9952 16.3292
145 2 2.97696 16.536 10.4207
146 2 2.43671 12.5205 15.1258
147 2 4.53395 11.7349 10.9032
148 2 0.836609 17.3977 14.7303
149 5 5.90006 10.4061 13.7548
150 5 8.47683 18.6705 11.8268
151 5 6.34141 15.3006 16.114
152 5 7.97342 13.8012 9.47337
153 5 8.00559 10.0222 14.2858
154 5 6.31027 19.0472 11.2937
155 5 4.28925 14.8907 15.5807
156 5 1.185 14.1874 10.0386
157 3 3.97818 17.3963 10.7415
158 3 1.51233 11.6277 14.8865
159 3 3.58912 12.5715 10.6039
160 3 1.80705 16.459 15.0213
161 3 1.92824 16.8892 11.2502
162 3 3.43768 12.1966 14.3474
163 3 5.51364 12.0415 10.0355
164 3 8.82223 17.033 15.5725
165 6 7.0351 9.95574 13.4966
166 6 7.28492 19.0501 12.0991
167 6 5.25143 14.8318 16.3357
168 6 9.15609 14.2784 9.23157
169 4 4.89733 17.3571 10.189
170 4 9.49201 11.6803 15.483
171 4 2.64037 12.7129 11.2523
172 4 2.75725 16.4951 14.5779
173 4 1.00173 16.3532 11.3977
174 4 4.44535 12.7189 14.1824
175 4 6.40892 11.5298 9.99016
176 4 7.82255 17.5989 15.543
177 7 7.31633 13.3655 14.3507
178 8 6.80556 13.0144 15.0962
179 8 6.82137 13.0295 13.5965
180 7 6.90887 15.5906 12.4767
181 8 6.8691 16.5173 12.7557
182 8 7.77801 15.2411 12.5027
183 7 5.3343 4.92974 12.906
184 8 4.39905 5.0804 12.8982
185 8 5.63736 5.75946 13.3102
186 7 7.13577 5.69861 11.2972
187 8 7.66676 5.641 12.0964
188 8 7.54237 6.2645 10.6547
189 7 2.98589 4.87438 4.49282
190 8 2.83877 5.81305 4.34283
191 8 2.16634 4.70854 4.03835
192 7 4.64764 2.87074 4.19391
193 8 4.39033 2.84061 3.28732
194 8 5.22473 3.5429 4.46823
ITEM: TIMESTEP
18
ITEM: NUMBER OF ATOMS
194
ITEM: BOX BOUNDS xy xz yz pp pp pp
-4.4823675297056553e-04 9.5446954353241011e+00 0.0000000000000000e+00
-9.7488897343822600e-04 1.9387973988973435e+01 6.3044699857112663e-01
-8.5801573575672307e-04 1.7063673115735753e+01 0.0000000000000000e+00
ITEM: ATOMS id type x y z
1 1 8.66975 0.53688 3.73402
2 1 5.01385 9.16275 4.78722
3 1 7.08561 5.39709 0.501657
4 1 6.59004 4.30269 8.02057
5 2 7.68441 8.59975 3.14862
6 2 6.02645 1.11288 5.41687
7 2 8.09421 3.71899 1.11288
8 2 5.61415 5.9628 7.41065
9 2 6.4527 8.22992 3.53915
10 2 7.34817 1.4924 4.96971
11 2 0.428115 3.40308 0.757006
12 2 4.36049 6.28419 7.83052
13 2 7.08703 6.8631 1.95733
14 2 6.60842 2.81597 6.62695
15 2 8.70475 1.99242 2.35058
16 2 4.98516 7.71757 6.15138
17 5 1.0848 0.76159 5.23165
18 5 3.70259 8.95263 3.30291
19 5 1.57978 5.62188 7.5617
20 5 3.14969 4.10697 1.00614
21 5 3.20945 0.316343 5.7537
22 5 1.543 9.39074 2.76378
23 5 8.44817 5.12823 7.08413
24 5 5.27141 4.5449 1.50486
25 3 8.065 7.73623 2.20828
26 3 5.60001 1.91719 6.37519
27 3 7.68596 2.90015 2.09487
28 3 5.98342 6.81869 6.42892
29 3 6.12339 7.147 2.79133
30 3 7.55161 2.48823 5.78875
31 3 0.761093 2.35644 1.51902
32 3 3.98543 7.40803 7.00674
33 6 2.28768 0.335298 5.02873
34 6 2.50591 9.36606 3.54932
35 6 0.413438 5.18208 7.79904
36 6 4.33157 4.51971 0.734439
37 4 0.208337 7.74086 1.78066
38 4 4.59691 1.82977 6.81147
39 4 6.69063 3.00627 2.44883
40 4 6.99995 6.85386 6.10252
41 4 5.12554 6.73016 2.80204
42 4 8.58057 2.82231 5.73114
43 4 1.6931 1.85393 1.48753
44 4 2.99591 7.95759 7.12555
45 1 4.52559 0.546384 12.2794
46 1 0.894738 9.15265 13.3056
47 1 2.96912 5.36405 9.03961
48 1 2.44646 4.30091 16.5406
49 2 3.5228 8.59877 11.7082
50 2 1.80843 1.09718 13.8538
51 2 3.93781 3.77618 9.68763
52 2 1.48802 5.97674 15.9498
53 2 2.22427 8.22855 11.9797
54 2 3.14421 1.3929 13.5823
55 2 5.2608 3.37821 9.28612
56 2 9.11441 6.33415 16.3429
57 2 2.9159 6.86207 10.414
58 2 2.45363 2.87892 15.1931
59 2 4.50296 1.94426 10.8729
60 2 0.8635 7.65036 14.6715
61 5 5.83518 0.716322 13.7534
62 5 8.46427 9.02215 11.8802
63 5 6.35212 5.60505 16.1356
64 5 7.96257 4.08729 9.49247
65 5 7.96079 0.32158 14.2873
66 5 6.31477 9.39104 11.2757
67 5 4.24873 5.14063 15.6033
68 5 1.14738 4.55089 10.0385
69 3 3.96108 7.73414 10.7482
70 3 1.47854 1.93845 14.8378
71 3 3.54645 2.9002 10.5833
72 3 1.85991 6.82543 15.0104
73 3 1.92519 7.17306 11.2506
74 3 3.42984 2.5043 14.3043
75 3 5.55006 2.36856 9.99934
76 3 8.77144 7.35972 15.5249
77 6 6.97968 0.325213 13.4946
78 6 7.26629 9.35646 12.1116
79 6 5.19741 5.21577 16.3113
80 6 9.12192 4.54059 9.26267
81 4 4.80194 7.76055 10.1587
82 4 9.44709 1.92172 15.3611
83 4 2.59565 2.99819 11.192
84 4 2.74639 6.77022 14.355
85 4 0.966805 6.67927 11.2239
86 4 4.39002 2.88666 14.3067
87 4 6.46951 1.75034 10.052
88 4 7.85024 7.78329 15.6227
89 1 8.65035 10.2306 3.74959
90 1 5.03451 18.8433 4.7735
91 1 7.0988 15.0722 0.528752
92 1 6.59408 13.9928 8.01793
93 2 7.706 18.2961 3.15528
94 2 6.00531 10.8244 5.38091
95 2 8.09171 13.4109 1.07609
96 2 5.59796 15.6568 7.35774
97 2 6.40359 17.9745 3.48553
98 2 7.29849 11.1759 5.00266
99 2 0.436523 13.0673 0.745828
100 2 4.34437 16.065 7.78537
101 2 7.10864 16.5515 1.87611
102 2 6.62374 12.5262 6.59974
103 2 8.62488 11.7068 2.37464
104 2 5.00131 17.3612 6.18682
105 5 1.12572 10.4391 5.22456
106 5 3.65584 18.702 3.30024
107 5 1.60348 15.2898 7.57141
108 5 3.20037 13.8226 0.960524
109 5 3.20148 10.0188 5.81501
110 5 1.52302 19.0634 2.73723
111 5 8.37157 14.8545 7.01587
112 5 5.28838 14.2404 1.50722
113 3 8.06828 17.4589 2.20015
114 3 5.6462 11.6396 6.33773
115 3 7.69003 12.597 2.08248
116 3 5.96613 16.4427 6.43779
117 3 6.09687 16.8732 2.77683
118 3 7.63637 12.1995 5.80195
119 3 0.70462 12.0106 1.54911
120 3 4.01144 17.0626 6.95879
121 6 2.27663 10.0353 4.98666
122 6 2.55108 19.0903 3.50618
123 6 0.410681 14.8674 7.85105
124 6 4.31854 14.2406 0.727342
125 4 0.151512 17.3348 1.74109
126 4 4.6428 11.6251 6.63789
127 4 6.72506 12.5061 2.65183
128 4 6.90284 16.314 6.08599
129 4 5.2236 16.234 2.68906
130 4 8.6636 12.8271 5.71597
131 4 1.67829 11.4239 1.45482
132 4 3.05019 17.6323 7.10095
133 1 4.49322 10.2272 12.2626
134 1 0.885215 18.8336 13.3325
135 1 2.94154 15.0546 9.06211
136 1 2.43291 14.0038 16.5318
137 2 3.47679 18.2978 11.7131
138 2 1.88679 10.7805 13.9071
139 2 3.94394 13.399 9.6394
140 2 1.49866 15.6504 15.9071
141 2 2.21052 17.9706 12.0561
142 2 3.1468 11.1295 13.5532
143 2 5.17079 13.0733 9.28934
144 2 9.12099 15.9947 16.3309
145 2 2.9783 16.5348 10.4193
146 2 2.43595 12.5206 15.125
147 2 4.53492 11.7361 10.9047
148 2 0.834427 17.399 14.7313
149 5 5.9022 10.4042 13.7546
150 5 8.478 18.6723 11.8264
151 5 6.33933 15.3017 16.1148
152 5 7.97616 13.8017 9.47219
153 5 8.00504 10.0229 14.2844
154 5 6.31096 19.0459 11.2944
155 5 4.29258 14.8927 15.5824
156 5 1.18581 14.1854 10.0382
157 3 3.98062 17.3936 10.7429
158 3 1.51411 11.6273 14.8875
159 3 3.59069 12.5702 10.6041
160 3 1.80412 16.4584 15.0227
161 3 1.92773 16.8899 11.2485
162 3 3.43696 12.1964 14.3489
163 3 5.5121 12.0418 10.035
164 3 8.82366 17.033 15.574
165 6 7.03465 9.95362 13.4967
166 6 7.28558 19.048 12.0992
167 6 5.25384 14.8311 16.3348
168 6 9.15775 14.2803 9.2318
169 4 4.89989 17.3503 10.1861
170 4 9.49675 11.6849 15.4883
171 4 2.64951 12.7152 11.2588
172 4 2.75671 16.4994 14.5805
173 4 1.00182 16.351 11.4011
174 4 4.44178 12.7186 14.1792
175 4 6.40961 11.5281 9.98852
176 4 7.8265 17.5974 15.5419
177 7 7.31858 13.3652 14.3512
178 8 6.80816 13.0174 15.093
179 8 6.81272 13.0353 13.6012
180 7 6.90883 15.5906 12.4776
181 8 6.86745 16.5124 12.7538
182 8 7.78359 15.2445 12.4959
183 7 5.33376 4.92844 12.905
184 8 4.39863 5.07987 12.9032
185 8 5.63394 5.76518 13.2962
186 7 7.13676 5.69951 11.2984
187 8 7.66273 5.64345 12.0963
188 8 7.54749 6.26198 10.6561
189 7 2.98462 4.87613 4.49183
190 8 2.82636 5.8158 4.34166
191 8 2.16564 4.71268 4.02736
192 7 4.64822 2.87079 4.19276
193 8 4.39617 2.83186 3.285
194 8 5.22755 3.54349 4.46669
ITEM: TIMESTEP
19
ITEM: NUMBER OF ATOMS
194
ITEM: BOX BOUNDS xy xz yz pp pp pp
-4.9854809387817056e-04 9.5447528626971145e+00 0.0000000000000000e+00
-1.0843132256113108e-03 1.9388083413225608e+01 6.3045411460323209e-01
-9.5432181039178943e-04 1.7063769421810388e+01 0.0000000000000000e+00
ITEM: ATOMS id type x y z
1 1 8.6707 0.536311 3.73351
2 1 5.01283 9.16362 4.78714
3 1 7.08464 5.39728 0.500455
4 1 6.59049 4.30278 8.02125
5 2 7.68497 8.6007 3.14864
6 2 6.02837 1.11245 5.41856
7 2 8.09479 3.71815 1.11264
8 2 5.61465 5.96306 7.41047
9 2 6.45468 8.22971 3.54112
10 2 7.35134 1.49369 4.96676
11 2 0.42819 3.40398 0.756565
12 2 4.36129 6.28349 7.83343
13 2 7.08687 6.86273 1.95913
14 2 6.60886 2.8152 6.62803
15 2 8.70663 1.99111 2.35084
16 2 4.98326 7.7199 6.14959
17 5 1.08489 0.762343 5.23197
18 5 3.70335 8.95296 3.3028
19 5 1.57781 5.62348 7.56118
20 5 3.14934 4.10732 1.00855
21 5 3.208 0.316276 5.75278
22 5 1.54379 9.39149 2.76436
23 5 8.45166 5.12627 7.08705
24 5 5.26921 4.54571 1.5045
25 3 8.06542 7.73556 2.20913
26 3 5.59936 1.91572 6.37753
27 3 7.68634 2.89987 2.09559
28 3 5.98232 6.82024 6.42763
29 3 6.12557 7.14502 2.79396
30 3 7.54947 2.48728 5.78868
31 3 0.760974 2.35722 1.51916
32 3 3.98384 7.4106 7.0068
33 6 2.28751 0.337044 5.03074
34 6 2.50668 9.36455 3.54876
35 6 0.41384 5.18394 7.79865
36 6 4.33042 4.51834 0.735491
37 4 0.207226 7.73539 1.78561
38 4 4.59556 1.82878 6.81186
39 4 6.6872 3.00536 2.44627
40 4 7.00389 6.86213 6.10754
41 4 5.12457 6.73191 2.80209
42 4 8.58204 2.81453 5.73323
43 4 1.69505 1.85407 1.48753
44 4 2.99678 7.96067 7.12866
45 1 4.52634 0.546324 12.2798
46 1 0.894925 9.15295 13.3048
47 1 2.96953 5.36241 9.03881
48 1 2.44676 4.30092 16.5407
49 2 3.52214 8.59944 11.7095
50 2 1.80555 1.09646 13.8505
51 2 3.93847 3.77825 9.68948
52 2 1.48903 5.97768 15.9502
53 2 2.2218 8.22866 11.977
54 2 3.14458 1.38909 13.5836
55 2 5.26333 3.37843 9.28541
56 2 9.11467 6.33556 16.3451
57 2 2.9143 6.86214 10.412
58 2 2.45368 2.88114 15.1955
59 2 4.50215 1.94077 10.8721
60 2 0.862367 7.64906 14.669
61 5 5.83359 0.714687 13.7532
62 5 8.4647 9.02624 11.8825
63 5 6.35051 5.60592 16.1373
64 5 7.96452 4.08633 9.49228
65 5 7.95762 0.321841 14.286
66 5 6.3157 9.3918 11.2754
67 5 4.24942 5.13946 15.6058
68 5 1.14615 4.55204 10.0383
69 3 3.96197 7.73278 10.7499
70 3 1.47874 1.93864 14.8363
71 3 3.54604 2.89949 10.5826
72 3 1.86034 6.82766 15.0115
73 3 1.92438 7.172 11.2488
74 3 3.42759 2.50409 14.3039
75 3 5.55077 2.36881 9.99781
76 3 8.77145 7.35965 15.524
77 6 6.9767 0.326387 13.4943
78 6 7.26605 9.35437 12.1123
79 6 5.19737 5.21901 16.3101
80 6 9.12187 4.54023 9.26371
81 4 4.80357 7.75942 10.1515
82 4 9.44756 1.92368 15.3614
83 4 2.60059 2.99952 11.1952
84 4 2.74169 6.77124 14.3482
85 4 0.964224 6.67974 11.2189
86 4 4.39449 2.88206 14.3093
87 4 6.4684 1.74912 10.0518
88 4 7.84474 7.78365 15.6237
89 1 8.65021 10.2301 3.74994
90 1 5.03462 18.8436 4.77264
91 1 7.09858 15.0715 0.529014
92 1 6.59472 13.9928 8.01844
93 2 7.70745 18.2972 3.15577
94 2 6.00546 10.8255 5.38054
95 2 8.09213 13.41 1.07393
96 2 5.59714 15.6568 7.35507
97 2 6.40313 17.9773 3.48465
98 2 7.2997 11.177 5.00126
99 2 0.436881 13.0666 0.74484
100 2 4.34467 16.0684 7.78622
101 2 7.10935 16.5515 1.8742
102 2 6.6253 12.5265 6.59915
103 2 8.62282 11.7064 2.37615
104 2 5.00056 17.361 6.18655
105 5 1.12764 10.4391 5.22446
106 5 3.6549 18.7051 3.2997
107 5 1.60262 15.2899 7.57157
108 5 3.20226 13.824 0.960536
109 5 3.19918 10.0192 5.81688
110 5 1.52306 19.0631 2.7365
111 5 8.37173 14.8543 7.01601
112 5 5.28691 14.2413 1.50686
113 3 8.06847 17.4594 2.20019
114 3 5.64801 11.6398 6.33739
115 3 7.68986 12.5968 2.08308
116 3 5.96393 16.4407 6.43687
117 3 6.09823 16.8724 2.77758
118 3 7.63919 12.2001 5.80291
119 3 0.702107 12.0091 1.55065
120 3 4.01079 17.0636 6.95611
121 6 2.27686 10.0375 4.98745
122 6 2.55263 19.0911 3.50369
123 6 0.410234 14.8693 7.85163
124 6 4.31781 14.241 0.728312
125 4 0.152252 17.3268 1.74432
126 4 4.63894 11.6306 6.63112
127 4 6.72712 12.5 2.65372
128 4 6.90612 16.3107 6.08636
129 4 5.22588 16.2293 2.68665
130 4 8.65902 12.827 5.71499
131 4 1.6716 11.4212 1.45432
132 4 3.05344 17.6355 7.10245
133 1 4.4922 10.2265 12.262
134 1 0.884863 18.8333 13.3332
135 1 2.94043 15.0529 9.06254
136 1 2.43247 14.0044 16.5314
137 2 3.47403 18.2988 11.7146
138 2 1.88774 10.7792 13.9068
139 2 3.944 13.3976 9.63896
140 2 1.49995 15.65 15.9057
141 2 2.20715 17.9728 12.0572
142 2 3.14762 11.1282 13.553
143 2 5.16945 13.073 9.28879
144 2 9.12179 15.9942 16.3326
145 2 2.97961 16.5337 10.4178
146 2 2.43521 12.5208 15.1242
147 2 4.53593 11.7373 10.9062
148 2 0.832314 17.4004 14.7322
149 5 5.90438 10.4023 13.7544
150 5 8.47909 18.6742 11.826
151 5 6.33727 15.3028 16.1155
152 5 7.979 13.8023 9.47101
153 5 8.00447 10.0236 14.2829
154 5 6.3117 19.0445 11.2951
155 5 4.29591 14.8947 15.5841
156 5 1.1866 14.1834 10.0377
157 3 3.98295 17.3908 10.7444
158 3 1.51587 11.6269 14.8885
159 3 3.59216 12.5688 10.6043
160 3 1.80117 16.458 15.024
161 3 1.92725 16.8907 11.2468
162 3 3.43631 12.1961 14.3503
163 3 5.5105 12.0422 10.0345
164 3 8.82499 17.0329 15.5755
165 6 7.03419 9.95154 13.4969
166 6 7.28625 19.0459 12.0993
167 6 5.2562 14.8303 16.3339
168 6 9.15926 14.282 9.23212
169 4 4.90269 17.3437 10.1835
170 4 9.50154 11.6893 15.4932
171 4 2.6593 12.7174 11.2648
172 4 2.75655 16.5037 14.583
173 4 1.00192 16.3487 11.4043
174 4 4.43751 12.7182 14.1764
175 4 6.41087 11.5262 9.98679
176 4 7.83097 17.5954 15.5411
177 7 7.32083 13.3649 14.3517
178 8 6.81088 13.0205 15.0897
179 8 6.80417 13.0412 13.6059
180 7 6.90875 15.5906 12.4785
181 8 6.86603 16.5074 12.7519
182 8 7.78949 15.2479 12.4892
183 7 5.33324 4.92715 12.904
184 8 4.39794 5.07926 12.9082
185 8 5.63055 5.77066 13.2821
186 7 7.13773 5.70042 11.2997
187 8 7.65881 5.64595 12.0961
188 8 7.55289 6.25957 10.6576
189 7 2.98332 4.87792 4.49082
190 8 2.81437 5.8188 4.34076
191 8 2.16479 4.71616 4.01632
192 7 4.64873 2.87083 4.19156
193 8 4.40213 2.82347 3.28244
194 8 5.23062 3.54456 4.46497
ITEM: TIMESTEP
20
ITEM: NUMBER OF ATOMS
194
ITEM: BOX BOUNDS xy xz yz pp pp pp
-5.5116259426313263e-04 9.5448129189883009e+00 0.0000000000000000e+00
-1.1987467162324350e-03 1.9388197846716228e+01 6.3046155639403290e-01
-1.0550365977444187e-03 1.7063870136597743e+01 0.0000000000000000e+00
ITEM: ATOMS id type x y z
1 1 8.67164 0.535739 3.73299
2 1 5.01181 9.16449 4.78705
3 1 7.08368 5.39746 0.499252
4 1 6.59094 4.30287 8.02194
5 2 7.68557 8.6017 3.14868
6 2 6.03038 1.11193 5.42021
7 2 8.09532 3.71738 1.11239
8 2 5.61517 5.96327 7.4103
9 2 6.4566 8.22948 3.54309
10 2 7.35439 1.49492 4.96386
11 2 0.428329 3.40488 0.756108
12 2 4.36201 6.28289 7.83627
13 2 7.08675 6.86226 1.96085
14 2 6.60923 2.81449 6.62918
15 2 8.70843 1.98977 2.35115
16 2 4.98138 7.72228 6.14777
17 5 1.08508 0.763062 5.23231
18 5 3.70401 8.95331 3.30268
19 5 1.57576 5.62507 7.56065
20 5 3.14907 4.1077 1.01095
21 5 3.2066 0.316201 5.7519
22 5 1.54461 9.39223 2.76495
23 5 8.45505 5.1243 7.08989
24 5 5.26701 4.54653 1.50413
25 3 8.06588 7.73491 2.20998
26 3 5.59877 1.91427 6.3799
27 3 7.68682 2.89959 2.09625
28 3 5.98117 6.82179 6.42636
29 3 6.12775 7.14309 2.79664
30 3 7.54744 2.48632 5.78855
31 3 0.760841 2.35799 1.51929
32 3 3.98227 7.41308 7.00694
33 6 2.28717 0.338774 5.03257
34 6 2.50754 9.36302 3.54821
35 6 0.414444 5.1858 7.79842
36 6 4.32917 4.51697 0.736469
37 4 0.205476 7.72972 1.79066
38 4 4.59441 1.82805 6.81236
39 4 6.68367 3.00398 2.44407
40 4 7.00795 6.87059 6.11239
41 4 5.1236 6.73352 2.80208
42 4 8.58343 2.80717 5.73569
43 4 1.69729 1.85411 1.48741
44 4 2.99818 7.96351 7.13168
45 1 4.5271 0.546257 12.2801
46 1 0.895108 9.15324 13.304
47 1 2.96994 5.36076 9.03801
48 1 2.44707 4.30092 16.5408
49 2 3.52151 8.60011 11.7108
50 2 1.80271 1.0957 13.8472
51 2 3.93922 3.78034 9.69126
52 2 1.49001 5.97855 15.9507
53 2 2.21932 8.22882 11.9743
54 2 3.14493 1.38528 13.5849
55 2 5.26579 3.37875 9.28466
56 2 9.11493 6.33697 16.3473
57 2 2.91275 6.86218 10.4101
58 2 2.4537 2.88334 15.1978
59 2 4.50137 1.93731 10.8712
60 2 0.861215 7.64783 14.6666
61 5 5.83202 0.713038 13.753
62 5 8.46507 9.03033 11.8849
63 5 6.34887 5.6068 16.1388
64 5 7.96653 4.08537 9.49209
65 5 7.95441 0.3221 14.2846
66 5 6.31666 9.39257 11.2752
67 5 4.25008 5.13831 15.6083
68 5 1.14493 4.55318 10.0381
69 3 3.96273 7.73137 10.7516
70 3 1.47896 1.9389 14.8348
71 3 3.54561 2.89872 10.582
72 3 1.86077 6.82993 15.0124
73 3 1.92357 7.17091 11.247
74 3 3.42529 2.50385 14.3036
75 3 5.55142 2.3689 9.99644
76 3 8.77153 7.35953 15.5231
77 6 6.97379 0.327544 13.4942
78 6 7.26584 9.35225 12.1129
79 6 5.19737 5.22217 16.3092
80 6 9.12175 4.53987 9.26469
81 4 4.80585 7.75854 10.1442
82 4 9.44793 1.92561 15.3616
83 4 2.60594 3.00078 11.1981
84 4 2.73692 6.77208 14.3417
85 4 0.961527 6.68029 11.2139
86 4 4.39948 2.87771 14.3119
87 4 6.46728 1.74832 10.0511
88 4 7.83865 7.78453 15.6245
89 1 8.65007 10.2296 3.7503
90 1 5.03473 18.8438 4.77178
91 1 7.09835 15.0707 0.529269
92 1 6.59536 13.9928 8.01895
93 2 7.70889 18.2985 3.15628
94 2 6.00565 10.8265 5.38013
95 2 8.09249 13.4091 1.07178
96 2 5.59629 15.6568 7.35248
97 2 6.40265 17.98 3.48379
98 2 7.3009 11.178 4.99987
99 2 0.437277 13.0659 0.743845
100 2 4.34496 16.0717 7.78706
101 2 7.11005 16.5514 1.87232
102 2 6.62683 12.527 6.59862
103 2 8.62077 11.706 2.3777
104 2 4.99987 17.3609 6.18618
105 5 1.12958 10.4392 5.22436
106 5 3.65398 18.7083 3.29912
107 5 1.60166 15.29 7.57175
108 5 3.20415 13.8255 0.960561
109 5 3.19686 10.0196 5.81872
110 5 1.52316 19.0627 2.73581
111 5 8.37194 14.8541 7.01622
112 5 5.28542 14.2422 1.50648
113 3 8.06866 17.4597 2.20017
114 3 5.64984 11.6399 6.33705
115 3 7.68968 12.5966 2.08371
116 3 5.96168 16.4388 6.43595
117 3 6.09967 16.8715 2.77823
118 3 7.64211 12.2007 5.80384
119 3 0.699658 12.0076 1.55214
120 3 4.01006 17.0646 6.9535
121 6 2.27707 10.0397 4.98824
122 6 2.55403 19.092 3.50127
123 6 0.409893 14.8713 7.85208
124 6 4.31715 14.2413 0.729249
125 4 0.152881 17.319 1.7478
126 4 4.6348 11.6365 6.6247
127 4 6.72934 12.4943 2.65511
128 4 6.91003 16.3077 6.08609
129 4 5.22786 16.225 2.68472
130 4 8.65332 12.8262 5.71403
131 4 1.66439 11.4187 1.45389
132 4 3.05715 17.6387 7.10382
133 1 4.49118 10.2258 12.2614
134 1 0.884506 18.833 13.3339
135 1 2.93932 15.0512 9.06297
136 1 2.43204 14.005 16.531
137 2 3.47136 18.2999 11.716
138 2 1.88866 10.7778 13.9065
139 2 3.944 13.3962 9.63851
140 2 1.50116 15.6494 15.9045
141 2 2.20375 17.975 12.0583
142 2 3.14847 11.127 13.5527
143 2 5.16821 13.0728 9.2882
144 2 9.12262 15.9936 16.3342
145 2 2.9809 16.5324 10.4163
146 2 2.43448 12.5211 15.1235
147 2 4.53696 11.7383 10.9078
148 2 0.830275 17.4018 14.7332
149 5 5.9066 10.4004 13.7542
150 5 8.4801 18.676 11.8256
151 5 6.33523 15.304 16.1163
152 5 7.98195 13.8029 9.46983
153 5 8.00388 10.0242 14.2814
154 5 6.31249 19.0432 11.2959
155 5 4.29924 14.8967 15.5858
156 5 1.18737 14.1814 10.0372
157 3 3.98516 17.3881 10.7459
158 3 1.5176 11.6264 14.8895
159 3 3.59352 12.5675 10.6045
160 3 1.79821 16.4577 15.0252
161 3 1.92682 16.8915 11.2452
162 3 3.43575 12.1958 14.3516
163 3 5.50885 12.0426 10.034
164 3 8.82622 17.033 15.5769
165 6 7.03371 9.94949 13.4971
166 6 7.28693 19.0438 12.0993
167 6 5.2585 14.8295 16.3331
168 6 9.16064 14.2837 9.23252
169 4 4.90573 17.3374 10.181
170 4 0.591486 11.6934 15.4978
171 4 2.66971 12.7195 11.2703
172 4 2.75675 16.508 14.5854
173 4 1.00204 16.3462 11.4074
174 4 4.43256 12.7177 14.1738
175 4 6.41265 11.5241 9.98495
176 4 7.83592 17.5929 15.5406
177 7 7.32308 13.3646 14.3522
178 8 6.81367 13.0237 15.0865
179 8 6.79573 13.0472 13.6105
180 7 6.90864 15.5905 12.4793
181 8 6.86484 16.5023 12.75
182 8 7.79562 15.2514 12.4827
183 7 5.33271 4.92587 12.9031
184 8 4.39699 5.07855 12.9131
185 8 5.62722 5.7759 13.268
186 7 7.13867 5.70135 11.301
187 8 7.65502 5.64849 12.0959
188 8 7.55855 6.25727 10.6591
189 7 2.982 4.87974 4.4898
190 8 2.80281 5.82201 4.34018
191 8 2.16386 4.719 4.00525
192 7 4.64918 2.87084 4.19032
193 8 4.40821 2.81544 3.27963
194 8 5.23391 3.54606 4.46305
ITEM: TIMESTEP
21
ITEM: NUMBER OF ATOMS
194
ITEM: BOX BOUNDS xy xz yz pp pp pp
-6.0601993714026747e-04 9.5448755353494459e+00 0.0000000000000000e+00
-1.3180582593612655e-03 1.9388317158259355e+01 6.3046931541229989e-01
-1.1600446389170571e-03 1.7063975144638913e+01 0.0000000000000000e+00
ITEM: ATOMS id type x y z
1 1 8.67259 0.535164 3.73246
2 1 5.0108 9.16536 4.78696
3 1 7.08272 5.39764 0.498049
4 1 6.5914 4.30295 8.02263
5 2 7.68621 8.60274 3.14873
6 2 6.03249 1.11131 5.4218
7 2 8.09579 3.71667 1.11213
8 2 5.61572 5.96344 7.41015
9 2 6.45844 8.22925 3.54505
10 2 7.35732 1.49608 4.96102
11 2 0.428533 3.40576 0.755633
12 2 4.36266 6.28238 7.83903
13 2 7.08666 6.86169 1.96248
14 2 6.60953 2.81382 6.6304
15 2 8.71017 1.98838 2.3515
16 2 4.97953 7.72472 6.14593
17 5 1.08537 0.763748 5.23265
18 5 3.70458 8.95369 3.30255
19 5 1.57365 5.62664 7.56011
20 5 3.14888 4.10811 1.01333
21 5 3.20524 0.316119 5.75107
22 5 1.54545 9.39298 2.76557
23 5 8.45835 5.12233 7.09263
24 5 5.26482 4.54735 1.50376
25 3 8.06639 7.73428 2.21081
26 3 5.59824 1.91282 6.38232
27 3 7.68738 2.8993 2.09688
28 3 5.97996 6.82333 6.42511
29 3 6.1299 7.14121 2.79936
30 3 7.54553 2.48536 5.78835
31 3 0.760698 2.35876 1.51942
32 3 3.9807 7.41545 7.00716
33 6 2.28665 0.340487 5.03423
34 6 2.50848 9.36149 3.54767
35 6 0.415248 5.18765 7.79835
36 6 4.32782 4.51562 0.737369
37 4 0.203125 7.72388 1.7958
38 4 4.59347 1.82759 6.81298
39 4 6.68004 3.00214 2.44225
40 4 7.01208 6.87923 6.11707
41 4 5.12264 6.73501 2.802
42 4 8.58472 2.80023 5.73852
43 4 1.69977 1.85407 1.48719
44 4 3.00009 7.96611 7.13461
45 1 4.52785 0.546184 12.2804
46 1 0.895286 9.15354 13.3032
47 1 2.97036 5.35911 9.03721
48 1 2.44738 4.30093 16.5409
49 2 3.52089 8.60079 11.712
50 2 1.79991 1.0949 13.8438
51 2 3.94005 3.78244 9.69299
52 2 1.49097 5.97937 15.9512
53 2 2.21682 8.22903 11.9717
54 2 3.14526 1.38147 13.5862
55 2 5.26817 3.37917 9.28387
56 2 9.11519 6.33837 16.3495
57 2 2.91127 6.86219 10.4081
58 2 2.45371 2.8855 15.2
59 2 4.50062 1.93389 10.8702
60 2 0.860045 7.64668 14.6641
61 5 5.83048 0.711374 13.7528
62 5 8.46538 9.03444 11.8872
63 5 6.34722 5.60769 16.1404
64 5 7.96862 4.08441 9.49188
65 5 7.95116 0.322357 14.2833
66 5 6.31767 9.39334 11.275
67 5 4.25071 5.13717 15.6107
68 5 1.14371 4.55433 10.0379
69 3 3.96335 7.7299 10.7533
70 3 1.47921 1.93921 14.8334
71 3 3.54515 2.89788 10.5814
72 3 1.86121 6.83223 15.0133
73 3 1.92276 7.1698 11.2452
74 3 3.42295 2.5036 14.3033
75 3 5.55203 2.36881 9.99524
76 3 8.77169 7.35934 15.5222
77 6 6.97095 0.328682 13.494
78 6 7.26566 9.35012 12.1135
79 6 5.19742 5.22526 16.3084
80 6 9.12154 4.53949 9.26562
81 4 4.80872 7.7579 10.1367
82 4 9.4482 1.92751 15.3616
83 4 2.61168 3.00198 11.2007
84 4 2.7321 6.77273 14.3355
85 4 0.958725 6.68092 11.2089
86 4 4.40492 2.87359 14.3146
87 4 6.46615 1.74793 10.05
88 4 7.83204 7.78589 15.6251
89 1 8.64993 10.2291 3.75065
90 1 5.03483 18.844 4.77091
91 1 7.09813 15.0699 0.529517
92 1 6.596 13.9927 8.01946
93 2 7.71032 18.2998 3.15683
94 2 6.00587 10.8274 5.37967
95 2 8.09279 13.4082 1.06965
96 2 5.59539 15.6568 7.34998
97 2 6.40214 17.9828 3.48294
98 2 7.30212 11.179 4.99848
99 2 0.437709 13.0653 0.742847
100 2 4.34524 16.075 7.78788
101 2 7.11072 16.5513 1.87047
102 2 6.62834 12.5275 6.59814
103 2 8.61872 11.7055 2.37929
104 2 4.99925 17.3609 6.18572
105 5 1.13155 10.4392 5.22427
106 5 3.6531 18.7114 3.29849
107 5 1.6006 15.29 7.57193
108 5 3.20602 13.8269 0.960602
109 5 3.19452 10.0201 5.82052
110 5 1.52335 19.0623 2.73517
111 5 8.37219 14.8539 7.01648
112 5 5.2839 14.2431 1.50608
113 3 8.06886 17.4601 2.20007
114 3 5.6517 11.6401 6.33669
115 3 7.6895 12.5963 2.08436
116 3 5.95939 16.437 6.43503
117 3 6.10118 16.8707 2.77877
118 3 7.64511 12.2014 5.80474
119 3 0.697271 12.0062 1.55359
120 3 4.00925 17.0656 6.95095
121 6 2.27726 10.0418 4.98902
122 6 2.55526 19.093 3.49893
123 6 0.409658 14.8734 7.85241
124 6 4.31656 14.2417 0.73015
125 4 0.153402 17.3115 1.75153
126 4 4.63043 11.6427 6.61861
127 4 6.73171 12.4889 2.65599
128 4 6.91453 16.3053 6.0852
129 4 5.22954 16.2213 2.68327
130 4 8.64658 12.8247 5.7131
131 4 1.65667 11.4166 1.45353
132 4 3.06128 17.6417 7.10508
133 1 4.49017 10.2251 12.2608
134 1 0.884143 18.8327 13.3346
135 1 2.93821 15.0494 9.0634
136 1 2.43161 14.0055 16.5306
137 2 3.46879 18.301 11.7174
138 2 1.88954 10.7763 13.9063
139 2 3.94394 13.3949 9.63807
140 2 1.50231 15.6488 15.9034
141 2 2.20032 17.9772 12.0594
142 2 3.14935 11.1257 13.5524
143 2 5.16707 13.0726 9.28757
144 2 9.12347 15.993 16.3359
145 2 2.98217 16.5311 10.4149
146 2 2.43376 12.5215 15.1229
147 2 4.53803 11.7393 10.9095
148 2 0.828309 17.4032 14.7341
149 5 5.90884 10.3985 13.754
150 5 8.48103 18.6779 11.8252
151 5 6.3332 15.3052 16.1171
152 5 7.98499 13.8035 9.46865
153 5 8.00326 10.0249 14.2798
154 5 6.31332 19.0418 11.2967
155 5 4.30256 14.8987 15.5875
156 5 1.18813 14.1794 10.0367
157 3 3.98726 17.3854 10.7475
158 3 1.51929 11.626 14.8905
159 3 3.59479 12.5662 10.6048
160 3 1.79524 16.4575 15.0263
161 3 1.92642 16.8923 11.2436
162 3 3.43527 12.1955 14.3529
163 3 5.50715 12.043 10.0336
164 3 8.82734 17.0332 15.5784
165 6 7.03322 9.94747 13.4974
166 6 7.28763 19.0417 12.0992
167 6 5.26074 14.8287 16.3324
168 6 9.16186 14.2853 9.23302
169 4 4.90898 17.3314 10.1786
170 4 0.596254 11.6972 15.5019
171 4 2.68068 12.7215 11.2754
172 4 2.75728 16.5123 14.5876
173 4 1.0022 16.3436 11.4103
174 4 4.42698 12.7173 14.1715
175 4 6.41491 11.5218 9.98301
176 4 7.8413 17.59 15.5403
177 7 7.32533 13.3642 14.3527
178 8 6.8165 13.0269 15.0833
179 8 6.78741 13.0533 13.6152
180 7 6.9085 15.5905 12.4802
181 8 6.86386 16.4972 12.7482
182 8 7.80189 15.255 12.4762
183 7 5.33219 4.9246 12.9021
184 8 4.39577 5.07773 12.918
185 8 5.62395 5.7809 13.2537
186 7 7.13959 5.70229 11.3023
187 8 7.65143 5.65107 12.0956
188 8 7.56448 6.25508 10.6606
189 7 2.98064 4.8816 4.48875
190 8 2.79171 5.82539 4.33991
191 8 2.16291 4.72119 3.99421
192 7 4.64957 2.87085 4.18905
193 8 4.41443 2.80777 3.2766
194 8 5.23739 3.54793 4.46092
ITEM: TIMESTEP
22
ITEM: NUMBER OF ATOMS
194
ITEM: BOX BOUNDS xy xz yz pp pp pp
-6.6306158435658347e-04 9.5449406449627610e+00 0.0000000000000000e+00
-1.4421205379004931e-03 1.9388441220537892e+01 6.3047738337840098e-01
-1.2692338800519565e-03 1.7064084333880047e+01 0.0000000000000000e+00
ITEM: ATOMS id type x y z
1 1 8.67355 0.534586 3.73194
2 1 5.00978 9.16624 4.78687
3 1 7.08176 5.39781 0.496847
4 1 6.59186 4.30303 8.02332
5 2 7.68689 8.60383 3.14879
6 2 6.03471 1.11058 5.42334
7 2 8.09621 3.71603 1.11186
8 2 5.61629 5.96355 7.41001
9 2 6.46021 8.229 3.54701
10 2 7.36013 1.49718 4.95822
11 2 0.428801 3.40664 0.755144
12 2 4.36324 6.28198 7.8417
13 2 7.0866 6.86102 1.96402
14 2 6.60975 2.8132 6.63171
15 2 8.71182 1.98697 2.3519
16 2 4.97771 7.72721 6.14408
17 5 1.08575 0.764402 5.23302
18 5 3.70505 8.9541 3.30242
19 5 1.57147 5.6282 7.55956
20 5 3.14876 4.10853 1.01571
21 5 3.20392 0.31603 5.75029
22 5 1.54631 9.39372 2.76619
23 5 8.46156 5.12035 7.09528
24 5 5.26264 4.54818 1.50339
25 3 8.06693 7.73367 2.21164
26 3 5.59779 1.91138 6.38477
27 3 7.68802 2.89899 2.09746
28 3 5.97871 6.82486 6.42388
29 3 6.13204 7.13939 2.80214
30 3 7.54374 2.4844 5.78809
31 3 0.760548 2.35952 1.51955
32 3 3.97914 7.41772 7.00746
33 6 2.28596 0.342181 5.03571
34 6 2.50951 9.35996 3.54715
35 6 0.416252 5.18951 7.79846
36 6 4.32638 4.51428 0.738187
37 4 0.200218 7.71785 1.801
38 4 4.59273 1.8274 6.81372
39 4 6.67637 2.99982 2.44078
40 4 7.01625 6.88806 6.12159
41 4 5.12172 6.73638 2.80187
42 4 8.5859 2.79371 5.74172
43 4 1.70249 1.85396 1.48687
44 4 3.00247 7.9685 7.13746
45 1 4.5286 0.546103 12.2807
46 1 0.895461 9.15384 13.3025
47 1 2.97077 5.35746 9.03642
48 1 2.44768 4.30094 16.5411
49 2 3.5203 8.60148 11.7132
50 2 1.79716 1.09408 13.8405
51 2 3.94097 3.78456 9.69465
52 2 1.4919 5.98013 15.9517
53 2 2.21432 8.22929 11.9692
54 2 3.14557 1.37767 13.5875
55 2 5.27047 3.37968 9.28305
56 2 9.11545 6.33976 16.3517
57 2 2.90986 6.86219 10.4061
58 2 2.45369 2.88763 15.2023
59 2 4.4999 1.93051 10.8692
60 2 0.858858 7.64559 14.6616
61 5 5.82896 0.709698 13.7526
62 5 8.46563 9.03856 11.8895
63 5 6.34555 5.60859 16.1419
64 5 7.97079 4.08344 9.49167
65 5 7.94788 0.322613 14.2819
66 5 6.31873 9.3941 11.2749
67 5 4.25131 5.13604 15.6131
68 5 1.14249 4.55549 10.0377
69 3 3.96384 7.72836 10.7551
70 3 1.47948 1.93959 14.832
71 3 3.54469 2.89696 10.581
72 3 1.86166 6.83456 15.0142
73 3 1.92196 7.16867 11.2433
74 3 3.42057 2.50334 14.3029
75 3 5.55258 2.36856 9.9942
76 3 8.77191 7.35909 15.5214
77 6 6.96818 0.329798 13.4939
78 6 7.26551 9.34798 12.1141
79 6 5.1975 5.22827 16.3079
80 6 9.12126 4.53911 9.26648
81 4 4.81211 7.75752 10.1292
82 4 9.44838 1.92938 15.3616
83 4 2.61777 3.00312 11.2031
84 4 2.72723 6.77317 14.3297
85 4 0.955829 6.68166 11.2041
86 4 4.41076 2.86967 14.3175
87 4 6.46502 1.74795 10.0485
88 4 7.82497 7.78771 15.6256
89 1 8.64979 10.2286 3.751
90 1 5.03493 18.8443 4.77005
91 1 7.09791 15.0692 0.52976
92 1 6.59664 13.9927 8.01997
93 2 7.71174 18.3011 3.1574
94 2 6.00612 10.8283 5.37916
95 2 8.09303 13.4075 1.06754
96 2 5.59445 15.6566 7.34756
97 2 6.4016 17.9856 3.48211
98 2 7.30334 11.1799 4.9971
99 2 0.438178 13.0645 0.741846
100 2 4.34551 16.0782 7.7887
101 2 7.11139 16.5512 1.86866
102 2 6.62982 12.5282 6.59772
103 2 8.61668 11.7049 2.38091
104 2 4.9987 17.3609 6.18517
105 5 1.13354 10.4393 5.22419
106 5 3.65226 18.7145 3.29781
107 5 1.59945 15.29 7.57212
108 5 3.20789 13.8283 0.960657
109 5 3.19217 10.0205 5.82229
110 5 1.5236 19.062 2.73456
111 5 8.37249 14.8537 7.01681
112 5 5.28236 14.244 1.50566
113 3 8.06907 17.4603 2.19989
114 3 5.65359 11.6402 6.33634
115 3 7.68931 12.5961 2.08503
116 3 5.95705 16.4351 6.43409
117 3 6.10278 16.8697 2.77921
118 3 7.64818 12.2022 5.80563
119 3 0.694945 12.0047 1.555
120 3 4.00838 17.0666 6.94848
121 6 2.27744 10.044 4.98977
122 6 2.55631 19.094 3.49668
123 6 0.409526 14.8756 7.85262
124 6 4.31604 14.2421 0.731009
125 4 0.153821 17.3041 1.75552
126 4 4.62587 11.6494 6.61284
127 4 6.73419 12.4839 2.65637
128 4 6.91953 16.3032 6.08371
129 4 5.23093 16.218 2.68232
130 4 8.6389 12.8226 5.71218
131 4 1.64851 11.4147 1.45325
132 4 3.06582 17.6447 7.10622
133 1 4.48915 10.2244 12.2602
134 1 0.883774 18.8324 13.3353
135 1 2.93711 15.0477 9.06383
136 1 2.43118 14.0061 16.5302
137 2 3.46632 18.3021 11.7188
138 2 1.89038 10.7748 13.906
139 2 3.94382 13.3937 9.63763
140 2 1.50337 15.6481 15.9025
141 2 2.19686 17.9793 12.0605
142 2 3.15027 11.1244 13.5522
143 2 5.16602 13.0724 9.28689
144 2 9.12435 15.9924 16.3376
145 2 2.98342 16.5298 10.4134
146 2 2.43305 12.5221 15.1223
147 2 4.53913 11.7401 10.9111
148 2 0.826419 17.4046 14.7349
149 5 5.9111 10.3965 13.7538
150 5 8.48189 18.6798 11.8248
151 5 6.3312 15.3063 16.1178
152 5 7.98813 13.8042 9.46747
153 5 8.00263 10.0255 14.2782
154 5 6.3142 19.0405 11.2976
155 5 4.30587 14.9007 15.5893
156 5 1.18888 14.1775 10.0361
157 3 3.98925 17.3827 10.7491
158 3 1.52096 11.6256 14.8915
159 3 3.59595 12.565 10.6052
160 3 1.79226 16.4575 15.0272
161 3 1.92606 16.8932 11.242
162 3 3.43487 12.1951 14.354
163 3 5.50542 12.0433 10.0332
164 3 8.82836 17.0334 15.5798
165 6 7.03272 9.94549 13.4977
166 6 7.28833 19.0397 12.0991
167 6 5.26292 14.8279 16.3317
168 6 9.16294 14.2868 9.2336
169 4 4.91241 17.3257 10.1765
170 4 0.601034 11.7008 15.5056
171 4 2.69216 12.7233 11.2801
172 4 2.75812 16.5166 14.5898
173 4 1.00243 16.3408 11.413
174 4 4.42079 12.7168 14.1696
175 4 6.41761 11.5194 9.98097
176 4 7.84706 17.5866 15.5404
177 7 7.32757 13.3639 14.3532
178 8 6.81933 13.0301 15.0804
179 8 6.77923 13.0595 13.6199
180 7 6.90836 15.5904 12.481
181 8 6.8631 16.4922 12.7464
182 8 7.80821 15.2588 12.4698
183 7 5.33167 4.92335 12.9012
184 8 4.3943 5.07679 12.9229
185 8 5.62076 5.78566 13.2393
186 7 7.14047 5.70325 11.3037
187 8 7.64806 5.65367 12.0954
188 8 7.57067 6.25299 10.6621
189 7 2.97925 4.8835 4.48767
190 8 2.78107 5.8289 4.33998
191 8 2.16202 4.72272 3.98322
192 7 4.64991 2.87084 4.18775
193 8 4.42079 2.80047 3.27333
194 8 5.24102 3.55014 4.45854
ITEM: TIMESTEP
23
ITEM: NUMBER OF ATOMS
194
ITEM: BOX BOUNDS xy xz yz pp pp pp
-7.2223018582562304e-04 9.5450081823665744e+00 0.0000000000000000e+00
-1.5708088187320612e-03 1.9388569908818724e+01 6.3048575218074421e-01
-1.3824945414899759e-03 1.7064197594541483e+01 0.0000000000000000e+00
ITEM: ATOMS id type x y z
1 1 8.67451 0.534005 3.73141
2 1 5.00877 9.16711 4.78679
3 1 7.0808 5.39798 0.495645
4 1 6.59233 4.30311 8.02401
5 2 7.68762 8.60496 3.14887
6 2 6.03702 1.10976 5.42483
7 2 8.09657 3.71545 1.11158
8 2 5.61689 5.96363 7.40989
9 2 6.46191 8.22874 3.54897
10 2 7.3628 1.49821 4.95548
11 2 0.429134 3.4075 0.754639
12 2 4.36374 6.28167 7.84429
13 2 7.08659 6.86026 1.96548
14 2 6.6099 2.81262 6.6331
15 2 8.7134 1.98552 2.35234
16 2 4.97592 7.72975 6.1422
17 5 1.08622 0.765025 5.2334
18 5 3.70543 8.95453 3.30229
19 5 1.56924 5.62974 7.559
20 5 3.14873 4.10898 1.01808
21 5 3.20266 0.315935 5.74957
22 5 1.5472 9.39446 2.76683
23 5 8.46466 5.11836 7.09783
24 5 5.26046 4.54901 1.50302
25 3 8.06751 7.73307 2.21246
26 3 5.5974 1.90996 6.38725
27 3 7.68874 2.89868 2.098
28 3 5.97742 6.82639 6.42268
29 3 6.13416 7.13762 2.80496
30 3 7.54206 2.48345 5.78776
31 3 0.760395 2.36027 1.51967
32 3 3.97761 7.41988 7.00784
33 6 2.28511 0.343853 5.03698
34 6 2.51062 9.35842 3.54665
35 6 0.417454 5.19135 7.79874
36 6 4.32484 4.51295 0.738918
37 4 0.196809 7.71167 1.80626
38 4 4.59218 1.82748 6.81458
39 4 6.67269 2.99702 2.43966
40 4 7.02041 6.89706 6.12597
41 4 5.12086 6.73763 2.80166
42 4 8.58694 2.78762 5.74531
43 4 1.7054 1.85381 1.48644
44 4 3.00531 7.97068 7.14023
45 1 4.52935 0.546017 12.281
46 1 0.895631 9.15413 13.3017
47 1 2.97118 5.3558 9.03563
48 1 2.44799 4.30095 16.5412
49 2 3.51972 8.60217 11.7144
50 2 1.79446 1.09322 13.8372
51 2 3.94198 3.78669 9.69626
52 2 1.4928 5.98083 15.9523
53 2 2.21181 8.22961 11.9667
54 2 3.14585 1.37387 13.5888
55 2 5.27269 3.38028 9.28219
56 2 9.11571 6.34114 16.3538
57 2 2.90851 6.86216 10.4041
58 2 2.45364 2.88972 15.2045
59 2 4.49921 1.92718 10.8682
60 2 0.857652 7.64458 14.6591
61 5 5.82746 0.708009 13.7524
62 5 8.46582 9.04269 11.8917
63 5 6.34386 5.6095 16.1433
64 5 7.97302 4.08247 9.49145
65 5 7.94455 0.322869 14.2805
66 5 6.31983 9.39487 11.2748
67 5 4.25188 5.13491 15.6154
68 5 1.14128 4.55665 10.0376
69 3 3.96419 7.72677 10.7568
70 3 1.47978 1.94004 14.8307
71 3 3.54421 2.89597 10.5806
72 3 1.86212 6.83694 15.0151
73 3 1.92117 7.16751 11.2414
74 3 3.41817 2.50306 14.3027
75 3 5.55307 2.36814 9.99333
76 3 8.77218 7.35879 15.5206
77 6 6.96548 0.330889 13.4938
78 6 7.2654 9.34582 12.1145
79 6 5.19761 5.2312 16.3076
80 6 9.1209 4.53873 9.26728
81 4 4.81594 7.75741 10.1217
82 4 9.44846 1.93121 15.3615
83 4 2.62416 3.00422 11.2051
84 4 2.72231 6.77339 14.3241
85 4 0.952851 6.6825 11.1992
86 4 4.41692 2.86594 14.3204
87 4 6.46391 1.74838 10.0465
88 4 7.81753 7.78995 15.6258
89 1 8.64966 10.2282 3.75134
90 1 5.03504 18.8445 4.76919
91 1 7.09769 15.0684 0.529996
92 1 6.59728 13.9927 8.02047
93 2 7.71315 18.3025 3.15799
94 2 6.00642 10.8291 5.3786
95 2 8.09322 13.4067 1.06544
96 2 5.59347 15.6563 7.34524
97 2 6.40105 17.9883 3.48128
98 2 7.30456 11.1809 4.99573
99 2 0.438681 13.0638 0.740843
100 2 4.34577 16.0815 7.7895
101 2 7.11203 16.5511 1.86689
102 2 6.63127 12.5289 6.59734
103 2 8.61465 11.7042 2.38256
104 2 4.99821 17.3611 6.18452
105 5 1.13556 10.4393 5.22412
106 5 3.65147 18.7176 3.29708
107 5 1.59819 15.29 7.57232
108 5 3.20974 13.8297 0.96073
109 5 3.18981 10.0208 5.82401
110 5 1.52393 19.0617 2.73399
111 5 8.37284 14.8535 7.0172
112 5 5.28079 14.2448 1.50522
113 3 8.06929 17.4605 2.19965
114 3 5.65549 11.6403 6.33598
115 3 7.68911 12.5958 2.08572
116 3 5.95467 16.4334 6.43313
117 3 6.10444 16.8687 2.77954
118 3 7.65132 12.2029 5.80649
119 3 0.692676 12.0032 1.55636
120 3 4.00743 17.0675 6.94608
121 6 2.27759 10.0462 4.99052
122 6 2.55719 19.0952 3.49452
123 6 0.409497 14.8778 7.85271
124 6 4.3156 14.2426 0.731823
125 4 0.154148 17.2971 1.75976
126 4 4.62118 11.6565 6.60736
127 4 6.73677 12.4794 2.65625
128 4 6.92496 16.3016 6.08165
129 4 5.23206 16.2153 2.68187
130 4 8.63037 12.8199 5.71127
131 4 1.63993 11.413 1.45304
132 4 3.07074 17.6477 7.10723
133 1 4.48814 10.2237 12.2596
134 1 0.883398 18.8321 13.336
135 1 2.93601 15.046 9.06426
136 1 2.43075 14.0067 16.5299
137 2 3.46395 18.3032 11.7201
138 2 1.89118 10.7733 13.9058
139 2 3.94363 13.3926 9.6372
140 2 1.50436 15.6472 15.9016
141 2 2.19337 17.9814 12.0615
142 2 3.15121 11.1232 13.5519
143 2 5.16507 13.0722 9.28616
144 2 9.12525 15.9917 16.3392
145 2 2.98464 16.5285 10.412
146 2 2.43236 12.5227 15.1219
147 2 4.54026 11.7409 10.9129
148 2 0.824606 17.406 14.7358
149 5 5.91339 10.3946 13.7537
150 5 8.48267 18.6817 11.8244
151 5 6.32923 15.3075 16.1186
152 5 7.99137 13.8049 9.46628
153 5 8.00198 10.0261 14.2766
154 5 6.31512 19.0391 11.2985
155 5 4.30918 14.9027 15.591
156 5 1.18961 14.1756 10.0355
157 3 3.99112 17.3801 10.7507
158 3 1.5226 11.6251 14.8926
159 3 3.59703 12.5637 10.6056
160 3 1.78928 16.4576 15.028
161 3 1.92572 16.8941 11.2404
162 3 3.43455 12.1947 14.3551
163 3 5.50365 12.0437 10.0329
164 3 8.82928 17.0336 15.5812
165 6 7.03221 9.94353 13.4981
166 6 7.28903 19.0376 12.0989
167 6 5.26503 14.827 16.3311
168 6 9.16388 14.2882 9.23427
169 4 4.916 17.3204 10.1747
170 4 0.605809 11.704 15.5088
171 4 2.70411 12.7251 11.2844
172 4 2.75924 16.5209 14.5919
173 4 1.00275 16.338 11.4155
174 4 4.41404 12.7165 14.1679
175 4 6.42069 11.5169 9.97884
176 4 7.85314 17.5828 15.5407
177 7 7.32983 13.3635 14.3536
178 8 6.82213 13.0333 15.0777
179 8 6.77121 13.0658 13.6245
180 7 6.90819 15.5903 12.4818
181 8 6.86254 16.4876 12.7447
182 8 7.81447 15.2628 12.4636
183 7 5.33115 4.92212 12.9003
184 8 4.3926 5.07571 12.9278
185 8 5.61767 5.79019 13.2249
186 7 7.14132 5.70422 11.305
187 8 7.64497 5.65629 12.0953
188 8 7.5771 6.251 10.6637
189 7 2.97781 4.88544 4.48657
190 8 2.77092 5.8325 4.34041
191 8 2.16127 4.72362 3.97232
192 7 4.65019 2.87083 4.18641
193 8 4.42729 2.79352 3.26986
194 8 5.24475 3.55262 4.45589
ITEM: TIMESTEP
24
ITEM: NUMBER OF ATOMS
194
ITEM: BOX BOUNDS xy xz yz pp pp pp
-7.8346824034358775e-04 9.5450780819267109e+00 0.0000000000000000e+00
-1.7039980400728183e-03 1.9388703098040065e+01 6.3049441368636427e-01
-1.4997165543100266e-03 1.7064314816554301e+01 0.0000000000000000e+00
ITEM: ATOMS id type x y z
1 1 8.67547 0.533422 3.73087
2 1 5.00776 9.16799 4.7867
3 1 7.07984 5.39815 0.494444
4 1 6.59281 4.30318 8.0247
5 2 7.68839 8.60613 3.14896
6 2 6.03944 1.10885 5.42625
7 2 8.09688 3.71493 1.11129
8 2 5.6175 5.96366 7.40978
9 2 6.46354 8.22847 3.55092
10 2 7.36534 1.49917 4.95279
11 2 0.429532 3.40836 0.75412
12 2 4.36417 6.28148 7.84678
13 2 7.08661 6.8594 1.96686
14 2 6.60997 2.81209 6.63456
15 2 8.71491 1.98403 2.35283
16 2 4.97416 7.73235 6.14031
17 5 1.08679 0.765618 5.2338
18 5 3.70572 8.95498 3.30214
19 5 1.56696 5.63127 7.55842
20 5 3.14876 4.10945 1.02044
21 5 3.20144 0.315834 5.7489
22 5 1.54811 9.39519 2.76749
23 5 8.46766 5.11636 7.10028
24 5 5.25829 4.54984 1.50265
25 3 8.06812 7.73249 2.21327
26 3 5.59708 1.90854 6.38976
27 3 7.68955 2.89836 2.09851
28 3 5.97609 6.82791 6.42149
29 3 6.13625 7.1359 2.80784
30 3 7.54052 2.4825 5.78737
31 3 0.760244 2.36102 1.51979
32 3 3.97609 7.42193 7.00831
33 6 2.28408 0.345501 5.03806
34 6 2.51181 9.35688 3.54617
35 6 0.41885 5.19319 7.79921
36 6 4.32322 4.51164 0.739561
37 4 0.192953 7.70532 1.81155
38 4 4.59182 1.82781 6.81556
39 4 6.66902 2.99373 2.43886
40 4 7.02451 6.90622 6.13023
41 4 5.12006 6.73877 2.8014
42 4 8.58785 2.78196 5.74929
43 4 1.70847 1.85363 1.48591
44 4 3.00856 7.97269 7.14292
45 1 4.5301 0.545923 12.2813
46 1 0.895796 9.15442 13.3009
47 1 2.9716 5.35414 9.03484
48 1 2.44829 4.30096 16.5413
49 2 3.51917 8.60286 11.7156
50 2 1.79181 1.09234 13.8339
51 2 3.94308 3.78884 9.69781
52 2 1.49367 5.98146 15.9529
53 2 2.20929 8.22997 11.9643
54 2 3.1461 1.37008 13.5901
55 2 5.27482 3.38099 9.2813
56 2 9.11599 6.34252 16.3559
57 2 2.90723 6.8621 10.402
58 2 2.45358 2.89176 15.2066
59 2 4.49855 1.9239 10.8671
60 2 0.856428 7.64364 14.6566
61 5 5.82597 0.706309 13.7523
62 5 8.46595 9.04682 11.894
63 5 6.34217 5.61043 16.1447
64 5 7.97531 4.08149 9.49122
65 5 7.94119 0.323124 14.279
66 5 6.32097 9.39563 11.2747
67 5 4.25242 5.1338 15.6177
68 5 1.14008 4.5578 10.0374
69 3 3.96443 7.72511 10.7585
70 3 1.4801 1.94056 14.8294
71 3 3.54373 2.89491 10.5802
72 3 1.86258 6.83934 15.0158
73 3 1.92037 7.16634 11.2395
74 3 3.41575 2.50276 14.3024
75 3 5.5535 2.36755 9.99263
76 3 8.77251 7.35844 15.5199
77 6 6.96287 0.331953 13.4937
78 6 7.26531 9.34364 12.115
79 6 5.19776 5.23403 16.3076
80 6 9.12048 4.53834 9.26801
81 4 4.82016 7.75756 10.1142
82 4 9.44846 1.933 15.3612
83 4 2.63083 3.00527 11.2069
84 4 2.71736 6.77339 14.3189
85 4 0.949803 6.68345 11.1945
86 4 4.42334 2.86237 14.3235
87 4 6.46283 1.74919 10.0442
88 4 7.80979 7.79256 15.6259
89 1 8.64953 10.2277 3.75169
90 1 5.03514 18.8448 4.76832
91 1 7.09748 15.0677 0.530226
92 1 6.59792 13.9927 8.02097
93 2 7.71455 18.3039 3.15862
94 2 6.00676 10.8299 5.37799
95 2 8.09334 13.406 1.06337
96 2 5.59244 15.656 7.343
97 2 6.40047 17.9911 3.48047
98 2 7.30579 11.1818 4.99438
99 2 0.439219 13.0631 0.73984
100 2 4.34601 16.0846 7.79029
101 2 7.11266 16.551 1.86516
102 2 6.6327 12.5297 6.59702
103 2 8.61264 11.7035 2.38425
104 2 4.99779 17.3613 6.18377
105 5 1.13759 10.4393 5.22406
106 5 3.65072 18.7207 3.2963
107 5 1.59684 15.29 7.57253
108 5 3.21158 13.8312 0.960819
109 5 3.18743 10.0212 5.8257
110 5 1.52434 19.0613 2.73346
111 5 8.37324 14.8532 7.01765
112 5 5.27921 14.2457 1.50477
113 3 8.0695 17.4607 2.19934
114 3 5.6574 11.6404 6.33562
115 3 7.68891 12.5955 2.08643
116 3 5.95227 16.4317 6.43214
117 3 6.10619 16.8677 2.77976
118 3 7.65452 12.2037 5.80732
119 3 0.690461 12.0017 1.55768
120 3 4.00641 17.0685 6.94375
121 6 2.27774 10.0483 4.99123
122 6 2.55787 19.0964 3.49246
123 6 0.409567 14.88 7.85269
124 6 4.31524 14.2431 0.732587
125 4 0.154391 17.2903 1.76426
126 4 4.61641 11.664 6.60216
127 4 6.7394 12.4752 2.65563
128 4 6.93074 16.3005 6.07906
129 4 5.23292 16.2132 2.68193
130 4 8.62112 12.8168 5.71036
131 4 1.63099 11.4115 1.45289
132 4 3.076 17.6506 7.10814
133 1 4.48713 10.223 12.259
134 1 0.883016 18.8318 13.3367
135 1 2.93491 15.0443 9.06468
136 1 2.43033 14.0073 16.5295
137 2 3.46168 18.3043 11.7213
138 2 1.89194 10.7717 13.9056
139 2 3.94338 13.3915 9.63677
140 2 1.50527 15.6463 15.9009
141 2 2.18986 17.9834 12.0625
142 2 3.15218 11.122 13.5517
143 2 5.16422 13.072 9.28539
144 2 9.12618 15.991 16.3409
145 2 2.98584 16.5271 10.4105
146 2 2.43168 12.5234 15.1215
147 2 4.54143 11.7416 10.9147
148 2 0.82287 17.4075 14.7366
149 5 5.9157 10.3926 13.7535
150 5 8.48338 18.6837 11.824
151 5 6.32729 15.3088 16.1193
152 5 7.9947 13.8057 9.4651
153 5 8.00131 10.0268 14.275
154 5 6.31609 19.0378 11.2994
155 5 4.31247 14.9046 15.5927
156 5 1.19034 14.1737 10.0348
157 3 3.99287 17.3774 10.7524
158 3 1.5242 11.6247 14.8937
159 3 3.59801 12.5625 10.606
160 3 1.7863 16.4578 15.0287
161 3 1.92543 16.8951 11.2389
162 3 3.43429 12.1943 14.356
163 3 5.50186 12.044 10.0325
164 3 8.83011 17.034 15.5826
165 6 7.0317 9.9416 13.4986
166 6 7.28974 19.0355 12.0987
167 6 5.26707 14.8261 16.3305
168 6 9.16468 14.2895 9.23502
169 4 4.91971 17.3154 10.1731
170 4 0.61056 11.7069 15.5117
171 4 2.71645 12.7269 11.2883
172 4 2.76059 16.5253 14.5939
173 4 1.00317 16.335 11.4179
174 4 4.40679 12.7161 14.1665
175 4 6.42409 11.5144 9.97662
176 4 7.85946 17.5787 15.5413
177 7 7.33208 13.3631 14.3541
178 8 6.82484 13.0364 15.0754
179 8 6.76337 13.0723 13.6291
180 7 6.90803 15.5902 12.4826
181 8 6.86218 16.4833 12.7431
182 8 7.82059 15.2671 12.4575
183 7 5.33063 4.9209 12.8994
184 8 4.39068 5.07448 12.9326
185 8 5.61468 5.7945 13.2103
186 7 7.14213 5.70521 11.3063
187 8 7.6422 5.65892 12.0955
188 8 7.58377 6.24909 10.6652
189 7 2.97632 4.88743 4.48543
190 8 2.76125 5.83613 4.3412
191 8 2.16071 4.72389 3.96156
192 7 4.65041 2.87081 4.18504
193 8 4.43396 2.78693 3.2662
194 8 5.24854 3.55531 4.45295
ITEM: TIMESTEP
25
ITEM: NUMBER OF ATOMS
194
ITEM: BOX BOUNDS xy xz yz pp pp pp
-8.4671674068292901e-04 9.5451502762899700e+00 0.0000000000000000e+00
-1.8415598646193132e-03 1.9388840659864609e+01 6.3050335954928338e-01
-1.6207869667521635e-03 1.7064435886966741e+01 0.0000000000000000e+00
ITEM: ATOMS id type x y z
1 1 8.67644 0.532836 3.73034
2 1 5.00676 9.16886 4.78661
3 1 7.07889 5.39831 0.493243
4 1 6.59328 4.30325 8.0254
5 2 7.6892 8.60735 3.14906
6 2 6.04197 1.10784 5.42762
7 2 8.09713 3.71448 1.11099
8 2 5.61814 5.96364 7.40968
9 2 6.46509 8.22818 3.55287
10 2 7.36774 1.50006 4.95017
11 2 0.429995 3.4092 0.753589
12 2 4.36453 6.2814 7.84918
13 2 7.08668 6.85844 1.96814
14 2 6.60996 2.8116 6.6361
15 2 8.71633 1.98252 2.35336
16 2 4.97243 7.73499 6.13841
17 5 1.08744 0.766181 5.23421
18 5 3.70591 8.95546 3.30199
19 5 1.56462 5.63278 7.55783
20 5 3.14887 4.10994 1.02279
21 5 3.20027 0.315727 5.74829
22 5 1.54904 9.39592 2.76815
23 5 8.47055 5.11436 7.10263
24 5 5.25614 4.55068 1.50228
25 3 8.06875 7.73194 2.21408
26 3 5.59684 1.90713 6.3923
27 3 7.69043 2.89803 2.09897
28 3 5.97472 6.82942 6.42032
29 3 6.13831 7.13424 2.81077
30 3 7.5391 2.48156 5.78691
31 3 0.760099 2.36176 1.51991
32 3 3.97461 7.42385 7.00886
33 6 2.28289 0.347122 5.03894
34 6 2.51307 9.35534 3.54572
35 6 0.420436 5.19503 7.79986
36 6 4.32152 4.51036 0.740111
37 4 0.188714 7.69883 1.81685
38 4 4.59164 1.8284 6.81666
39 4 6.66542 2.98997 2.43838
40 4 7.02852 6.91554 6.13437
41 4 5.11936 6.73981 2.80107
42 4 8.58862 2.77674 5.75366
43 4 1.71168 1.85343 1.48527
44 4 3.01219 7.97453 7.14554
45 1 4.53084 0.545823 12.2817
46 1 0.895957 9.15472 13.3002
47 1 2.97201 5.35248 9.03405
48 1 2.4486 4.30096 16.5415
49 2 3.51863 8.60355 11.7167
50 2 1.78922 1.09143 13.8306
51 2 3.94428 3.79099 9.69929
52 2 1.4945 5.98204 15.9536
53 2 2.20676 8.23039 11.9619
54 2 3.14632 1.36631 13.5914
55 2 5.27686 3.38179 9.28038
56 2 9.11626 6.34388 16.358
57 2 2.90603 6.86203 10.3999
58 2 2.45348 2.89377 15.2087
59 2 4.49793 1.92067 10.866
60 2 0.855186 7.64277 14.654
61 5 5.8245 0.704599 13.7521
62 5 8.46603 9.05096 11.8962
63 5 6.34046 5.61138 16.146
64 5 7.97767 4.08051 9.49099
65 5 7.93779 0.323381 14.2776
66 5 6.32215 9.3964 11.2747
67 5 4.25292 5.13271 15.6198
68 5 1.13888 4.55897 10.0372
69 3 3.96454 7.7234 10.7602
70 3 1.48043 1.94114 14.8283
71 3 3.54325 2.89378 10.58
72 3 1.86306 6.84179 15.0166
73 3 1.91958 7.16513 11.2376
74 3 3.41332 2.50246 14.3021
75 3 5.55387 2.36678 9.9921
76 3 8.77287 7.35803 15.5192
77 6 6.96033 0.332988 13.4936
78 6 7.26525 9.34146 12.1153
79 6 5.19793 5.23678 16.3078
80 6 9.11999 4.53795 9.26867
81 4 4.82467 7.75798 10.1068
82 4 9.44839 1.93475 15.3608
83 4 2.63772 3.00629 11.2084
84 4 2.71237 6.77316 14.314
85 4 0.946698 6.68453 11.1898
86 4 4.42992 2.85893 14.3267
87 4 6.46182 1.75036 10.0415
88 4 7.80185 7.79552 15.6257
89 1 8.6494 10.2272 3.75203
90 1 5.03524 18.845 4.76745
91 1 7.09727 15.0669 0.53045
92 1 6.59855 13.9927 8.02147
93 2 7.71593 18.3054 3.15927
94 2 6.00714 10.8307 5.37733
95 2 8.0934 13.4054 1.06132
96 2 5.59136 15.6556 7.34087
97 2 6.39987 17.9938 3.47967
98 2 7.30702 11.1827 4.99303
99 2 0.439791 13.0624 0.738838
100 2 4.34625 16.0878 7.79106
101 2 7.11327 16.5509 1.86347
102 2 6.63411 12.5305 6.59675
103 2 8.61063 11.7027 2.38597
104 2 4.99744 17.3617 6.18293
105 5 1.13964 10.4394 5.22402
106 5 3.65003 18.7237 3.29547
107 5 1.5954 15.2899 7.57274
108 5 3.21339 13.8326 0.960926
109 5 3.18504 10.0216 5.82735
110 5 1.52482 19.061 2.73297
111 5 8.37368 14.853 7.01817
112 5 5.27761 14.2466 1.5043
113 3 8.06973 17.4608 2.19895
114 3 5.65931 11.6406 6.33526
115 3 7.68871 12.5951 2.08717
116 3 5.94986 16.43 6.43113
117 3 6.10801 16.8667 2.77987
118 3 7.65776 12.2045 5.80813
119 3 0.688297 12.0003 1.55895
120 3 4.00532 17.0694 6.9415
121 6 2.27787 10.0504 4.99192
122 6 2.55837 19.0977 3.4905
123 6 0.409733 14.8824 7.85255
124 6 4.31496 14.2436 0.733297
125 4 0.154561 17.2837 1.76902
126 4 4.61163 11.6718 6.59722
127 4 6.74205 12.4714 2.65452
128 4 6.93679 16.2998 6.07597
129 4 5.23353 16.2116 2.68248
130 4 8.61125 12.8133 5.70944
131 4 1.62175 11.4102 1.45281
132 4 3.08158 17.6536 7.10894
133 1 4.48612 10.2223 12.2584
134 1 0.882627 18.8315 13.3374
135 1 2.93381 15.0426 9.06511
136 1 2.42991 14.0078 16.5291
137 2 3.45951 18.3054 11.7225
138 2 1.89266 10.7701 13.9054
139 2 3.94307 13.3906 9.63634
140 2 1.50609 15.6452 15.9004
141 2 2.18633 17.9854 12.0635
142 2 3.15319 11.1208 13.5515
143 2 5.16347 13.0718 9.28458
144 2 9.12714 15.9903 16.3425
145 2 2.98701 16.5257 10.4091
146 2 2.43101 12.5243 15.1212
147 2 4.54263 11.7422 10.9165
148 2 0.821213 17.4089 14.7374
149 5 5.91802 10.3907 13.7533
150 5 8.48402 18.6856 11.8237
151 5 6.32539 15.31 16.12
152 5 7.99812 13.8065 9.46393
153 5 8.00063 10.0274 14.2733
154 5 6.3171 19.0364 11.3004
155 5 4.31575 14.9066 15.5944
156 5 1.19105 14.1718 10.0341
157 3 3.99451 17.3748 10.7541
158 3 1.52578 11.6243 14.8947
159 3 3.5989 12.5613 10.6064
160 3 1.78334 16.4582 15.0293
161 3 1.92516 16.8961 11.2374
162 3 3.43411 12.1938 14.3569
163 3 5.50005 12.0443 10.0322
164 3 8.83085 17.0344 15.5841
165 6 7.03119 9.93969 13.4992
166 6 7.29046 19.0334 12.0985
167 6 5.26904 14.8251 16.33
168 6 9.16535 14.2908 9.23584
169 4 4.92352 17.3108 10.1718
170 4 0.615264 11.7095 15.5141
171 4 2.72913 12.7286 11.2919
172 4 2.76214 16.5296 14.5959
173 4 1.00371 16.332 11.42
174 4 4.39909 12.7159 14.1654
175 4 6.42775 11.5118 9.97432
176 4 7.86596 17.5743 15.5422
177 7 7.33435 13.3627 14.3545
178 8 6.82744 13.0395 15.0735
179 8 6.75571 13.079 13.6337
180 7 6.90787 15.5901 12.4834
181 8 6.86199 16.4795 12.7417
182 8 7.82648 15.2715 12.4514
183 7 5.3301 4.91969 12.8985
184 8 4.38858 5.07309 12.9374
185 8 5.61182 5.79859 13.1957
186 7 7.14291 5.70622 11.3077
187 8 7.63978 5.66155 12.0959
188 8 7.59066 6.24725 10.6668
189 7 2.97477 4.88947 4.48426
190 8 2.75209 5.83977 4.34237
191 8 2.16043 4.72355 3.95096
192 7 4.65059 2.8708 4.18364
193 8 4.44079 2.7807 3.26238
194 8 5.25233 3.55815 4.44969
ITEM: TIMESTEP
26
ITEM: NUMBER OF ATOMS
194
ITEM: BOX BOUNDS xy xz yz pp pp pp
-9.1191381276090056e-04 9.5452246948308019e+00 0.0000000000000000e+00
-1.9833597198246622e-03 1.9388982459719816e+01 6.3051258101803598e-01
-1.7455873393164012e-03 1.7064560687339306e+01 0.0000000000000000e+00
ITEM: ATOMS id type x y z
1 1 8.67741 0.532248 3.7298
2 1 5.00575 9.16974 4.78652
3 1 7.07793 5.39847 0.492045
4 1 6.59377 4.30332 8.0261
5 2 7.69005 8.60861 3.14918
6 2 6.0446 1.10673 5.42893
7 2 8.09732 3.7141 1.11069
8 2 5.61879 5.96359 7.40959
9 2 6.46657 8.22788 3.55481
10 2 7.36999 1.50088 4.9476
11 2 0.43052 3.41003 0.753045
12 2 4.36481 6.28143 7.85148
13 2 7.08678 6.85739 1.96934
14 2 6.60987 2.81115 6.63772
15 2 8.71767 1.98098 2.35394
16 2 4.97072 7.73768 6.1365
17 5 1.08818 0.766716 5.23464
18 5 3.70602 8.95596 3.30182
19 5 1.56224 5.63428 7.55723
20 5 3.14904 4.11045 1.02513
21 5 3.19916 0.315615 5.74774
22 5 1.55 9.39665 2.76882
23 5 8.47334 5.11235 7.10487
24 5 5.25399 4.55153 1.50191
25 3 8.0694 7.73139 2.21489
26 3 5.59667 1.90574 6.39486
27 3 7.69138 2.89768 2.0994
28 3 5.97331 6.83093 6.41917
29 3 6.14034 7.13263 2.81375
30 3 7.53781 2.48063 5.78638
31 3 0.759964 2.36248 1.52002
32 3 3.97315 7.42565 7.0095
33 6 2.28153 0.348714 5.03961
34 6 2.51441 9.35381 3.54529
35 6 0.422207 5.19685 7.80071
36 6 4.31973 4.50909 0.740566
37 4 0.184156 7.6922 1.82215
38 4 4.59163 1.82923 6.81789
39 4 6.66191 2.98572 2.43818
40 4 7.03237 6.92501 6.13841
41 4 5.11875 6.74075 2.80069
42 4 8.58922 2.77195 5.75841
43 4 1.71498 1.85323 1.48454
44 4 3.01615 7.97624 7.14809
45 1 4.53159 0.545716 12.282
46 1 0.896113 9.15501 13.2994
47 1 2.97242 5.35082 9.03327
48 1 2.44891 4.30097 16.5416
49 2 3.5181 8.60424 11.7177
50 2 1.78668 1.09049 13.8273
51 2 3.94557 3.79315 9.70072
52 2 1.4953 5.98256 15.9543
53 2 2.20424 8.23086 11.9596
54 2 3.1465 1.36254 13.5927
55 2 5.27881 3.38269 9.27943
56 2 9.11655 6.34525 16.36
57 2 2.90489 6.86193 10.3978
58 2 2.45337 2.89573 15.2108
59 2 4.49735 1.91749 10.8648
60 2 0.853927 7.64197 14.6514
61 5 5.82304 0.702879 13.752
62 5 8.46606 9.05511 11.8984
63 5 6.33876 5.61234 16.1473
64 5 7.98008 4.07952 9.49075
65 5 7.93436 0.323639 14.2761
66 5 6.32337 9.39716 11.2747
67 5 4.25338 5.13162 15.622
68 5 1.1377 4.56013 10.037
69 3 3.96454 7.72163 10.762
70 3 1.48079 1.9418 14.8271
71 3 3.54277 2.89257 10.5798
72 3 1.86354 6.84426 15.0173
73 3 1.91878 7.16391 11.2357
74 3 3.41089 2.50215 14.3019
75 3 5.55418 2.36586 9.99173
76 3 8.77327 7.35759 15.5186
77 6 6.95788 0.333991 13.4936
78 6 7.26522 9.33926 12.1156
79 6 5.19812 5.23944 16.3082
80 6 9.11943 4.53757 9.26925
81 4 4.82939 7.75868 10.0997
82 4 9.44824 1.93645 15.3602
83 4 2.64479 3.00729 11.2097
84 4 2.70737 6.7727 14.3095
85 4 0.943549 6.68573 11.1851
86 4 4.43659 2.8556 14.33
87 4 6.46087 1.75189 10.0383
88 4 7.7938 7.79877 15.6253
89 1 8.64928 10.2267 3.75237
90 1 5.03533 18.8453 4.76659
91 1 7.09706 15.0662 0.530667
92 1 6.59919 13.9927 8.02197
93 2 7.71729 18.3069 3.15995
94 2 6.00756 10.8313 5.37662
95 2 8.0934 13.4048 1.05929
96 2 5.59024 15.6551 7.33883
97 2 6.39926 17.9966 3.47887
98 2 7.30825 11.1836 4.99171
99 2 0.440395 13.0616 0.737838
100 2 4.34648 16.0909 7.79181
101 2 7.11386 16.5507 1.86183
102 2 6.63549 12.5315 6.59654
103 2 8.60863 11.7018 2.38772
104 2 4.99716 17.3621 6.18199
105 5 1.14169 10.4394 5.22398
106 5 3.64938 18.7267 3.29459
107 5 1.59387 15.2898 7.57297
108 5 3.21518 13.834 0.961053
109 5 3.18265 10.0219 5.82897
110 5 1.52538 19.0607 2.73251
111 5 8.37416 14.8527 7.01874
112 5 5.27599 14.2474 1.50383
113 3 8.06995 17.4608 2.19849
114 3 5.66123 11.6407 6.33491
115 3 7.68851 12.5948 2.08791
116 3 5.94744 16.4283 6.43008
117 3 6.1099 16.8656 2.77988
118 3 7.66103 12.2054 5.80892
119 3 0.68618 11.9989 1.56017
120 3 4.00417 17.0703 6.93933
121 6 2.278 10.0525 4.99258
122 6 2.55868 19.0991 3.48865
123 6 0.409994 14.8848 7.85231
124 6 4.31477 14.2442 0.73395
125 4 0.15467 17.2775 1.77403
126 4 4.60689 11.68 6.59251
127 4 6.7447 12.468 2.65293
128 4 6.94299 16.2997 6.07241
129 4 5.23391 16.2106 2.68353
130 4 8.6009 12.8094 5.7085
131 4 1.61226 11.409 1.45278
132 4 3.08743 17.6566 7.10963
133 1 4.48511 10.2216 12.2578
134 1 0.882231 18.8312 13.3381
135 1 2.93271 15.0409 9.06553
136 1 2.4295 14.0084 16.5287
137 2 3.45744 18.3065 11.7236
138 2 1.89335 10.7684 13.9052
139 2 3.94269 13.3897 9.63592
140 2 1.50683 15.6441 15.9
141 2 2.18277 17.9873 12.0644
142 2 3.15421 11.1196 13.5513
143 2 5.16282 13.0716 9.28372
144 2 9.12812 15.9896 16.3441
145 2 2.98815 16.5242 10.4077
146 2 2.43036 12.5252 15.1209
147 2 4.54387 11.7427 10.9184
148 2 0.819635 17.4103 14.7381
149 5 5.92035 10.3887 13.7532
150 5 8.48458 18.6876 11.8233
151 5 6.32352 15.3113 16.1208
152 5 8.00163 13.8073 9.46275
153 5 7.99994 10.028 14.2717
154 5 6.31816 19.0351 11.3014
155 5 4.31901 14.9086 15.596
156 5 1.19176 14.1699 10.0334
157 3 3.99604 17.3722 10.7559
158 3 1.52734 11.6239 14.8958
159 3 3.59971 12.5601 10.6069
160 3 1.78039 16.4587 15.0298
161 3 1.92492 16.8972 11.2359
162 3 3.43399 12.1932 14.3577
163 3 5.49823 12.0446 10.0319
164 3 8.8315 17.0349 15.5855
165 6 7.03067 9.9378 13.4998
166 6 7.29117 19.0313 12.0982
167 6 5.27094 14.8242 16.3296
168 6 9.16587 14.292 9.23674
169 4 4.9274 17.3066 10.1708
170 4 0.619899 11.7117 15.5161
171 4 2.74206 12.7302 11.2951
172 4 2.76385 16.5339 14.5978
173 4 1.0044 16.3289 11.4219
174 4 4.39101 12.7158 14.1646
175 4 6.43162 11.5092 9.97194
176 4 7.87257 17.5696 15.5434
177 7 7.33662 13.3623 14.3549
178 8 6.8299 13.0424 15.0721
179 8 6.74826 13.0858 13.6382
180 7 6.90771 15.5898 12.4842
181 8 6.86199 16.4763 12.7404
182 8 7.83206 15.2763 12.4455
183 7 5.32956 4.9185 12.8976
184 8 4.38633 5.07152 12.9422
185 8 5.60908 5.80245 13.1809
186 7 7.14365 5.70724 11.309
187 8 7.63774 5.66418 12.0967
188 8 7.59776 6.24547 10.6684
189 7 2.97317 4.89156 4.48305
190 8 2.74343 5.84336 4.34394
191 8 2.16048 4.7226 3.94056
192 7 4.65073 2.87079 4.18222
193 8 4.4478 2.77483 3.25841
194 8 5.25609 3.56107 4.44609
ITEM: TIMESTEP
27
ITEM: NUMBER OF ATOMS
194
ITEM: BOX BOUNDS xy xz yz pp pp pp
-9.7899354197306110e-04 9.5453012623116429e+00 0.0000000000000000e+00
-2.1292542452435725e-03 1.9389128354245237e+01 6.3052206876966588e-01
-1.8739914981296124e-03 1.7064689091498117e+01 0.0000000000000000e+00
ITEM: ATOMS id type x y z
1 1 8.67839 0.531659 3.72925
2 1 5.00475 9.17062 4.78644
3 1 7.07698 5.39863 0.490847
4 1 6.59426 4.30339 8.0268
5 2 7.69095 8.6099 3.14932
6 2 6.04733 1.10553 5.43017
7 2 8.09745 3.71379 1.11037
8 2 5.61946 5.9635 7.40952
9 2 6.46798 8.22756 3.55675
10 2 7.37211 1.50162 4.9451
11 2 0.43111 3.41085 0.752489
12 2 4.36502 6.28157 7.85368
13 2 7.08693 6.85624 1.97046
14 2 6.60969 2.81075 6.63942
15 2 8.71893 1.97941 2.35455
16 2 4.96904 7.74041 6.13458
17 5 1.08901 0.767224 5.23509
18 5 3.70605 8.95648 3.30165
19 5 1.55981 5.63578 7.55662
20 5 3.14929 4.11098 1.02747
21 5 3.19809 0.315498 5.74725
22 5 1.55097 9.39738 2.76951
23 5 8.47602 5.11033 7.10701
24 5 5.25185 4.55237 1.50154
25 3 8.07006 7.73087 2.2157
26 3 5.59659 1.90436 6.39745
27 3 7.69241 2.89732 2.0998
28 3 5.97188 6.83243 6.41804
29 3 6.14235 7.13107 2.81679
30 3 7.53666 2.4797 5.7858
31 3 0.759843 2.3632 1.52013
32 3 3.97174 7.42732 7.01022
33 6 2.28002 0.350275 5.04006
34 6 2.51581 9.35229 3.54491
35 6 0.424157 5.19865 7.80174
36 6 4.31786 4.50786 0.740925
37 4 0.17935 7.68543 1.82742
38 4 4.59178 1.83031 6.81925
39 4 6.65854 2.98099 2.43826
40 4 7.03604 6.93461 6.14237
41 4 5.11827 6.7416 2.80025
42 4 8.58966 2.76759 5.76355
43 4 1.71834 1.85306 1.48371
44 4 3.0204 7.97782 7.15058
45 1 4.53233 0.545602 12.2823
46 1 0.896265 9.1553 13.2986
47 1 2.97284 5.34915 9.03249
48 1 2.44921 4.30098 16.5418
49 2 3.51759 8.60492 11.7187
50 2 1.7842 1.08953 13.824
51 2 3.94695 3.79532 9.70208
52 2 1.49606 5.98303 15.955
53 2 2.20171 8.23139 11.9573
54 2 3.14665 1.35879 13.594
55 2 5.28067 3.38368 9.27846
56 2 9.11685 6.3466 16.362
57 2 2.90383 6.86181 10.3957
58 2 2.45322 2.89763 15.2128
59 2 4.49679 1.91437 10.8636
60 2 0.852651 7.64124 14.6488
61 5 5.82159 0.70115 13.7519
62 5 8.46604 9.05927 11.9005
63 5 6.33705 5.61333 16.1485
64 5 7.98255 4.07853 9.4905
65 5 7.9309 0.323898 14.2746
66 5 6.32463 9.39792 11.2748
67 5 4.25381 5.13055 15.624
68 5 1.13653 4.5613 10.0368
69 3 3.96444 7.7198 10.7636
70 3 1.48117 1.94252 14.8261
71 3 3.5423 2.89128 10.5797
72 3 1.86402 6.84677 15.0179
73 3 1.91798 7.16266 11.2338
74 3 3.40846 2.50183 14.3017
75 3 5.55442 2.36476 9.99154
76 3 8.77369 7.3571 15.518
77 6 6.95552 0.33496 13.4935
78 6 7.26521 9.33706 12.1159
79 6 5.19832 5.24199 16.3089
80 6 9.11882 4.53719 9.26976
81 4 4.83424 7.75964 10.0928
82 4 9.44803 1.9381 15.3595
83 4 2.65198 3.00827 11.2109
84 4 2.70235 6.77199 14.3053
85 4 0.940368 6.68707 11.1805
86 4 4.44326 2.85234 14.3334
87 4 6.46002 1.75374 10.0348
88 4 7.78573 7.80226 15.6247
89 1 8.64915 10.2262 3.75271
90 1 5.03543 18.8455 4.76572
91 1 7.09685 15.0654 0.530879
92 1 6.59982 13.9927 8.02247
93 2 7.71864 18.3084 3.16066
94 2 6.00802 10.832 5.37585
95 2 8.09334 13.4043 1.05729
96 2 5.58906 15.6544 7.33689
97 2 6.39863 17.9993 3.47808
98 2 7.30948 11.1845 4.9904
99 2 0.441031 13.0608 0.736842
100 2 4.3467 16.094 7.79255
101 2 7.11443 16.5505 1.86023
102 2 6.63685 12.5325 6.59637
103 2 8.60665 11.7008 2.3895
104 2 4.99695 17.3626 6.18095
105 5 1.14376 10.4395 5.22397
106 5 3.64879 18.7297 3.29365
107 5 1.59225 15.2897 7.57319
108 5 3.21695 13.8354 0.961198
109 5 3.18024 10.0223 5.83055
110 5 1.52601 19.0603 2.73209
111 5 8.3747 14.8525 7.01938
112 5 5.27436 14.2483 1.50334
113 3 8.07018 17.4608 2.19796
114 3 5.66313 11.6408 6.33457
115 3 7.68832 12.5944 2.08867
116 3 5.94501 16.4268 6.429
117 3 6.11186 16.8644 2.77979
118 3 7.66432 12.2062 5.80969
119 3 0.684105 11.9975 1.56134
120 3 4.00296 17.0712 6.93723
121 6 2.27813 10.0546 4.99321
122 6 2.5588 19.1006 3.48691
123 6 0.410344 14.8872 7.85196
124 6 4.31467 14.2448 0.734542
125 4 0.154733 17.2715 1.77929
126 4 4.60226 11.6886 6.58801
127 4 6.74729 12.4651 2.65088
128 4 6.94927 16.3 6.06842
129 4 5.23406 16.2102 2.68508
130 4 8.59021 12.8053 5.70752
131 4 1.60258 11.4079 1.45281
132 4 3.09352 17.6597 7.11023
133 1 4.4841 10.221 12.2573
134 1 0.881828 18.8309 13.3388
135 1 2.93161 15.0392 9.06596
136 1 2.42908 14.009 16.5283
137 2 3.45547 18.3076 11.7247
138 2 1.89399 10.7667 13.905
139 2 3.94224 13.3889 9.63551
140 2 1.50748 15.6428 15.8997
141 2 2.1792 17.9892 12.0653
142 2 3.15527 11.1184 13.5511
143 2 5.16227 13.0714 9.28282
144 2 9.12914 15.9888 16.3457
145 2 2.98927 16.5227 10.4063
146 2 2.42973 12.5263 15.1208
147 2 4.54513 11.7431 10.9203
148 2 0.818136 17.4118 14.7389
149 5 5.92269 10.3867 13.753
150 5 8.48507 18.6897 11.823
151 5 6.3217 15.3126 16.1215
152 5 8.00522 13.8081 9.46158
153 5 7.99923 10.0286 14.27
154 5 6.31925 19.0337 11.3025
155 5 4.32225 14.9106 15.5977
156 5 1.19245 14.1681 10.0326
157 3 3.99745 17.3696 10.7577
158 3 1.52886 11.6234 14.8969
159 3 3.60045 12.559 10.6074
160 3 1.77746 16.4594 15.0301
161 3 1.92471 16.8983 11.2344
162 3 3.43393 12.1926 14.3584
163 3 5.4964 12.0449 10.0317
164 3 8.83207 17.0354 15.5869
165 6 7.03016 9.93594 13.5004
166 6 7.29187 19.0293 12.0978
167 6 5.27276 14.8231 16.3293
168 6 9.16627 14.2931 9.23772
169 4 4.93132 17.3028 10.1702
170 4 0.624441 11.7136 15.5177
171 4 2.75519 12.7319 11.2982
172 4 2.76568 16.5382 14.5997
173 4 1.00525 16.3257 11.4236
174 4 4.38259 12.7159 14.1641
175 4 6.43562 11.5066 9.9695
176 4 7.87921 17.5646 15.5448
177 7 7.33889 13.3619 14.3553
178 8 6.83219 13.0452 15.0713
179 8 6.74104 13.0927 13.6427
180 7 6.90756 15.5896 12.4849
181 8 6.86214 16.4738 12.7394
182 8 7.83727 15.2813 12.4397
183 7 5.32901 4.91733 12.8968
184 8 4.38395 5.06977 12.947
185 8 5.60647 5.8061 13.1661
186 7 7.14435 5.70829 11.3103
187 8 7.63611 5.6668 12.0978
188 8 7.60504 6.24372 10.6701
189 7 2.97151 4.8937 4.48179
190 8 2.73528 5.84686 4.3459
191 8 2.16091 4.72106 3.9304
192 7 4.65082 2.87078 4.18076
193 8 4.45498 2.76931 3.25433
194 8 5.25977 3.56403 4.44214
ITEM: TIMESTEP
28
ITEM: NUMBER OF ATOMS
194
ITEM: BOX BOUNDS xy xz yz pp pp pp
-1.0478849603412499e-03 9.5453798977268107e+00 0.0000000000000000e+00
-2.2790890896349225e-03 1.9389278189089630e+01 6.3053181276646764e-01
-2.0058635961373028e-03 1.7064820963596127e+01 0.0000000000000000e+00
ITEM: ATOMS id type x y z
1 1 8.67937 0.531068 3.72871
2 1 5.00375 9.1715 4.78635
3 1 7.07603 5.39878 0.489652
4 1 6.59476 4.30345 8.0275
5 2 7.69189 8.61124 3.14947
6 2 6.05016 1.10425 5.43135
7 2 8.09753 3.71354 1.11005
8 2 5.62015 5.96336 7.40947
9 2 6.46932 8.22724 3.55868
10 2 7.37407 1.50229 4.94266
11 2 0.431761 3.41165 0.751924
12 2 4.36516 6.28184 7.85578
13 2 7.08711 6.855 1.97149
14 2 6.60944 2.81038 6.64119
15 2 8.72011 1.97782 2.35521
16 2 4.96739 7.74319 6.13266
17 5 1.08992 0.767706 5.23556
18 5 3.70599 8.95702 3.30147
19 5 1.55735 5.63726 7.556
20 5 3.14959 4.11153 1.02979
21 5 3.19708 0.315377 5.74683
22 5 1.55197 9.3981 2.7702
23 5 8.47859 5.1083 7.10903
24 5 5.24972 4.55322 1.50119
25 3 8.07072 7.73036 2.21651
26 3 5.59658 1.903 6.40006
27 3 7.6935 2.89694 2.10017
28 3 5.97042 6.83393 6.41693
29 3 6.14431 7.12957 2.81987
30 3 7.53565 2.4788 5.78514
31 3 0.759741 2.36389 1.52023
32 3 3.97037 7.42886 7.01102
33 6 2.27835 0.351803 5.0403
34 6 2.51728 9.35077 3.54456
35 6 0.426279 5.20045 7.80298
36 6 4.31593 4.50665 0.741186
37 4 0.174368 7.67855 1.83264
38 4 4.59208 1.83162 6.82073
39 4 6.65535 2.9758 2.43858
40 4 7.03946 6.94433 6.14626
41 4 5.11793 6.74238 2.79976
42 4 8.58992 2.76366 5.76907
43 4 1.72173 1.85293 1.48278
44 4 3.02489 7.97932 7.15302
45 1 4.53306 0.545482 12.2826
46 1 0.896411 9.15559 13.2978
47 1 2.97325 5.34749 9.03171
48 1 2.44952 4.30099 16.542
49 2 3.51709 8.60559 11.7197
50 2 1.78179 1.08856 13.8207
51 2 3.94844 3.79749 9.70338
52 2 1.49678 5.98344 15.9558
53 2 2.19918 8.23197 11.9551
54 2 3.14676 1.35505 13.5953
55 2 5.28242 3.38477 9.27745
56 2 9.11716 6.34794 16.3639
57 2 2.90284 6.86167 10.3936
58 2 2.45306 2.89949 15.2148
59 2 4.49627 1.9113 10.8623
60 2 0.851359 7.64059 14.6461
61 5 5.82015 0.699412 13.7518
62 5 8.46597 9.06343 11.9026
63 5 6.33534 5.61433 16.1497
64 5 7.98507 4.07752 9.49026
65 5 7.9274 0.32416 14.2731
66 5 6.32594 9.39868 11.2749
67 5 4.25421 5.12948 15.626
68 5 1.13536 4.56247 10.0367
69 3 3.96424 7.71792 10.7653
70 3 1.48157 1.94331 14.8251
71 3 3.54185 2.88993 10.5796
72 3 1.86452 6.84932 15.0185
73 3 1.91717 7.16139 11.2319
74 3 3.40605 2.50151 14.3015
75 3 5.5546 2.36351 9.99151
76 3 8.77412 7.35658 15.5175
77 6 6.95324 0.335893 13.4935
78 6 7.26521 9.33485 12.1162
79 6 5.19854 5.24445 16.3098
80 6 9.11816 4.53682 9.27018
81 4 4.83914 7.76086 10.0862
82 4 9.44775 1.93971 15.3586
83 4 2.65924 3.00923 11.2119
84 4 2.69734 6.77103 14.3014
85 4 0.93717 6.68856 11.176
86 4 4.44985 2.84914 14.3369
87 4 6.45928 1.75589 10.0308
88 4 7.77775 7.80595 15.6239
89 1 8.64903 10.2257 3.75305
90 1 5.03553 18.8458 4.76485
91 1 7.09665 15.0647 0.531084
92 1 6.60045 13.9927 8.02296
93 2 7.71997 18.31 3.16139
94 2 6.00854 10.8325 5.37503
95 2 8.09321 13.4038 1.05532
96 2 5.58784 15.6538 7.33505
97 2 6.39799 18.002 3.47729
98 2 7.31072 11.1853 4.98911
99 2 0.441696 13.0601 0.735851
100 2 4.3469 16.097 7.79326
101 2 7.11499 16.5504 1.85868
102 2 6.63818 12.5336 6.59625
103 2 8.60468 11.6998 2.39131
104 2 4.9968 17.3632 6.17982
105 5 1.14583 10.4395 5.22396
106 5 3.64826 18.7327 3.29266
107 5 1.59056 15.2895 7.57342
108 5 3.21868 13.8367 0.961364
109 5 3.17783 10.0226 5.8321
110 5 1.52671 19.06 2.73171
111 5 8.37528 14.8522 7.02007
112 5 5.27271 14.2491 1.50284
113 3 8.07041 17.4607 2.19736
114 3 5.66503 11.641 6.33424
115 3 7.68813 12.594 2.08944
116 3 5.94261 16.4252 6.42787
117 3 6.11389 16.8633 2.77959
118 3 7.66762 12.207 5.81043
119 3 0.682067 11.9961 1.56246
120 3 4.00169 17.072 6.9352
121 6 2.27826 10.0566 4.9938
122 6 2.55872 19.1022 3.48528
123 6 0.410781 14.8898 7.8515
124 6 4.31465 14.2455 0.73507
125 4 0.154762 17.2657 1.7848
126 4 4.5978 11.6976 6.58371
127 4 6.74978 12.4626 2.64838
128 4 6.95552 16.3008 6.06405
129 4 5.234 16.2103 2.68712
130 4 8.5793 12.8011 5.70649
131 4 1.59277 11.4069 1.45288
132 4 3.0998 17.6629 7.11075
133 1 4.4831 10.2203 12.2567
134 1 0.881418 18.8307 13.3395
135 1 2.93052 15.0374 9.06638
136 1 2.42867 14.0096 16.528
137 2 3.45361 18.3088 11.7257
138 2 1.8946 10.7649 13.9049
139 2 3.94173 13.3882 9.6351
140 2 1.50804 15.6414 15.8995
141 2 2.17562 17.991 12.0662
142 2 3.15635 11.1173 13.5509
143 2 5.16182 13.0713 9.28187
144 2 9.13018 15.988 16.3473
145 2 2.99036 16.5211 10.4049
146 2 2.42911 12.5274 15.1207
147 2 4.54643 11.7434 10.9223
148 2 0.816717 17.4132 14.7396
149 5 5.92504 10.3847 13.7529
150 5 8.4855 18.6917 11.8226
151 5 6.31993 15.3139 16.1222
152 5 8.00889 13.809 9.46042
153 5 7.99851 10.0291 14.2683
154 5 6.32039 19.0324 11.3035
155 5 4.32546 14.9126 15.5994
156 5 1.19314 14.1662 10.0318
157 3 3.99875 17.3671 10.7595
158 3 1.53036 11.623 14.898
159 3 3.60111 12.5578 10.6079
160 3 1.77456 16.4602 15.0303
161 3 1.92452 16.8995 11.233
162 3 3.43393 12.1919 14.359
163 3 5.49458 12.0451 10.0314
164 3 8.83257 17.0359 15.5883
165 6 7.02966 9.9341 13.5011
166 6 7.29257 19.0272 12.0975
167 6 5.2745 14.822 16.329
168 6 9.16655 14.2941 9.23876
169 4 4.93524 17.2993 10.1699
170 4 0.628865 11.7151 15.5189
171 4 2.76843 12.7335 11.3009
172 4 2.76759 16.5425 14.6016
173 4 1.00627 16.3225 11.4251
174 4 4.37392 12.7162 14.1637
175 4 6.43969 11.5041 9.96701
176 4 7.88579 17.5595 15.5466
177 7 7.34117 13.3615 14.3556
178 8 6.83428 13.0479 15.0711
179 8 6.73405 13.0998 13.6472
180 7 6.90744 15.5892 12.4857
181 8 6.86245 16.472 12.7385
182 8 7.84203 15.2867 12.434
183 7 5.32845 4.91617 12.8959
184 8 4.38149 5.06782 12.9517
185 8 5.60401 5.80954 13.1512
186 7 7.14502 5.70935 11.3116
187 8 7.6349 5.6694 12.0993
188 8 7.6125 6.242 10.6719
189 7 2.96978 4.89589 4.4805
190 8 2.72764 5.85024 4.34826
191 8 2.16179 4.71897 3.92051
192 7 4.65087 2.87078 4.17928
193 8 4.46236 2.76415 3.25017
194 8 5.26332 3.56696 4.43782
ITEM: TIMESTEP
29
ITEM: NUMBER OF ATOMS
194
ITEM: BOX BOUNDS xy xz yz pp pp pp
-1.1185112585412327e-03 9.5454605134030803e+00 0.0000000000000000e+00
-2.4326971971664335e-03 1.9389431797197162e+01 6.3054180214453637e-01
-2.1410566047688206e-03 1.7064956156604758e+01 0.0000000000000000e+00
ITEM: ATOMS id type x y z
1 1 8.68035 0.530475 3.72816
2 1 5.00275 9.17238 4.78627
3 1 7.07509 5.39893 0.488458
4 1 6.59526 4.30352 8.0282
5 2 7.69287 8.61261 3.14964
6 2 6.05309 1.10287 5.43248
7 2 8.09755 3.71335 1.10972
8 2 5.62085 5.96319 7.40942
9 2 6.47059 8.2269 3.5606
10 2 7.37589 1.50289 4.94029
11 2 0.432473 3.41244 0.751349
12 2 4.36522 6.28222 7.85777
13 2 7.08734 6.85366 1.97243
14 2 6.60911 2.81005 6.64304
15 2 8.72121 1.9762 2.3559
16 2 4.96577 7.74601 6.13074
17 5 1.0909 0.768164 5.23605
18 5 3.70585 8.95758 3.30127
19 5 1.55486 5.63875 7.55536
20 5 3.14996 4.11209 1.0321
21 5 3.19612 0.315251 5.74646
22 5 1.553 9.39881 2.7709
23 5 8.48105 5.10627 7.11095
24 5 5.24761 4.55408 1.50083
25 3 8.07138 7.72986 2.21733
26 3 5.59665 1.90164 6.40269
27 3 7.69467 2.89655 2.1005
28 3 5.96894 6.83543 6.41582
29 3 6.14625 7.12813 2.82301
30 3 7.53477 2.47791 5.78443
31 3 0.759661 2.36457 1.52032
32 3 3.96905 7.43026 7.01191
33 6 2.27654 0.353295 5.04032
34 6 2.51881 9.34927 3.54425
35 6 0.428565 5.20222 7.80441
36 6 4.31392 4.50548 0.741347
37 4 0.169282 7.67155 1.8378
38 4 4.59251 1.83316 6.82233
39 4 6.65238 2.97014 2.43914
40 4 7.0426 6.95415 6.15009
41 4 5.11773 6.74308 2.79922
42 4 8.59001 2.76016 5.77497
43 4 1.7251 1.85286 1.48177
44 4 3.02957 7.98075 7.15542
45 1 4.5338 0.545356 12.283
46 1 0.896552 9.15587 13.2971
47 1 2.97366 5.34582 9.03094
48 1 2.44983 4.30101 16.5422
49 2 3.5166 8.60625 11.7207
50 2 1.77944 1.08756 13.8175
51 2 3.95002 3.79966 9.70462
52 2 1.49746 5.9838 15.9565
53 2 2.19666 8.2326 11.953
54 2 3.14682 1.35133 13.5966
55 2 5.28408 3.38595 9.27643
56 2 9.11748 6.34927 16.3658
57 2 2.90192 6.86151 10.3914
58 2 2.45286 2.90129 15.2167
59 2 4.49579 1.90829 10.8609
60 2 0.85005 7.64 14.6434
61 5 5.81871 0.697667 13.7517
62 5 8.46586 9.0676 11.9047
63 5 6.33363 5.61536 16.1508
64 5 7.98764 4.07651 9.49001
65 5 7.92388 0.324424 14.2716
66 5 6.32728 9.39943 11.2751
67 5 4.25457 5.12844 15.6279
68 5 1.13421 4.56364 10.0365
69 3 3.96394 7.71598 10.7669
70 3 1.48198 1.94416 14.8242
71 3 3.54142 2.8885 10.5796
72 3 1.86501 6.85189 15.0191
73 3 1.91636 7.1601 11.2299
74 3 3.40366 2.50118 14.3013
75 3 5.55471 2.3621 9.99164
76 3 8.77456 7.35603 15.517
77 6 6.95106 0.336787 13.4934
78 6 7.26524 9.33264 12.1164
79 6 5.19876 5.24681 16.311
80 6 9.11746 4.53646 9.27053
81 4 4.844 7.76234 10.0799
82 4 9.44743 1.94128 15.3576
83 4 2.66652 3.0102 11.2128
84 4 2.69234 6.76982 14.2979
85 4 0.933966 6.69018 11.1715
86 4 4.45627 2.84596 14.3405
87 4 6.45867 1.75832 10.0265
88 4 7.76994 7.80978 15.6228
89 1 8.64892 10.2252 3.75339
90 1 5.03562 18.8461 4.76398
91 1 7.09644 15.0639 0.531284
92 1 6.60108 13.9927 8.02345
93 2 7.72128 18.3116 3.16215
94 2 6.00909 10.8331 5.37415
95 2 8.09303 13.4033 1.05338
96 2 5.58656 15.653 7.33331
97 2 6.39733 18.0047 3.47651
98 2 7.31196 11.1861 4.98784
99 2 0.44239 13.0593 0.734865
100 2 4.3471 16.1 7.79396
101 2 7.11553 16.5502 1.85718
102 2 6.6395 12.5348 6.59617
103 2 8.60272 11.6987 2.39315
104 2 4.99672 17.3639 6.17859
105 5 1.14791 10.4396 5.22397
106 5 3.64778 18.7356 3.29161
107 5 1.58878 15.2893 7.57365
108 5 3.22039 13.8381 0.96155
109 5 3.17541 10.0229 5.83362
110 5 1.52748 19.0597 2.73136
111 5 8.3759 14.8519 7.02083
112 5 5.27106 14.25 1.50234
113 3 8.07064 17.4606 2.19669
114 3 5.6669 11.6411 6.33392
115 3 7.68796 12.5936 2.09022
116 3 5.94022 16.4238 6.42668
117 3 6.11598 16.8621 2.7793
118 3 7.6709 12.2077 5.81115
119 3 0.680063 11.9947 1.56354
120 3 4.00036 17.0729 6.93325
121 6 2.27839 10.0587 4.99434
122 6 2.55844 19.1039 3.48378
123 6 0.411298 14.8923 7.85094
124 6 4.31473 14.2462 0.73553
125 4 0.154775 17.2603 1.79054
126 4 4.59357 11.7069 6.57958
127 4 6.75215 12.4605 2.64544
128 4 6.96165 16.302 6.05933
129 4 5.23374 16.2111 2.68963
130 4 8.56832 12.7968 5.70539
131 4 1.5829 11.4059 1.453
132 4 3.10622 17.6662 7.1112
133 1 4.4821 10.2196 12.2561
134 1 0.881 18.8304 13.3402
135 1 2.92943 15.0358 9.0668
136 1 2.42827 14.0102 16.5276
137 2 3.45186 18.3099 11.7266
138 2 1.89517 10.7631 13.9047
139 2 3.94116 13.3876 9.6347
140 2 1.50851 15.64 15.8995
141 2 2.17202 17.9927 12.0671
142 2 3.15745 11.1162 13.5507
143 2 5.16146 13.0711 9.28087
144 2 9.13126 15.9872 16.3488
145 2 2.99141 16.5196 10.4036
146 2 2.42852 12.5287 15.1207
147 2 4.54775 11.7436 10.9243
148 2 0.815376 17.4147 14.7403
149 5 5.92739 10.3827 13.7528
150 5 8.48586 18.6938 11.8223
151 5 6.31821 15.3153 16.1229
152 5 8.01264 13.8099 9.45926
153 5 7.99779 10.0297 14.2665
154 5 6.32157 19.031 11.3046
155 5 4.32866 14.9145 15.601
156 5 1.19382 14.1644 10.031
157 3 3.99994 17.3646 10.7614
158 3 1.53184 11.6226 14.8992
159 3 3.60171 12.5567 10.6084
160 3 1.77169 16.4612 15.0303
161 3 1.92436 16.9007 11.2316
162 3 3.43397 12.1911 14.3595
163 3 5.49277 12.0453 10.0312
164 3 8.833 17.0365 15.5897
165 6 7.02916 9.93227 13.5019
166 6 7.29326 19.0252 12.0971
167 6 5.27617 14.8209 16.3289
168 6 9.1667 14.2951 9.23987
169 4 4.93913 17.2963 10.17
170 4 0.633143 11.7162 15.5197
171 4 2.78172 12.7352 11.3036
172 4 2.76952 16.5468 14.6035
173 4 1.0075 16.3192 11.4264
174 4 4.36505 12.7167 14.1637
175 4 6.44376 11.5017 9.96446
176 4 7.89223 17.5542 15.5486
177 7 7.34347 13.3611 14.3559
178 8 6.83618 13.0505 15.0716
179 8 6.72732 13.1071 13.6516
180 7 6.90733 15.5888 12.4864
181 8 6.8629 16.4711 12.7379
182 8 7.84629 15.2923 12.4284
183 7 5.32787 4.91503 12.8951
184 8 4.37899 5.06566 12.9564
185 8 5.6017 5.81277 13.1362
186 7 7.14565 5.71044 11.3128
187 8 7.63411 5.67198 12.1013
188 8 7.6201 6.24029 10.6737
189 7 2.96798 4.89813 4.47915
190 8 2.72051 5.85345 4.35103
191 8 2.16316 4.71632 3.91091
192 7 4.65088 2.8708 4.17777
193 8 4.46992 2.75934 3.24596
194 8 5.26671 3.56982 4.4331
ITEM: TIMESTEP
30
ITEM: NUMBER OF ATOMS
194
ITEM: BOX BOUNDS xy xz yz pp pp pp
-1.1907897153315972e-03 9.5455430149191223e+00 0.0000000000000000e+00
-2.5898986539303337e-03 1.9389588998653927e+01 6.3055202520378639e-01
-2.2794121788507482e-03 1.7065094512178838e+01 0.0000000000000000e+00
ITEM: ATOMS id type x y z
1 1 8.68134 0.529881 3.72761
2 1 5.00175 9.17327 4.78619
3 1 7.07414 5.39907 0.487267
4 1 6.59577 4.30358 8.02891
5 2 7.6939 8.61402 3.14982
6 2 6.05612 1.10141 5.43354
7 2 8.09752 3.71324 1.10937
8 2 5.62156 5.96299 7.40939
9 2 6.47178 8.22654 3.56251
10 2 7.37755 1.50341 4.93799
11 2 0.433246 3.41322 0.750766
12 2 4.36522 6.28272 7.85965
13 2 7.08762 6.85223 1.9733
14 2 6.6087 2.80975 6.64496
15 2 8.72222 1.97457 2.35664
16 2 4.96417 7.74887 6.12882
17 5 1.09196 0.768597 5.23656
18 5 3.70563 8.95816 3.30107
19 5 1.55234 5.64022 7.55471
20 5 3.15038 4.11267 1.03441
21 5 3.19521 0.315122 5.74616
22 5 1.55404 9.39952 2.77161
23 5 8.4834 5.10423 7.11275
24 5 5.24551 4.55494 1.50048
25 3 8.07203 7.72938 2.21815
26 3 5.59681 1.90031 6.40533
27 3 7.69589 2.89615 2.10081
28 3 5.96744 6.83693 6.41474
29 3 6.14814 7.12673 2.82621
30 3 7.53403 2.47703 5.78366
31 3 0.759608 2.36524 1.52041
32 3 3.96779 7.43153 7.01288
33 6 2.27458 0.354749 5.04012
34 6 2.5204 9.34779 3.54399
35 6 0.431005 5.20397 7.80604
36 6 4.31185 4.50434 0.741408
37 4 0.164167 7.66445 1.84287
38 4 4.59308 1.83492 6.82406
39 4 6.64967 2.96402 2.43991
40 4 7.0454 6.96407 6.15388
41 4 5.1177 6.74371 2.79865
42 4 8.58992 2.75709 5.78124
43 4 1.72843 1.85287 1.48066
44 4 3.03439 7.98214 7.15779
45 1 4.53453 0.545222 12.2833
46 1 0.896688 9.15616 13.2963
47 1 2.97407 5.34415 9.03016
48 1 2.45014 4.30102 16.5424
49 2 3.51612 8.6069 11.7215
50 2 1.77716 1.08655 13.8142
51 2 3.9517 3.80183 9.7058
52 2 1.49811 5.98411 15.9574
53 2 2.19414 8.23329 11.9509
54 2 3.14684 1.34764 13.598
55 2 5.28564 3.38723 9.27538
56 2 9.11781 6.3506 16.3677
57 2 2.90108 6.86133 10.3893
58 2 2.45264 2.90303 15.2186
59 2 4.49533 1.90535 10.8595
60 2 0.848726 7.63948 14.6408
61 5 5.81728 0.695916 13.7516
62 5 8.4657 9.07177 11.9067
63 5 6.33194 5.61641 16.1518
64 5 7.99025 4.07548 9.48975
65 5 7.92033 0.324692 14.2701
66 5 6.32866 9.40018 11.2753
67 5 4.25489 5.1274 15.6297
68 5 1.13307 4.56481 10.0364
69 3 3.96356 7.714 10.7685
70 3 1.4824 1.94508 14.8233
71 3 3.54102 2.88699 10.5796
72 3 1.86551 6.8545 15.0196
73 3 1.91553 7.1588 11.228
74 3 3.40131 2.50085 14.3011
75 3 5.55475 2.36054 9.99193
76 3 8.775 7.35546 15.5166
77 6 6.94896 0.337641 13.4933
78 6 7.26528 9.33042 12.1165
79 6 5.19899 5.24906 16.3124
80 6 9.11671 4.53611 9.27079
81 4 4.84874 7.76407 10.0741
82 4 9.44705 1.94279 15.3564
83 4 2.67377 3.01116 11.2136
84 4 2.68738 6.76835 14.2947
85 4 0.93077 6.69196 11.167
86 4 4.46243 2.84279 14.3442
87 4 6.45821 1.761 10.0218
88 4 7.76241 7.81371 15.6214
89 1 8.6488 10.2248 3.75373
90 1 5.03571 18.8464 4.7631
91 1 7.09625 15.0632 0.531477
92 1 6.60171 13.9927 8.02394
93 2 7.72256 18.3133 3.16293
94 2 6.0097 10.8335 5.37323
95 2 8.09278 13.4029 1.05147
96 2 5.58522 15.6521 7.33168
97 2 6.39666 18.0074 3.47572
98 2 7.3132 11.187 4.98658
99 2 0.44311 13.0585 0.733887
100 2 4.3473 16.1029 7.79464
101 2 7.11605 16.55 1.85572
102 2 6.64079 12.5361 6.59615
103 2 8.60078 11.6975 2.39502
104 2 4.99671 17.3647 6.17727
105 5 1.14998 10.4396 5.22399
106 5 3.64736 18.7386 3.29051
107 5 1.58692 15.2891 7.57389
108 5 3.22206 13.8395 0.961758
109 5 3.17299 10.0232 5.83511
110 5 1.52832 19.0593 2.73104
111 5 8.37657 14.8516 7.02164
112 5 5.26939 14.2508 1.50184
113 3 8.07087 17.4604 2.19596
114 3 5.66876 11.6413 6.33362
115 3 7.68779 12.5932 2.091
116 3 5.93786 16.4223 6.42544
117 3 6.11814 16.8609 2.77891
118 3 7.67417 12.2085 5.81185
119 3 0.678088 11.9934 1.56457
120 3 3.99899 17.0737 6.93137
121 6 2.27853 10.0606 4.99484
122 6 2.55797 19.1057 3.48239
123 6 0.411892 14.895 7.85029
124 6 4.31489 14.2469 0.73592
125 4 0.154786 17.2551 1.79651
126 4 4.58964 11.7165 6.5756
127 4 6.75435 12.4588 2.6421
128 4 6.96757 16.3038 6.05431
129 4 5.2333 16.2124 2.69261
130 4 8.55741 12.7926 5.70421
131 4 1.57304 11.4049 1.45315
132 4 3.11275 17.6696 7.11158
133 1 4.4811 10.2189 12.2556
134 1 0.880575 18.8301 13.3409
135 1 2.92834 15.0341 9.06722
136 1 2.42787 14.0107 16.5272
137 2 3.4502 18.311 11.7275
138 2 1.8957 10.7613 13.9046
139 2 3.94052 13.3871 9.63431
140 2 1.5089 15.6384 15.8997
141 2 2.16842 17.9944 12.0679
142 2 3.15858 11.115 13.5506
143 2 5.16121 13.071 9.27984
144 2 9.13236 15.9864 16.3504
145 2 2.99244 16.518 10.4023
146 2 2.42794 12.5301 15.1207
147 2 4.54911 11.7437 10.9263
148 2 0.814114 17.4161 14.741
149 5 5.92973 10.3808 13.7527
150 5 8.48615 18.6959 11.822
151 5 6.31653 15.3167 16.1236
152 5 8.01646 13.8108 9.45811
153 5 7.99706 10.0303 14.2648
154 5 6.32279 19.0297 11.3058
155 5 4.33182 14.9165 15.6026
156 5 1.19449 14.1626 10.0301
157 3 4.00102 17.3621 10.7632
158 3 1.5333 11.6222 14.9003
159 3 3.60224 12.5556 10.609
160 3 1.76886 16.4623 15.0302
161 3 1.92423 16.9019 11.2302
162 3 3.43406 12.1903 14.36
163 3 5.49098 12.0454 10.031
164 3 8.83336 17.0372 15.5912
165 6 7.02868 9.93045 13.5026
166 6 7.29395 19.0232 12.0967
167 6 5.27775 14.8197 16.3288
168 6 9.16674 14.2959 9.24105
169 4 4.94295 17.2936 10.1705
170 4 0.63725 11.717 15.5201
171 4 2.79497 12.737 11.3061
172 4 2.77145 16.551 14.6055
173 4 1.00893 16.316 11.4274
174 4 4.35607 12.7175 14.1638
175 4 6.44777 11.4994 9.96187
176 4 7.89846 17.5488 15.5509
177 7 7.34576 13.3606 14.3562
178 8 6.83788 13.0529 15.0727
179 8 6.72086 13.1146 13.6559
180 7 6.90725 15.5884 12.487
181 8 6.86349 16.471 12.7376
182 8 7.85001 15.2982 12.4229
183 7 5.32727 4.91391 12.8943
184 8 4.37647 5.06328 12.9611
185 8 5.59954 5.81579 13.1211
186 7 7.14624 5.71156 11.3141
187 8 7.63376 5.67453 12.1037
188 8 7.62784 6.23856 10.6756
189 7 2.96611 4.90043 4.47776
190 8 2.71389 5.85648 4.35421
191 8 2.16505 4.71316 3.90165
192 7 4.65086 2.87082 4.17623
193 8 4.47768 2.75489 3.24173
194 8 5.26989 3.57254 4.42799
ITEM: TIMESTEP
31
ITEM: NUMBER OF ATOMS
194
ITEM: BOX BOUNDS xy xz yz pp pp pp
-1.2646319457569888e-03 9.5456273013888158e+00 0.0000000000000000e+00
-2.7505012277693197e-03 1.9389749601227766e+01 6.3056246944305649e-01
-2.4207611317166311e-03 1.7065235861131704e+01 0.0000000000000000e+00
ITEM: ATOMS id type x y z
1 1 8.68234 0.529287 3.72705
2 1 5.00076 9.17415 4.7861
3 1 7.07319 5.39922 0.486078
4 1 6.59628 4.30363 8.02962
5 2 7.69496 8.61546 3.15002
6 2 6.05925 1.09986 5.43454
7 2 8.09742 3.71319 1.10902
8 2 5.62228 5.96275 7.40937
9 2 6.47291 8.22618 3.56442
10 2 7.37906 1.50386 4.93575
11 2 0.434077 3.41399 0.750175
12 2 4.36514 6.28333 7.86143
13 2 7.08793 6.85071 1.97408
14 2 6.6082 2.80949 6.64696
15 2 8.72314 1.97291 2.35741
16 2 4.96259 7.75177 6.1269
17 5 1.09309 0.769009 5.2371
18 5 3.70534 8.95875 3.30085
19 5 1.5498 5.6417 7.55404
20 5 3.15086 4.11327 1.0367
21 5 3.19435 0.31499 5.74591
22 5 1.55511 9.40022 2.77233
23 5 8.48565 5.10217 7.11445
24 5 5.24342 4.5558 1.50014
25 3 8.07266 7.72891 2.21898
26 3 5.59705 1.89899 6.40799
27 3 7.69718 2.89572 2.1011
28 3 5.96593 6.83843 6.41366
29 3 6.15 7.12539 2.82945
30 3 7.53343 2.47618 5.78284
31 3 0.759585 2.36588 1.52049
32 3 3.96659 7.43266 7.01393
33 6 2.27249 0.356163 5.0397
34 6 2.52203 9.34633 3.54378
35 6 0.433591 5.20569 7.80786
36 6 4.30972 4.50323 0.741369
37 4 0.159095 7.65725 1.84783
38 4 4.59375 1.83688 6.8259
39 4 6.64724 2.95745 2.44086
40 4 7.04783 6.97407 6.15763
41 4 5.11785 6.74428 2.79804
42 4 8.58965 2.75443 5.78786
43 4 1.73167 1.85296 1.47948
44 4 3.0393 7.98352 7.16013
45 1 4.53526 0.545083 12.2836
46 1 0.896818 9.15644 13.2956
47 1 2.97449 5.34247 9.02939
48 1 2.45045 4.30104 16.5425
49 2 3.51565 8.60753 11.7224
50 2 1.77494 1.08552 13.811
51 2 3.95348 3.804 9.70693
52 2 1.49871 5.98436 15.9582
53 2 2.19164 8.23403 11.9488
54 2 3.14682 1.34396 13.5993
55 2 5.28709 3.38859 9.27431
56 2 9.11816 6.35191 16.3696
57 2 2.90031 6.86113 10.3871
58 2 2.45239 2.90472 15.2204
59 2 4.49492 1.90246 10.8581
60 2 0.847386 7.63903 14.638
61 5 5.81585 0.694158 13.7516
62 5 8.4655 9.07594 11.9087
63 5 6.33025 5.61748 16.1528
64 5 7.9929 4.07444 9.4895
65 5 7.91675 0.324964 14.2686
66 5 6.33008 9.40093 11.2755
67 5 4.25518 5.12638 15.6315
68 5 1.13195 4.56598 10.0362
69 3 3.96311 7.71196 10.7701
70 3 1.48285 1.94606 14.8226
71 3 3.54065 2.88542 10.5797
72 3 1.86601 6.85714 15.02
73 3 1.9147 7.15747 11.226
74 3 3.39899 2.50052 14.301
75 3 5.55472 2.35883 9.99237
76 3 8.77542 7.35486 15.5162
77 6 6.94696 0.338453 13.4932
78 6 7.26533 9.3282 12.1167
79 6 5.1992 5.2512 16.3141
80 6 9.11593 4.53578 9.27097
81 4 4.85328 7.76605 10.0688
82 4 9.44663 1.94427 15.355
83 4 2.68093 3.01214 11.2144
84 4 2.68245 6.76663 14.2918
85 4 0.927594 6.6939 11.1626
86 4 4.46826 2.83959 14.3481
87 4 6.45792 1.7639 10.0168
88 4 7.75524 7.81769 15.6198
89 1 8.64869 10.2243 3.75406
90 1 5.03581 18.8467 4.76223
91 1 7.09605 15.0624 0.531665
92 1 6.60234 13.9927 8.02442
93 2 7.72382 18.315 3.16373
94 2 6.01036 10.8339 5.37224
95 2 8.09247 13.4025 1.0496
96 2 5.58384 15.6512 7.33015
97 2 6.39599 18.0101 3.47494
98 2 7.31444 11.1878 4.98536
99 2 0.443856 13.0576 0.732918
100 2 4.34748 16.1059 7.7953
101 2 7.11656 16.5498 1.85431
102 2 6.64207 12.5375 6.59616
103 2 8.59885 11.6963 2.39691
104 2 4.99676 17.3656 6.17586
105 5 1.15205 10.4397 5.22404
106 5 3.64699 18.7414 3.28936
107 5 1.585 15.2889 7.57412
108 5 3.22369 13.8408 0.961987
109 5 3.17057 10.0235 5.83656
110 5 1.52923 19.059 2.73075
111 5 8.37729 14.8513 7.0225
112 5 5.26772 14.2517 1.50133
113 3 8.0711 17.4602 2.19517
114 3 5.67058 11.6414 6.33334
115 3 7.68765 12.5928 2.09178
116 3 5.93554 16.421 6.42414
117 3 6.12036 16.8596 2.77842
118 3 7.67739 12.2092 5.81253
119 3 0.676135 11.9922 1.56555
120 3 3.99758 17.0744 6.92957
121 6 2.27868 10.0626 4.9953
122 6 2.55731 19.1076 3.48113
123 6 0.412557 14.8976 7.84955
124 6 4.31515 14.2477 0.736236
125 4 0.154814 17.2502 1.8027
126 4 4.58605 11.7264 6.57175
127 4 6.75633 12.4575 2.63836
128 4 6.97317 16.3061 6.04904
129 4 5.23268 16.2143 2.69604
130 4 8.54669 12.7885 5.70293
131 4 1.56324 11.4038 1.45332
132 4 3.11934 17.6732 7.11192
133 1 4.48011 10.2182 12.255
134 1 0.880142 18.8299 13.3416
135 1 2.92725 15.0324 9.06764
136 1 2.42747 14.0113 16.5268
137 2 3.44865 18.3121 11.7284
138 2 1.8962 10.7594 13.9045
139 2 3.93982 13.3866 9.63393
140 2 1.50919 15.6367 15.9
141 2 2.16481 17.9961 12.0687
142 2 3.15973 11.114 13.5505
143 2 5.16104 13.0708 9.27876
144 2 9.1335 15.9855 16.3519
145 2 2.99343 16.5164 10.401
146 2 2.42739 12.5315 15.1209
147 2 4.5505 11.7438 10.9284
148 2 0.81293 17.4176 14.7416
149 5 5.93207 10.3788 13.7526
150 5 8.48638 18.698 11.8216
151 5 6.31491 15.3181 16.1243
152 5 8.02034 13.8118 9.45698
153 5 7.99632 10.0309 14.263
154 5 6.32405 19.0283 11.3069
155 5 4.33496 14.9185 15.6042
156 5 1.19515 14.1608 10.0292
157 3 4.00198 17.3596 10.7652
158 3 1.53473 11.6217 14.9014
159 3 3.60273 12.5545 10.6095
160 3 1.76607 16.4635 15.03
161 3 1.92412 16.9032 11.2289
162 3 3.43418 12.1894 14.3603
163 3 5.48922 12.0455 10.0308
164 3 8.83368 17.0378 15.5926
165 6 7.02821 9.92865 13.5035
166 6 7.29462 19.0212 12.0963
167 6 5.27926 14.8185 16.3288
168 6 9.16667 14.2968 9.24227
169 4 4.94669 17.2914 10.1715
170 4 0.641158 11.7174 15.5201
171 4 2.80812 12.7388 11.3085
172 4 2.77332 16.5552 14.6075
173 4 1.01059 16.3127 11.4283
174 4 4.34703 12.7185 14.1641
175 4 6.45164 11.4974 9.95925
176 4 7.90438 17.5433 15.5535
177 7 7.34807 13.3602 14.3564
178 8 6.83937 13.0552 15.0745
179 8 6.71467 13.1223 13.6602
180 7 6.90719 15.5878 12.4877
181 8 6.8642 16.4717 12.7374
182 8 7.85316 15.3044 12.4175
183 7 5.32665 4.91281 12.8935
184 8 4.37399 5.06068 12.9658
185 8 5.59753 5.81861 13.1058
186 7 7.1468 5.71269 11.3153
187 8 7.63384 5.67706 12.1066
188 8 7.63569 6.23681 10.6777
189 7 2.96417 4.90278 4.47632
190 8 2.70777 5.85929 4.35778
191 8 2.1675 4.70951 3.89273
192 7 4.65081 2.87087 4.17466
193 8 4.48564 2.75078 3.23751
194 8 5.27284 3.5751 4.42248
ITEM: TIMESTEP
32
ITEM: NUMBER OF ATOMS
194
ITEM: BOX BOUNDS xy xz yz pp pp pp
-1.3399447016420041e-03 9.5457132663749782e+00 0.0000000000000000e+00
-2.9143021093016586e-03 1.9389913402109300e+01 6.3057312167333224e-01
-2.5649249675119279e-03 1.7065380024967496e+01 0.0000000000000000e+00
ITEM: ATOMS id type x y z
1 1 8.68334 0.528692 3.72649
2 1 4.99977 9.17504 4.78602
3 1 7.07225 5.39935 0.484892
4 1 6.5968 4.30369 8.03033
5 2 7.69606 8.61693 3.15023
6 2 6.06247 1.09823 5.43547
7 2 8.09728 3.7132 1.10866
8 2 5.62302 5.96248 7.40936
9 2 6.47396 8.2258 3.56632
10 2 7.38042 1.50423 4.93358
11 2 0.434965 3.41474 0.749579
12 2 4.365 6.28407 7.8631
13 2 7.08829 6.84911 1.97478
14 2 6.60763 2.80926 6.64902
15 2 8.72398 1.97123 2.35822
16 2 4.96104 7.7547 6.125
17 5 1.09428 0.7694 5.23765
18 5 3.70497 8.95936 3.30062
19 5 1.54724 5.64317 7.55336
20 5 3.1514 4.11389 1.03898
21 5 3.19355 0.314855 5.74573
22 5 1.5562 9.40091 2.77305
23 5 8.48778 5.10011 7.11604
24 5 5.24135 4.55666 1.49981
25 3 8.07328 7.72846 2.21982
26 3 5.59739 1.89769 6.41066
27 3 7.69852 2.89527 2.10136
28 3 5.9644 6.83994 6.4126
29 3 6.15181 7.12409 2.83274
30 3 7.53297 2.47536 5.78196
31 3 0.759596 2.3665 1.52057
32 3 3.96546 7.43364 7.01505
33 6 2.27028 0.357536 5.03906
34 6 2.52372 9.34489 3.54362
35 6 0.436312 5.20739 7.80989
36 6 4.30753 4.50217 0.74123
37 4 0.154138 7.64997 1.85267
38 4 4.59453 1.83903 6.82787
39 4 6.64514 2.95046 2.44197
40 4 7.04985 6.98413 6.16136
41 4 5.11818 6.7448 2.7974
42 4 8.5892 2.75219 5.79484
43 4 1.73479 1.85317 1.47821
44 4 3.04426 7.9849 7.16247
45 1 4.53599 0.544937 12.284
46 1 0.896943 9.15672 13.2948
47 1 2.9749 5.3408 9.02863
48 1 2.45076 4.30105 16.5428
49 2 3.51518 8.60814 11.7232
50 2 1.77279 1.08448 13.8078
51 2 3.95535 3.80616 9.70799
52 2 1.49927 5.98457 15.9591
53 2 2.18914 8.23482 11.9468
54 2 3.14674 1.34031 13.6006
55 2 5.28844 3.39004 9.27323
56 2 9.11853 6.35322 16.3713
57 2 2.89962 6.86091 10.3849
58 2 2.45211 2.90634 15.2221
59 2 4.49453 1.89964 10.8565
60 2 0.846032 7.63865 14.6353
61 5 5.81442 0.692394 13.7515
62 5 8.46527 9.08012 11.9107
63 5 6.32857 5.61858 16.1538
64 5 7.99559 4.07339 9.48924
65 5 7.91315 0.325239 14.2671
66 5 6.33153 9.40167 11.2758
67 5 4.25543 5.12537 15.6331
68 5 1.13083 4.56716 10.0361
69 3 3.96258 7.70987 10.7716
70 3 1.4833 1.94711 14.8218
71 3 3.54032 2.88377 10.5798
72 3 1.86652 6.85981 15.0204
73 3 1.91386 7.15612 11.224
74 3 3.39673 2.50019 14.3008
75 3 5.55461 2.35697 9.99297
76 3 8.77583 7.35425 15.5159
77 6 6.94506 0.339221 13.4931
78 6 7.2654 9.32599 12.1168
79 6 5.19941 5.25324 16.3161
80 6 9.11513 4.53547 9.27106
81 4 4.85753 7.76825 10.0641
82 4 9.44618 1.9457 15.3535
83 4 2.68797 3.01313 11.2152
84 4 2.67759 6.76465 14.2892
85 4 0.924448 6.69599 11.1582
86 4 4.47368 2.83636 14.352
87 4 6.45782 1.76698 10.0114
88 4 7.74853 7.82167 15.618
89 1 8.64858 10.2238 3.7544
90 1 5.0359 18.847 4.76136
91 1 7.09585 15.0617 0.531847
92 1 6.60297 13.9927 8.0249
93 2 7.72506 18.3167 3.16456
94 2 6.01106 10.8343 5.37121
95 2 8.0921 13.4022 1.04776
96 2 5.58239 15.6501 7.32872
97 2 6.39531 18.0127 3.47415
98 2 7.31568 11.1886 4.98415
99 2 0.444624 13.0568 0.731958
100 2 4.34765 16.1087 7.79594
101 2 7.11705 16.5496 1.85295
102 2 6.64332 12.5389 6.59622
103 2 8.59694 11.6949 2.39883
104 2 4.99688 17.3665 6.17436
105 5 1.15411 10.4397 5.22409
106 5 3.64669 18.7443 3.28815
107 5 1.58301 15.2887 7.57436
108 5 3.22529 13.8421 0.962238
109 5 3.16814 10.0238 5.83799
110 5 1.5302 19.0587 2.73049
111 5 8.37805 14.8509 7.02343
112 5 5.26605 14.2525 1.50082
113 3 8.07133 17.4599 2.19431
114 3 5.67237 11.6416 6.33308
115 3 7.68752 12.5923 2.09256
116 3 5.93327 16.4197 6.42277
117 3 6.12264 16.8584 2.77785
118 3 7.68057 12.2099 5.8132
119 3 0.674202 11.9909 1.56648
120 3 3.99613 17.0751 6.92784
121 6 2.27884 10.0645 4.9957
122 6 2.55645 19.1095 3.47999
123 6 0.413288 14.9003 7.84873
124 6 4.3155 14.2485 0.736476
125 4 0.154874 17.2456 1.80911
126 4 4.58286 11.7366 6.568
127 4 6.75806 12.4567 2.63425
128 4 6.97837 16.3088 6.04355
129 4 5.23189 16.2167 2.69991
130 4 8.53632 12.7846 5.70154
131 4 1.55357 11.4025 1.45351
132 4 3.12595 17.677 7.11222
133 1 4.47912 10.2175 12.2545
134 1 0.8797 18.8297 13.3423
135 1 2.92616 15.0307 9.06806
136 1 2.42707 14.0119 16.5265
137 2 3.44721 18.3132 11.7291
138 2 1.89666 10.7575 13.9044
139 2 3.93906 13.3863 9.63355
140 2 1.50939 15.6349 15.9004
141 2 2.1612 17.9976 12.0695
142 2 3.1609 11.1129 13.5503
143 2 5.16097 13.0707 9.27764
144 2 9.13466 15.9847 16.3534
145 2 2.99439 16.5147 10.3997
146 2 2.42686 12.5331 15.1211
147 2 4.55192 11.7437 10.9306
148 2 0.811823 17.4191 14.7422
149 5 5.93439 10.3768 13.7525
150 5 8.48654 18.7001 11.8213
151 5 6.31335 15.3196 16.125
152 5 8.02428 13.8128 9.45585
153 5 7.99558 10.0314 14.2612
154 5 6.32534 19.0269 11.3081
155 5 4.33806 14.9205 15.6058
156 5 1.1958 14.1591 10.0282
157 3 4.00284 17.3572 10.7671
158 3 1.53614 11.6213 14.9025
159 3 3.60316 12.5534 10.6101
160 3 1.76333 16.4649 15.0296
161 3 1.92402 16.9045 11.2276
162 3 3.43433 12.1884 14.3606
163 3 5.48749 12.0456 10.0307
164 3 8.83394 17.0385 15.594
165 6 7.02775 9.92685 13.5043
166 6 7.29527 19.0192 12.0958
167 6 5.28068 14.8172 16.3289
168 6 9.1665 14.2976 9.24356
169 4 4.9503 17.2896 10.1729
170 4 0.644841 11.7175 15.5198
171 4 2.82108 12.7407 11.311
172 4 2.7751 16.5594 14.6096
173 4 1.01248 16.3094 11.4288
174 4 4.33801 12.72 14.1646
175 4 6.45533 11.4955 9.9566
176 4 7.90993 17.5379 15.5564
177 7 7.35037 13.3597 14.3565
178 8 6.84068 13.0573 15.0769
179 8 6.70878 13.1301 13.6644
180 7 6.90716 15.5872 12.4883
181 8 6.86504 16.4732 12.7375
182 8 7.8557 15.3109 12.4123
183 7 5.32601 4.91173 12.8927
184 8 4.37158 5.05785 12.9705
185 8 5.59568 5.82122 13.0905
186 7 7.14733 5.71386 11.3165
187 8 7.63431 5.67955 12.1099
188 8 7.64362 6.23502 10.6798
189 7 2.96216 4.90518 4.47484
190 8 2.70215 5.86186 4.36176
191 8 2.17054 4.70538 3.88418
192 7 4.65073 2.87094 4.17306
193 8 4.4938 2.74701 3.23333
194 8 5.27552 3.57745 4.41656
ITEM: TIMESTEP
33
ITEM: NUMBER OF ATOMS
194
ITEM: BOX BOUNDS xy xz yz pp pp pp
-1.4166311294054879e-03 9.5458007993250611e+00 0.0000000000000000e+00
-3.0810906475995381e-03 1.9390080190647602e+01 6.3058396819565044e-01
-2.7117182889053737e-03 1.7065526818288888e+01 0.0000000000000000e+00
ITEM: ATOMS id type x y z
1 1 8.68434 0.528097 3.72593
2 1 4.99878 9.17593 4.78594
3 1 7.07131 5.39949 0.483709
4 1 6.59733 4.30375 8.03104
5 2 7.6972 8.61844 3.15046
6 2 6.06578 1.09652 5.43635
7 2 8.09708 3.71329 1.10828
8 2 5.62376 5.96219 7.40937
9 2 6.47495 8.22541 3.56821
10 2 7.38163 1.50452 4.93149
11 2 0.435908 3.41548 0.748977
12 2 4.36479 6.28493 7.86465
13 2 7.0887 6.84741 1.97541
14 2 6.60698 2.80907 6.65116
15 2 8.72474 1.96954 2.35906
16 2 4.95952 7.75767 6.1231
17 5 1.09554 0.769772 5.23822
18 5 3.70454 8.95999 3.30037
19 5 1.54467 5.64465 7.55267
20 5 3.15198 4.11452 1.04126
21 5 3.19279 0.314718 5.74561
22 5 1.55731 9.4016 2.77377
23 5 8.48981 5.09804 7.11751
24 5 5.23929 4.55753 1.49948
25 3 8.07386 7.72802 2.22067
26 3 5.59781 1.8964 6.41334
27 3 7.69991 2.8948 2.10161
28 3 5.96287 6.84144 6.41154
29 3 6.15359 7.12285 2.83607
30 3 7.53264 2.47456 5.78104
31 3 0.759645 2.36709 1.52064
32 3 3.9644 7.43449 7.01625
33 6 2.26794 0.358866 5.0382
34 6 2.52544 9.34348 3.54351
35 6 0.439157 5.20906 7.81211
36 6 4.3053 4.50114 0.740991
37 4 0.149367 7.6426 1.85736
38 4 4.5954 1.84138 6.82996
39 4 6.64341 2.94304 2.44322
40 4 7.05142 6.99423 6.16508
41 4 5.11871 6.74528 2.79673
42 4 8.58858 2.75035 5.80215
43 4 1.73777 1.8535 1.47687
44 4 3.04921 7.98632 7.16481
45 1 4.53671 0.544785 12.2843
46 1 0.897063 9.157 13.294
47 1 2.97531 5.33912 9.02786
48 1 2.45107 4.30107 16.543
49 2 3.51472 8.60874 11.7239
50 2 1.77072 1.08343 13.8046
51 2 3.95732 3.80832 9.709
52 2 1.49979 5.98473 15.96
53 2 2.18665 8.23567 11.9449
54 2 3.14662 1.33668 13.602
55 2 5.28969 3.39158 9.27214
56 2 9.11891 6.35451 16.3731
57 2 2.899 6.86067 10.3826
58 2 2.45181 2.90791 15.2238
59 2 4.49418 1.89687 10.855
60 2 0.844665 7.63834 14.6326
61 5 5.81299 0.690625 13.7515
62 5 8.46499 9.0843 11.9126
63 5 6.32691 5.6197 16.1546
64 5 7.99832 4.07232 9.48899
65 5 7.90953 0.325519 14.2655
66 5 6.33302 9.40241 11.2761
67 5 4.25565 5.12437 15.6347
68 5 1.12973 4.56833 10.036
69 3 3.96199 7.70774 10.7731
70 3 1.48376 1.94822 14.8212
71 3 3.54003 2.88206 10.5799
72 3 1.86702 6.86251 15.0208
73 3 1.913 7.15476 11.2221
74 3 3.39452 2.49986 14.3007
75 3 5.55444 2.35499 9.99371
76 3 8.77621 7.35363 15.5156
77 6 6.94324 0.339943 13.493
78 6 7.26548 9.32378 12.1169
79 6 5.1996 5.25516 16.3183
80 6 9.1143 4.53519 9.27107
81 4 4.86143 7.77068 10.06
82 4 9.44569 1.94709 15.3517
83 4 2.69482 3.01415 11.216
84 4 2.6728 6.7624 14.2869
85 4 0.921344 6.69825 11.1538
86 4 4.4786 2.83306 14.356
87 4 6.45792 1.77021 10.0057
88 4 7.74235 7.82559 15.6159
89 1 8.64847 10.2233 3.75473
90 1 5.03598 18.8473 4.76049
91 1 7.09566 15.061 0.532023
92 1 6.6036 13.9927 8.02539
93 2 7.72626 18.3185 3.1654
94 2 6.01181 10.8346 5.37012
95 2 8.09167 13.4019 1.04596
96 2 5.58089 15.649 7.3274
97 2 6.39463 18.0153 3.47336
98 2 7.31692 11.1893 4.98297
99 2 0.445414 13.0559 0.731008
100 2 4.34781 16.1115 7.79656
101 2 7.11753 16.5493 1.85164
102 2 6.64456 12.5404 6.59633
103 2 8.59505 11.6935 2.40077
104 2 4.99706 17.3676 6.17277
105 5 1.15616 10.4398 5.22417
106 5 3.64645 18.7472 3.28688
107 5 1.58095 15.2884 7.57459
108 5 3.22684 13.8434 0.962512
109 5 3.16572 10.0241 5.83938
110 5 1.53124 19.0584 2.73027
111 5 8.37885 14.8506 7.0244
112 5 5.26437 14.2533 1.50032
113 3 8.07155 17.4596 2.19339
114 3 5.67412 11.6418 6.33284
115 3 7.68742 12.5919 2.09334
116 3 5.93105 16.4184 6.42134
117 3 6.12497 16.8571 2.77719
118 3 7.68369 12.2105 5.81385
119 3 0.672282 11.9898 1.56736
120 3 3.99464 17.0758 6.92617
121 6 2.27902 10.0664 4.99605
122 6 2.55541 19.1116 3.47899
123 6 0.414079 14.9031 7.84783
124 6 4.31593 14.2494 0.736638
125 4 0.154984 17.2413 1.81571
126 4 4.58014 11.747 6.56435
127 4 6.75949 12.4562 2.62979
128 4 6.9831 16.312 6.03788
129 4 5.23096 16.2197 2.7042
130 4 8.5264 12.781 5.7
131 4 1.54409 11.4012 1.4537
132 4 3.13254 17.6811 7.11249
133 1 4.47813 10.2168 12.2539
134 1 0.87925 18.8294 13.343
135 1 2.92507 15.029 9.06848
136 1 2.42669 14.0125 16.5261
137 2 3.44586 18.3143 11.7298
138 2 1.89709 10.7556 13.9044
139 2 3.93823 13.386 9.63319
140 2 1.50949 15.6331 15.9009
141 2 2.15759 17.9992 12.0702
142 2 3.16208 11.1118 13.5502
143 2 5.16099 13.0706 9.27648
144 2 9.13585 15.9838 16.3548
145 2 2.99532 16.513 10.3985
146 2 2.42635 12.5348 15.1213
147 2 4.55336 11.7435 10.9328
148 2 0.810793 17.4206 14.7428
149 5 5.93671 10.3748 13.7524
150 5 8.48665 18.7023 11.821
151 5 6.31184 15.3211 16.1256
152 5 8.02828 13.8138 9.45474
153 5 7.99483 10.032 14.2594
154 5 6.32667 19.0256 11.3093
155 5 4.34113 14.9224 15.6073
156 5 1.19645 14.1573 10.0273
157 3 4.00359 17.3548 10.7691
158 3 1.53754 11.6208 14.9036
159 3 3.60355 12.5524 10.6106
160 3 1.76065 16.4663 15.0291
161 3 1.92395 16.9058 11.2263
162 3 3.43451 12.1874 14.3608
163 3 5.4858 12.0456 10.0305
164 3 8.83416 17.0392 15.5955
165 6 7.02731 9.92507 13.5052
166 6 7.29591 19.0172 12.0954
167 6 5.28203 14.8158 16.3291
168 6 9.16624 14.2983 9.24489
169 4 4.95377 17.2882 10.1747
170 4 0.64827 11.7171 15.5192
171 4 2.83381 12.7428 11.3134
172 4 2.77675 16.5636 14.6117
173 4 1.01462 16.3061 11.4292
174 4 4.32907 12.7217 14.1653
175 4 6.45877 11.4939 9.95395
176 4 7.91503 17.5325 15.5595
177 7 7.35268 13.3593 14.3567
178 8 6.84183 13.0593 15.08
179 8 6.70318 13.1382 13.6686
180 7 6.90716 15.5865 12.4889
181 8 6.86598 16.4755 12.7379
182 8 7.85763 15.3177 12.4072
183 7 5.32534 4.91067 12.8919
184 8 4.36927 5.05478 12.9752
185 8 5.59397 5.82362 13.0751
186 7 7.14783 5.71505 11.3177
187 8 7.63517 5.68201 12.1136
188 8 7.65162 6.23316 10.6821
189 7 2.96007 4.90764 4.4733
190 8 2.69701 5.86416 4.36614
191 8 2.1742 4.7008 3.87601
192 7 4.65062 2.87102 4.17143
193 8 4.50216 2.74358 3.22921
194 8 5.27791 3.57956 4.41023
ITEM: TIMESTEP
34
ITEM: NUMBER OF ATOMS
194
ITEM: BOX BOUNDS xy xz yz pp pp pp
-1.4945925601876908e-03 9.5458897876144881e+00 0.0000000000000000e+00
-3.2506522436097640e-03 1.9390249752243612e+01 6.3059499505429562e-01
-2.8609522237630358e-03 1.7065676052223743e+01 0.0000000000000000e+00
ITEM: ATOMS id type x y z
1 1 8.68535 0.527502 3.72537
2 1 4.99779 9.17682 4.78586
3 1 7.07037 5.39962 0.48253
4 1 6.59786 4.3038 8.03176
5 2 7.69838 8.61998 3.15071
6 2 6.06918 1.09474 5.43716
7 2 8.09682 3.71344 1.1079
8 2 5.6245 5.96186 7.40939
9 2 6.47587 8.22501 3.5701
10 2 7.38269 1.50474 4.92946
11 2 0.436906 3.4162 0.748372
12 2 4.36451 6.28591 7.8661
13 2 7.08914 6.84563 1.97596
14 2 6.60625 2.8089 6.65335
15 2 8.72541 1.96784 2.35993
16 2 4.95802 7.76066 6.12122
17 5 1.09685 0.770125 5.23882
18 5 3.70403 8.96063 3.30012
19 5 1.5421 5.64613 7.55197
20 5 3.1526 4.11517 1.04352
21 5 3.19207 0.314578 5.74554
22 5 1.55844 9.40228 2.77451
23 5 8.49174 5.09597 7.11888
24 5 5.23724 4.5584 1.49916
25 3 8.07441 7.72759 2.22152
26 3 5.59833 1.89513 6.41602
27 3 7.70136 2.89431 2.10184
28 3 5.96133 6.84296 6.4105
29 3 6.15532 7.12165 2.83945
30 3 7.53245 2.47379 5.78007
31 3 0.759734 2.36766 1.52071
32 3 3.96342 7.43518 7.01752
33 6 2.2655 0.36015 5.03712
34 6 2.5272 9.34209 3.54346
35 6 0.442114 5.2107 7.81452
36 6 4.30303 4.50016 0.740653
37 4 0.144847 7.63516 1.86191
38 4 4.59635 1.84389 6.83216
39 4 6.64206 2.93522 2.44459
40 4 7.0525 7.00436 6.16879
41 4 5.11943 6.74571 2.79606
42 4 8.58778 2.74891 5.80978
43 4 1.74056 1.85396 1.47546
44 4 3.05411 7.9878 7.16717
45 1 4.53744 0.544627 12.2846
46 1 0.897177 9.15728 13.2933
47 1 2.97573 5.33744 9.0271
48 1 2.45138 4.30109 16.5432
49 2 3.51426 8.60931 11.7246
50 2 1.76872 1.08238 13.8014
51 2 3.95939 3.81046 9.70995
52 2 1.50026 5.98485 15.961
53 2 2.18417 8.23657 11.943
54 2 3.14645 1.33308 13.6033
55 2 5.29083 3.3932 9.27103
56 2 9.11931 6.35579 16.3748
57 2 2.89846 6.8604 10.3804
58 2 2.45148 2.9094 15.2254
59 2 4.49386 1.89417 10.8534
60 2 0.843283 7.63809 14.6298
61 5 5.81155 0.688851 13.7515
62 5 8.46468 9.08848 11.9144
63 5 6.32526 5.62085 16.1555
64 5 8.00107 4.07124 9.48873
65 5 7.90589 0.325805 14.264
66 5 6.33455 9.40315 11.2764
67 5 4.25583 5.12339 15.6363
68 5 1.12864 4.56951 10.0359
69 3 3.96134 7.70557 10.7745
70 3 1.48424 1.94939 14.8206
71 3 3.53979 2.88028 10.5801
72 3 1.86751 6.86523 15.0211
73 3 1.91213 7.15339 11.2201
74 3 3.39238 2.49953 14.3006
75 3 5.55419 2.35287 9.99459
76 3 8.77655 7.35301 15.5154
77 6 6.94152 0.340618 13.4929
78 6 7.26556 9.32157 12.1169
79 6 5.19977 5.25698 16.3208
80 6 9.11347 4.53492 9.27099
81 4 4.86491 7.77332 10.0565
82 4 9.44518 1.94845 15.3498
83 4 2.70145 3.0152 11.2169
84 4 2.6681 6.7599 14.2849
85 4 0.91829 6.70067 11.1494
86 4 4.48297 2.82969 14.3601
87 4 6.45824 1.77357 9.99973
88 4 7.73679 7.82943 15.6135
89 1 8.64837 10.2229 3.75507
90 1 5.03607 18.8476 4.75961
91 1 7.09547 15.0602 0.532194
92 1 6.60422 13.9927 8.02586
93 2 7.72744 18.3202 3.16627
94 2 6.01262 10.8349 5.36898
95 2 8.09118 13.4016 1.04419
96 2 5.57934 15.6478 7.32619
97 2 6.39395 18.0179 3.47257
98 2 7.31816 11.1901 4.98181
99 2 0.446223 13.055 0.730071
100 2 4.34797 16.1143 7.79716
101 2 7.11799 16.5491 1.85038
102 2 6.64579 12.542 6.59647
103 2 8.59317 11.692 2.40274
104 2 4.9973 17.3687 6.17109
105 5 1.15819 10.4399 5.22426
106 5 3.64626 18.75 3.28556
107 5 1.57884 15.2881 7.57481
108 5 3.22836 13.8447 0.962808
109 5 3.1633 10.0244 5.84075
110 5 1.53234 19.0581 2.73007
111 5 8.37969 14.8502 7.02543
112 5 5.26269 14.2542 1.49982
113 3 8.07177 17.4592 2.19242
114 3 5.67582 11.642 6.33262
115 3 7.68733 12.5914 2.09411
116 3 5.9289 16.4172 6.41982
117 3 6.12735 16.8558 2.77645
118 3 7.68673 12.211 5.81448
119 3 0.670373 11.9886 1.56821
120 3 3.99312 17.0765 6.92458
121 6 2.27922 10.0682 4.99634
122 6 2.55417 19.1138 3.47811
123 6 0.414923 14.9059 7.84686
124 6 4.31646 14.2504 0.736719
125 4 0.155162 17.2372 1.8225
126 4 4.57792 11.7577 6.56077
127 4 6.76059 12.4562 2.625
128 4 6.98726 16.3157 6.03209
129 4 5.22988 16.2232 2.70889
130 4 8.51707 12.7778 5.69831
131 4 1.53486 11.3997 1.4539
132 4 3.13906 17.6853 7.11277
133 1 4.47714 10.2161 12.2534
134 1 0.878792 18.8292 13.3437
135 1 2.92399 15.0273 9.06889
136 1 2.4263 14.0131 16.5258
137 2 3.44461 18.3153 11.7305
138 2 1.89748 10.7536 13.9044
139 2 3.93734 13.3858 9.63284
140 2 1.50951 15.6311 15.9016
141 2 2.15399 18.0006 12.0708
142 2 3.16329 11.1108 13.5501
143 2 5.1611 13.0705 9.27528
144 2 9.13706 15.9828 16.3563
145 2 2.99622 16.5113 10.3972
146 2 2.42586 12.5365 15.1217
147 2 4.55483 11.7433 10.935
148 2 0.809837 17.4221 14.7434
149 5 5.939 10.3729 13.7523
150 5 8.4867 18.7044 11.8207
151 5 6.3104 15.3226 16.1263
152 5 8.03234 13.8148 9.45364
153 5 7.99409 10.0325 14.2576
154 5 6.32803 19.0242 11.3105
155 5 4.34415 14.9244 15.6089
156 5 1.19709 14.1556 10.0263
157 3 4.00423 17.3525 10.7712
158 3 1.53892 11.6204 14.9047
159 3 3.6039 12.5513 10.6112
160 3 1.75803 16.468 15.0284
161 3 1.9239 16.9072 11.225
162 3 3.4347 12.1863 14.3609
163 3 5.48416 12.0456 10.0304
164 3 8.83434 17.04 15.5969
165 6 7.02689 9.92328 13.5061
166 6 7.29654 19.0153 12.0949
167 6 5.28329 14.8144 16.3294
168 6 9.16588 14.2989 9.24626
169 4 4.95707 17.2872 10.177
170 4 0.651419 11.7164 15.5182
171 4 2.84622 12.745 11.316
172 4 2.77823 16.5678 14.6139
173 4 1.01701 16.3029 11.4293
174 4 4.32028 12.7239 14.166
175 4 6.46189 11.4925 9.95129
176 4 7.9196 17.5272 15.5629
177 7 7.35499 13.3588 14.3568
178 8 6.84285 13.0611 15.0837
179 8 6.69789 13.1464 13.6727
180 7 6.90719 15.5858 12.4895
181 8 6.86704 16.4786 12.7384
182 8 7.85894 15.3247 12.4021
183 7 5.32464 4.90963 12.8911
184 8 4.3671 5.05148 12.9799
185 8 5.59242 5.82581 13.0596
186 7 7.1483 5.71626 11.3188
187 8 7.63639 5.68443 12.1176
188 8 7.65967 6.23122 10.6846
189 7 2.95791 4.91015 4.47171
190 8 2.69235 5.8662 4.3709
191 8 2.17847 4.69581 3.86825
192 7 4.65049 2.87113 4.16977
193 8 4.51071 2.74049 3.2252
194 8 5.27999 3.5814 4.4035
ITEM: TIMESTEP
35
ITEM: NUMBER OF ATOMS
194
ITEM: BOX BOUNDS xy xz yz pp pp pp
-1.5737306546128593e-03 9.5459801189947715e+00 0.0000000000000000e+00
-3.4227730148845836e-03 1.9390421873014887e+01 6.3060618834015392e-01
-3.0124385306411483e-03 1.7065827538530620e+01 0.0000000000000000e+00
ITEM: ATOMS id type x y z
1 1 8.68636 0.526907 3.7248
2 1 4.9968 9.17771 4.78578
3 1 7.06943 5.39974 0.481353
4 1 6.5984 4.30385 8.03248
5 2 7.6996 8.62154 3.15097
6 2 6.07267 1.09287 5.43792
7 2 8.09652 3.71365 1.1075
8 2 5.62524 5.96151 7.40942
9 2 6.47673 8.2246 3.57197
10 2 7.38359 1.50488 4.92751
11 2 0.437955 3.41691 0.747764
12 2 4.36417 6.287 7.86743
13 2 7.08964 6.84377 1.97644
14 2 6.60545 2.80876 6.65562
15 2 8.726 1.96612 2.36084
16 2 4.95654 7.76369 6.11936
17 5 1.09823 0.770463 5.23943
18 5 3.70347 8.96129 3.29985
19 5 1.53953 5.64761 7.55125
20 5 3.15327 4.11583 1.04578
21 5 3.1914 0.314438 5.74553
22 5 1.55961 9.40295 2.77524
23 5 8.49356 5.09388 7.12014
24 5 5.2352 4.55928 1.49885
25 3 8.07493 7.72717 2.22239
26 3 5.59894 1.89387 6.41871
27 3 7.70285 2.89379 2.10205
28 3 5.95979 6.84448 6.40947
29 3 6.15702 7.1205 2.84288
30 3 7.53239 2.47305 5.77906
31 3 0.759867 2.36821 1.52077
32 3 3.96253 7.43574 7.01886
33 6 2.26295 0.361388 5.03583
34 6 2.52899 9.34074 3.54347
35 6 0.445171 5.21231 7.81712
36 6 4.30073 4.49922 0.740219
37 4 0.140642 7.62765 1.86628
38 4 4.59736 1.84657 6.83448
39 4 6.64114 2.92701 2.44605
40 4 7.05308 7.01451 6.17251
41 4 5.12036 6.74611 2.79537
42 4 8.58683 2.74786 5.81772
43 4 1.74315 1.85456 1.47398
44 4 3.0589 7.98936 7.16955
45 1 4.53816 0.544463 12.285
46 1 0.897285 9.15756 13.2925
47 1 2.97614 5.33577 9.02635
48 1 2.4517 4.30112 16.5434
49 2 3.5138 8.60986 11.7252
50 2 1.7668 1.08132 13.7983
51 2 3.96156 3.8126 9.71084
52 2 1.50068 5.98492 15.9619
53 2 2.18172 8.23752 11.9411
54 2 3.14622 1.32951 13.6047
55 2 5.29187 3.39489 9.26992
56 2 9.11973 6.35706 16.3765
57 2 2.89799 6.86012 10.3781
58 2 2.45112 2.91084 15.227
59 2 4.49357 1.89153 10.8517
60 2 0.84189 7.6379 14.627
61 5 5.81012 0.687073 13.7515
62 5 8.46434 9.09267 11.9162
63 5 6.32363 5.62202 16.1562
64 5 8.00384 4.07015 9.48848
65 5 7.90223 0.326096 14.2625
66 5 6.33611 9.40388 11.2768
67 5 4.25598 5.12242 15.6377
68 5 1.12757 4.57069 10.0358
69 3 3.96063 7.70337 10.7758
70 3 1.48472 1.95061 14.82
71 3 3.5396 2.87843 10.5803
72 3 1.86801 6.86798 15.0214
73 3 1.91125 7.152 11.2181
74 3 3.3903 2.49921 14.3005
75 3 5.55387 2.35063 9.99561
76 3 8.77685 7.35239 15.5152
77 6 6.9399 0.341245 13.4927
78 6 7.26565 9.31936 12.117
79 6 5.19992 5.25868 16.3235
80 6 9.11262 4.53469 9.27083
81 4 4.86791 7.77616 10.0538
82 4 9.44465 1.94977 15.3477
83 4 2.70781 3.01628 11.2179
84 4 2.66351 6.75713 14.2832
85 4 0.915296 6.70325 11.1451
86 4 4.48672 2.82623 14.3643
87 4 6.45879 1.77702 9.99343
88 4 7.73192 7.83312 15.6109
89 1 8.64826 10.2224 3.7554
90 1 5.03616 18.8479 4.75874
91 1 7.09528 15.0595 0.53236
92 1 6.60485 13.9927 8.02634
93 2 7.72859 18.322 3.16715
94 2 6.01347 10.8351 5.36778
95 2 8.09064 13.4013 1.04247
96 2 5.57772 15.6465 7.32508
97 2 6.39327 18.0205 3.47176
98 2 7.3194 11.1909 4.98069
99 2 0.447048 13.0542 0.729146
100 2 4.34811 16.117 7.79774
101 2 7.11843 16.5488 1.84916
102 2 6.647 12.5437 6.59665
103 2 8.59132 11.6905 2.40473
104 2 4.9976 17.3699 6.16933
105 5 1.16021 10.44 5.22437
106 5 3.64613 18.7528 3.28419
107 5 1.57668 15.2878 7.57504
108 5 3.22983 13.846 0.963128
109 5 3.16088 10.0246 5.84208
110 5 1.53349 19.0578 2.72989
111 5 8.38058 14.8499 7.0265
112 5 5.26101 14.255 1.49932
113 3 8.07198 17.4588 2.19139
114 3 5.67748 11.6422 6.33244
115 3 7.68728 12.591 2.09486
116 3 5.92682 16.416 6.41823
117 3 6.12979 16.8545 2.77563
118 3 7.68969 12.2115 5.8151
119 3 0.668469 11.9876 1.569
120 3 3.99158 17.0771 6.92305
121 6 2.27944 10.07 4.99657
122 6 2.55275 19.116 3.47737
123 6 0.415815 14.9087 7.84582
124 6 4.31707 14.2513 0.736719
125 4 0.155424 17.2334 1.82948
126 4 4.57624 11.7686 6.55724
127 4 6.76133 12.4565 2.61991
128 4 6.99079 16.3199 6.02621
129 4 5.22868 16.2273 2.71396
130 4 8.50843 12.7751 5.69645
131 4 1.52593 11.3979 1.45408
132 4 3.14549 17.6899 7.11305
133 1 4.47616 10.2154 12.2529
134 1 0.878326 18.8289 13.3443
135 1 2.92291 15.0256 9.06931
136 1 2.42592 14.0137 16.5254
137 2 3.44347 18.3164 11.731
138 2 1.89785 10.7516 13.9044
139 2 3.9364 13.3857 9.6325
140 2 1.50943 15.629 15.9024
141 2 2.1504 18.002 12.0715
142 2 3.16451 11.1098 13.5501
143 2 5.1613 13.0704 9.27403
144 2 9.13831 15.9819 16.3577
145 2 2.99707 16.5096 10.3961
146 2 2.4254 12.5384 15.122
147 2 4.55632 11.743 10.9373
148 2 0.808955 17.4235 14.744
149 5 5.94128 10.3709 13.7523
150 5 8.48669 18.7066 11.8204
151 5 6.30901 15.3242 16.127
152 5 8.03643 13.8158 9.45255
153 5 7.99335 10.033 14.2558
154 5 6.32943 19.0228 11.3118
155 5 4.34714 14.9264 15.6104
156 5 1.19773 14.1539 10.0252
157 3 4.00477 17.3501 10.7732
158 3 1.54028 11.6199 14.9058
159 3 3.60422 12.5502 10.6117
160 3 1.75547 16.4697 15.0276
161 3 1.92387 16.9086 11.2238
162 3 3.43491 12.1851 14.361
163 3 5.48258 12.0455 10.0303
164 3 8.83449 17.0407 15.5984
165 6 7.02649 9.9215 13.5071
166 6 7.29714 19.0134 12.0944
167 6 5.28448 14.8129 16.3298
168 6 9.16545 14.2996 9.24767
169 4 4.96016 17.2866 10.1798
170 4 0.654264 11.7153 15.5169
171 4 2.85825 12.7473 11.3187
172 4 2.77951 16.5719 14.6162
173 4 1.01965 16.2997 11.4292
174 4 4.3117 12.7265 14.1669
175 4 6.46466 11.4915 9.94864
176 4 7.92358 17.522 15.5665
177 7 7.35729 13.3584 14.3569
178 8 6.84378 13.0629 15.088
179 8 6.69292 13.1548 13.6768
180 7 6.90725 15.585 12.4901
181 8 6.86819 16.4822 12.739
182 8 7.85964 15.332 12.3972
183 7 5.32391 4.90861 12.8903
184 8 4.3651 5.04794 12.9845
185 8 5.59101 5.82779 13.044
186 7 7.14876 5.71751 11.3199
187 8 7.63791 5.68681 12.122
188 8 7.66774 6.2292 10.6872
189 7 2.95567 4.91271 4.47007
190 8 2.68814 5.86795 4.37604
191 8 2.18338 4.69042 3.86089
192 7 4.65033 2.87126 4.16808
193 8 4.51945 2.73773 3.22131
194 8 5.28174 3.58296 4.39638
ITEM: TIMESTEP
36
ITEM: NUMBER OF ATOMS
194
ITEM: BOX BOUNDS xy xz yz pp pp pp
-1.6539495881602306e-03 9.5460716840879769e+00 0.0000000000000000e+00
-3.5972445486400773e-03 1.9390596344548644e+01 6.3061753449981262e-01
-3.1659937820407436e-03 1.7065981093782021e+01 0.0000000000000000e+00
ITEM: ATOMS id type x y z
1 1 8.68738 0.526312 3.72424
2 1 4.99582 9.1786 4.7857
3 1 7.06849 5.39987 0.480181
4 1 6.59894 4.3039 8.0332
5 2 7.70085 8.62313 3.15126
6 2 6.07623 1.09093 5.43861
7 2 8.09616 3.71393 1.1071
8 2 5.62599 5.96114 7.40946
9 2 6.47752 8.22419 3.57384
10 2 7.38434 1.50494 4.92563
11 2 0.439054 3.41761 0.747154
12 2 4.36377 6.28821 7.86865
13 2 7.09017 6.84183 1.97684
14 2 6.60458 2.80866 6.65794
15 2 8.7265 1.96439 2.36177
16 2 4.95508 7.76674 6.11753
17 5 1.09964 0.770786 5.24007
18 5 3.70285 8.96195 3.29956
19 5 1.53697 5.6491 7.55052
20 5 3.15398 4.1165 1.04802
21 5 3.19077 0.314296 5.74558
22 5 1.56079 9.4036 2.77598
23 5 8.49528 5.09178 7.1213
24 5 5.23318 4.56015 1.49855
25 3 8.07539 7.72676 2.22327
26 3 5.59965 1.89264 6.4214
27 3 7.70439 2.89324 2.10226
28 3 5.95825 6.84601 6.40844
29 3 6.15866 7.11939 2.84634
30 3 7.53247 2.47234 5.77801
31 3 0.760045 2.36872 1.52083
32 3 3.96172 7.43615 7.02026
33 6 2.26031 0.362577 5.03432
34 6 2.53081 9.33942 3.54355
35 6 0.448314 5.21388 7.81991
36 6 4.2984 4.49833 0.73969
37 4 0.136809 7.62008 1.87048
38 4 4.59843 1.8494 6.8369
39 4 6.64065 2.91844 2.44758
40 4 7.05312 7.02464 6.17623
41 4 5.12149 6.74649 2.79469
42 4 8.58572 2.7472 5.82594
43 4 1.74551 1.85532 1.47244
44 4 3.06356 7.99102 7.17198
45 1 4.53887 0.544293 12.2853
46 1 0.897387 9.15784 13.2918
47 1 2.97655 5.33409 9.02559
48 1 2.45201 4.30114 16.5436
49 2 3.51333 8.61039 11.7258
50 2 1.76495 1.08027 13.7952
51 2 3.96381 3.81472 9.71168
52 2 1.50106 5.98496 15.9629
53 2 2.17928 8.23853 11.9393
54 2 3.14593 1.32597 13.6061
55 2 5.2928 3.39666 9.26881
56 2 9.12017 6.35832 16.3781
57 2 2.89759 6.85981 10.3759
58 2 2.45073 2.9122 15.2285
59 2 4.49331 1.88895 10.85
60 2 0.840484 7.63778 14.6243
61 5 5.80867 0.685291 13.7515
62 5 8.46397 9.09685 11.918
63 5 6.32202 5.62322 16.1569
64 5 8.00664 4.06903 9.48822
65 5 7.89856 0.326393 14.261
66 5 6.3377 9.40461 11.2772
67 5 4.2561 5.12147 15.6391
68 5 1.12651 4.57187 10.0358
69 3 3.95988 7.70112 10.7771
70 3 1.48521 1.95189 14.8196
71 3 3.53947 2.87652 10.5805
72 3 1.86849 6.87075 15.0217
73 3 1.91035 7.1506 11.2161
74 3 3.38831 2.49888 14.3005
75 3 5.55347 2.34828 9.99675
76 3 8.77711 7.35177 15.515
77 6 6.93836 0.341821 13.4925
78 6 7.26574 9.31717 12.117
79 6 5.20002 5.26027 16.3265
80 6 9.11178 4.53448 9.27059
81 4 4.87037 7.77918 10.0518
82 4 9.4441 1.95106 15.3454
83 4 2.71386 3.01741 11.219
84 4 2.65904 6.75411 14.2817
85 4 0.91237 6.70599 11.1408
86 4 4.4898 2.82266 14.3686
87 4 6.45958 1.78053 9.98686
88 4 7.7278 7.83664 15.608
89 1 8.64816 10.2219 3.75574
90 1 5.03624 18.8482 4.75786
91 1 7.0951 15.0588 0.53252
92 1 6.60547 13.9928 8.02681
93 2 7.72971 18.3239 3.16805
94 2 6.01438 10.8353 5.36653
95 2 8.09005 13.4011 1.04079
96 2 5.57606 15.6451 7.32408
97 2 6.39259 18.023 3.47095
98 2 7.32064 11.1916 4.97959
99 2 0.447888 13.0532 0.728235
100 2 4.34825 16.1197 7.7983
101 2 7.11887 16.5486 1.84799
102 2 6.6482 12.5455 6.59686
103 2 8.58948 11.6889 2.40674
104 2 4.99796 17.3712 6.16748
105 5 1.16221 10.4401 5.22449
106 5 3.64606 18.7555 3.28276
107 5 1.57446 15.2875 7.57525
108 5 3.23126 13.8473 0.96347
109 5 3.15847 10.0249 5.8434
110 5 1.53471 19.0575 2.72975
111 5 8.38151 14.8495 7.02763
112 5 5.25934 14.2558 1.49883
113 3 8.07218 17.4583 2.19031
114 3 5.67909 11.6424 6.33228
115 3 7.68725 12.5905 2.0956
116 3 5.92481 16.415 6.41655
117 3 6.13227 16.8532 2.77474
118 3 7.69255 12.2119 5.81571
119 3 0.666567 11.9865 1.56976
120 3 3.99002 17.0776 6.92159
121 6 2.27969 10.0717 4.99674
122 6 2.55116 19.1184 3.47676
123 6 0.416747 14.9115 7.84472
124 6 4.31777 14.2524 0.736635
125 4 0.155786 17.2298 1.83661
126 4 4.57515 11.7796 6.55375
127 4 6.76167 12.4572 2.61454
128 4 6.99362 16.3244 6.02028
129 4 5.22736 16.2319 2.71938
130 4 8.50059 12.773 5.69439
131 4 1.51735 11.3959 1.45425
132 4 3.15177 17.6947 7.11335
133 1 4.47519 10.2147 12.2523
134 1 0.87785 18.8287 13.345
135 1 2.92183 15.024 9.06972
136 1 2.42555 14.0142 16.525
137 2 3.44241 18.3174 11.7316
138 2 1.89818 10.7496 13.9044
139 2 3.9354 13.3856 9.63217
140 2 1.50927 15.6269 15.9034
141 2 2.14683 18.0033 12.0721
142 2 3.16575 11.1088 13.55
143 2 5.16159 13.0703 9.27275
144 2 9.13957 15.9809 16.3591
145 2 2.9979 16.5078 10.3949
146 2 2.42497 12.5404 15.1225
147 2 4.55784 11.7426 10.9396
148 2 0.808146 17.425 14.7445
149 5 5.94353 10.3689 13.7523
150 5 8.48663 18.7088 11.8201
151 5 6.30769 15.3257 16.1276
152 5 8.04057 13.8168 9.45149
153 5 7.99261 10.0336 14.254
154 5 6.33086 19.0214 11.3131
155 5 4.35009 14.9283 15.6118
156 5 1.19835 14.1522 10.0242
157 3 4.00521 17.3479 10.7753
158 3 1.54164 11.6194 14.9069
159 3 3.60452 12.5492 10.6123
160 3 1.75298 16.4716 15.0267
161 3 1.92386 16.91 11.2226
162 3 3.43513 12.1838 14.361
163 3 5.48105 12.0454 10.0302
164 3 8.83462 17.0414 15.5998
165 6 7.02612 9.91971 13.508
166 6 7.29772 19.0115 12.094
167 6 5.2856 14.8114 16.3303
168 6 9.16495 14.3001 9.24911
169 4 4.96304 17.2864 10.1831
170 4 0.656779 11.7139 15.5153
171 4 2.86986 12.7499 11.3216
172 4 2.78056 16.576 14.6186
173 4 1.02255 16.2966 11.4288
174 4 4.30338 12.7295 14.1678
175 4 6.46703 11.4907 9.94601
176 4 7.9269 17.517 15.5704
177 7 7.35959 13.3579 14.3569
178 8 6.84465 13.0646 15.0928
179 8 6.68826 13.1635 13.6808
180 7 6.90734 15.5842 12.4906
181 8 6.86944 16.4864 12.7399
182 8 7.85975 15.3395 12.3925
183 7 5.32316 4.90762 12.8896
184 8 4.3633 5.04417 12.9892
185 8 5.58975 5.82956 13.0282
186 7 7.14919 5.71878 11.3211
187 8 7.63971 5.68915 12.1266
188 8 7.67581 6.22708 10.69
189 7 2.95336 4.91533 4.46838
190 8 2.68436 5.86941 4.38154
191 8 2.18893 4.68467 3.85394
192 7 4.65016 2.87141 4.16636
193 8 4.52838 2.73528 3.21756
194 8 5.28316 3.58422 4.38887
ITEM: TIMESTEP
37
ITEM: NUMBER OF ATOMS
194
ITEM: BOX BOUNDS xy xz yz pp pp pp
-1.7351583524556347e-03 9.5461643790135149e+00 0.0000000000000000e+00
-3.7738689069364284e-03 1.9390772968906937e+01 6.3062902066105464e-01
-3.3214437695416876e-03 1.7066136543769524e+01 0.0000000000000000e+00
ITEM: ATOMS id type x y z
1 1 8.6884 0.525719 3.72367
2 1 4.99483 9.1795 4.78563
3 1 7.06755 5.39999 0.479012
4 1 6.59949 4.30395 8.03392
5 2 7.70214 8.62475 3.15156
6 2 6.07988 1.08892 5.43925
7 2 8.09576 3.71427 1.10668
8 2 5.62673 5.96075 7.40951
9 2 6.47825 8.22377 3.5757
10 2 7.38494 1.50493 4.92382
11 2 0.4402 3.4183 0.746544
12 2 4.36332 6.28954 7.86975
13 2 7.09075 6.8398 1.97718
14 2 6.60363 2.80857 6.66032
15 2 8.72693 1.96265 2.36273
16 2 4.95364 7.76981 6.11571
17 5 1.10111 0.771095 5.24073
18 5 3.70217 8.96263 3.29926
19 5 1.53442 5.6506 7.54978
20 5 3.15472 4.11718 1.05026
21 5 3.19019 0.314154 5.74568
22 5 1.562 9.40425 2.77673
23 5 8.49691 5.08968 7.12235
24 5 5.23117 4.56103 1.49825
25 3 8.07581 7.72635 2.22416
26 3 5.60046 1.89142 6.42409
27 3 7.70597 2.89267 2.10245
28 3 5.95671 6.84754 6.40742
29 3 6.16027 7.11833 2.84985
30 3 7.53267 2.47168 5.77693
31 3 0.76027 2.36921 1.52088
32 3 3.961 7.43641 7.02173
33 6 2.2576 0.363716 5.0326
34 6 2.53264 9.33815 3.54368
35 6 0.451532 5.21541 7.82288
36 6 4.29605 4.49749 0.739068
37 4 0.1334 7.61246 1.8745
38 4 4.59955 1.85236 6.83942
39 4 6.64063 2.90952 2.44916
40 4 7.05261 7.03476 6.17997
41 4 5.12283 6.74684 2.79402
42 4 8.58447 2.7469 5.83444
43 4 1.74762 1.85625 1.47085
44 4 3.06804 7.9928 7.17446
45 1 4.53959 0.544117 12.2856
46 1 0.897484 9.15811 13.291
47 1 2.97697 5.33241 9.02484
48 1 2.45233 4.30117 16.5439
49 2 3.51286 8.61088 11.7263
50 2 1.76318 1.07921 13.7921
51 2 3.96616 3.81682 9.71247
52 2 1.5014 5.98496 15.9639
53 2 2.17686 8.23958 11.9376
54 2 3.1456 1.32246 13.6074
55 2 5.29362 3.3985 9.26769
56 2 9.12062 6.35956 16.3797
57 2 2.89727 6.85949 10.3736
58 2 2.45032 2.9135 15.2299
59 2 4.49309 1.88643 10.8483
60 2 0.839067 7.63772 14.6215
61 5 5.80723 0.683506 13.7516
62 5 8.46358 9.10104 11.9197
63 5 6.32044 5.62445 16.1576
64 5 8.00945 4.0679 9.48797
65 5 7.89488 0.326696 14.2595
66 5 6.33933 9.40533 11.2776
67 5 4.25619 5.12053 15.6404
68 5 1.12546 4.57305 10.0357
69 3 3.95909 7.69885 10.7784
70 3 1.4857 1.95323 14.8191
71 3 3.53941 2.87455 10.5808
72 3 1.86897 6.87354 15.0219
73 3 1.90944 7.14919 11.2142
74 3 3.38639 2.49856 14.3004
75 3 5.553 2.34583 9.99802
76 3 8.77732 7.35116 15.5149
77 6 6.93692 0.342347 13.4922
78 6 7.26583 9.31498 12.1171
79 6 5.20009 5.26174 16.3297
80 6 9.11094 4.5343 9.27026
81 4 4.87225 7.78237 10.0506
82 4 9.44353 1.95233 15.3429
83 4 2.71956 3.01858 11.2203
84 4 2.6547 6.75083 14.2805
85 4 0.909517 6.70889 11.1364
86 4 4.49215 2.81898 14.3729
87 4 6.46062 1.78407 9.98005
88 4 7.72448 7.83994 15.6048
89 1 8.64807 10.2214 3.75607
90 1 5.03632 18.8486 4.75699
91 1 7.09492 15.058 0.532676
92 1 6.60609 13.9928 8.02728
93 2 7.73079 18.3257 3.16896
94 2 6.01533 10.8354 5.36524
95 2 8.0894 13.401 1.03916
96 2 5.57433 15.6436 7.32318
97 2 6.39193 18.0255 3.47012
98 2 7.32188 11.1923 4.97851
99 2 0.448739 13.0523 0.727339
100 2 4.34837 16.1223 7.79883
101 2 7.11929 16.5483 1.84687
102 2 6.64938 12.5473 6.59711
103 2 8.58766 11.6872 2.40877
104 2 4.99837 17.3726 6.16555
105 5 1.16419 10.4402 5.22464
106 5 3.64604 18.7583 3.28129
107 5 1.5722 15.2872 7.57546
108 5 3.23264 13.8485 0.963836
109 5 3.15606 10.0251 5.84468
110 5 1.53598 19.0571 2.72962
111 5 8.38248 14.8492 7.0288
112 5 5.25767 14.2566 1.49835
113 3 8.07238 17.4578 2.18919
114 3 5.68065 11.6427 6.33215
115 3 7.68725 12.5901 2.09632
116 3 5.92289 16.4139 6.41478
117 3 6.13479 16.8519 2.77378
118 3 7.6953 12.2122 5.81631
119 3 0.664663 11.9856 1.57047
120 3 3.98844 17.0782 6.92018
121 6 2.27997 10.0734 4.99685
122 6 2.54939 19.1208 3.47629
123 6 0.417714 14.9144 7.84357
124 6 4.31856 14.2534 0.736466
125 4 0.156263 17.2264 1.8439
126 4 4.57468 11.7908 6.55028
127 4 6.76158 12.4583 2.60891
128 4 6.99571 16.3294 6.01435
129 4 5.22593 16.2369 2.72513
130 4 8.49363 12.7714 5.69212
131 4 1.50918 11.3936 1.45438
132 4 3.15789 17.6998 7.11369
133 1 4.47421 10.214 12.2518
134 1 0.877366 18.8285 13.3457
135 1 2.92075 15.0223 9.07013
136 1 2.42518 14.0148 16.5247
137 2 3.44146 18.3184 11.732
138 2 1.89849 10.7476 13.9045
139 2 3.93434 13.3857 9.63185
140 2 1.50901 15.6247 15.9044
141 2 2.14327 18.0046 12.0726
142 2 3.167 11.1078 13.5499
143 2 5.16196 13.0702 9.27144
144 2 9.14086 15.98 16.3604
145 2 2.99868 16.5061 10.3938
146 2 2.42457 12.5424 15.123
147 2 4.55938 11.7421 10.942
148 2 0.807407 17.4266 14.745
149 5 5.94576 10.367 13.7522
150 5 8.48651 18.7111 11.8198
151 5 6.30643 15.3274 16.1282
152 5 8.04474 13.8179 9.45044
153 5 7.99187 10.0341 14.2521
154 5 6.33231 19.02 11.3143
155 5 4.353 14.9303 15.6133
156 5 1.19897 14.1505 10.0231
157 3 4.00554 17.3456 10.7774
158 3 1.54298 11.6189 14.908
159 3 3.60478 12.5481 10.6128
160 3 1.75056 16.4736 15.0256
161 3 1.92386 16.9114 11.2214
162 3 3.43535 12.1825 14.3609
163 3 5.4796 12.0452 10.0301
164 3 8.83472 17.0422 15.6013
165 6 7.02577 9.91792 13.509
166 6 7.29828 19.0097 12.0935
167 6 5.28663 14.8099 16.3309
168 6 9.16439 14.3007 9.25058
169 4 4.96568 17.2866 10.1868
170 4 0.658942 11.7121 15.5134
171 4 2.88099 12.7526 11.3247
172 4 2.78135 16.5801 14.6211
173 4 1.0257 16.2935 11.4282
174 4 4.29537 12.733 14.1688
175 4 6.46895 11.4903 9.9434
176 4 7.92951 17.5122 15.5745
177 7 7.36188 13.3574 14.3569
178 8 6.84552 13.0662 15.098
179 8 6.68393 13.1723 13.6847
180 7 6.90746 15.5833 12.4911
181 8 6.87077 16.491 12.7408
182 8 7.85928 15.3473 12.3878
183 7 5.32236 4.90664 12.8888
184 8 4.36171 5.04016 12.9938
185 8 5.58861 5.8311 13.0124
186 7 7.14962 5.72009 11.3222
187 8 7.64173 5.69145 12.1314
188 8 7.68388 6.22484 10.6929
189 7 2.95098 4.91799 4.46664
190 8 2.68101 5.87059 4.38739
191 8 2.1951 4.67858 3.8474
192 7 4.64996 2.87159 4.1646
193 8 4.53748 2.73315 3.21398
194 8 5.28425 3.58518 4.381
ITEM: TIMESTEP
38
ITEM: NUMBER OF ATOMS
194
ITEM: BOX BOUNDS xy xz yz pp pp pp
-1.8172728073855282e-03 9.5462581077305000e+00 0.0000000000000000e+00
-3.9524630898988278e-03 1.9390951563089899e+01 6.3064063492310873e-01
-3.4786274319600352e-03 1.7066293727431940e+01 0.0000000000000000e+00
ITEM: ATOMS id type x y z
1 1 8.68943 0.525126 3.72309
2 1 4.99385 9.18039 4.78555
3 1 7.06662 5.40011 0.477848
4 1 6.60005 4.304 8.03465
5 2 7.70346 8.62639 3.15188
6 2 6.0836 1.08684 5.43983
7 2 8.09531 3.71468 1.10625
8 2 5.62747 5.96034 7.40957
9 2 6.47892 8.22334 3.57755
10 2 7.3854 1.50484 4.92208
11 2 0.441392 3.41897 0.745934
12 2 4.3628 6.29098 7.87074
13 2 7.09137 6.8377 1.97745
14 2 6.60262 2.80851 6.66276
15 2 8.72727 1.96091 2.36371
16 2 4.95222 7.7729 6.11393
17 5 1.10261 0.771393 5.24142
18 5 3.70143 8.96332 3.29894
19 5 1.53189 5.65211 7.54903
20 5 3.15549 4.11788 1.05248
21 5 3.18964 0.314011 5.74583
22 5 1.56323 9.40489 2.77748
23 5 8.49844 5.08757 7.1233
24 5 5.22917 4.56191 1.49796
25 3 8.07617 7.72596 2.22506
26 3 5.60136 1.89021 6.42678
27 3 7.70759 2.89206 2.10264
28 3 5.95518 6.84909 6.40642
29 3 6.16184 7.1173 2.85338
30 3 7.533 2.47105 5.77583
31 3 0.760545 2.36967 1.52093
32 3 3.96039 7.43653 7.02325
33 6 2.25481 0.364805 5.03067
34 6 2.53448 9.33691 3.54389
35 6 0.454809 5.21689 7.82603
36 6 4.29368 4.49669 0.738356
37 4 0.130463 7.6048 1.87832
38 4 4.6007 1.85545 6.84204
39 4 6.64108 2.90028 2.45077
40 4 7.05153 7.04483 6.18373
41 4 5.12438 6.74717 2.79337
42 4 8.58309 2.74697 5.84319
43 4 1.74946 1.85733 1.4692
44 4 3.0723 7.99471 7.17701
45 1 4.5403 0.543936 12.286
46 1 0.897574 9.15838 13.2902
47 1 2.97738 5.33073 9.02409
48 1 2.45264 4.3012 16.5441
49 2 3.51238 8.61134 11.7268
50 2 1.76149 1.07816 13.789
51 2 3.9686 3.81891 9.71321
52 2 1.50169 5.98492 15.9649
53 2 2.17446 8.24068 11.9359
54 2 3.1452 1.31899 13.6088
55 2 5.29434 3.4004 9.26658
56 2 9.1211 6.36078 16.3812
57 2 2.89702 6.85914 10.3713
58 2 2.44988 2.91472 15.2312
59 2 4.49289 1.88398 10.8465
60 2 0.837639 7.63772 14.6187
61 5 5.80577 0.681717 13.7516
62 5 8.46316 9.10522 11.9214
63 5 6.31887 5.62571 16.1581
64 5 8.01228 4.06674 9.48772
65 5 7.89119 0.327006 14.258
66 5 6.34098 9.40604 11.278
67 5 4.25625 5.1196 15.6416
68 5 1.12442 4.57423 10.0357
69 3 3.95826 7.69655 10.7795
70 3 1.4862 1.95461 14.8188
71 3 3.53941 2.87253 10.581
72 3 1.86944 6.87635 15.0221
73 3 1.90852 7.14777 11.2122
74 3 3.38456 2.49825 14.3004
75 3 5.55247 2.34327 9.9994
76 3 8.77747 7.35057 15.5149
77 6 6.93556 0.342821 13.4919
78 6 7.26592 9.3128 12.1171
79 6 5.20012 5.2631 16.3332
80 6 9.11013 4.53416 9.26985
81 4 4.8735 7.78571 10.0502
82 4 9.44295 1.95358 15.3402
83 4 2.7249 3.01979 11.2219
84 4 2.65052 6.7473 14.2794
85 4 0.906743 6.71195 11.1321
86 4 4.49373 2.81518 14.3773
87 4 6.46191 1.7876 9.973
88 4 7.72202 7.843 15.6015
89 1 8.64797 10.221 3.75641
90 1 5.03641 18.8489 4.75611
91 1 7.09473 15.0573 0.532826
92 1 6.60671 13.9928 8.02775
93 2 7.73184 18.3275 3.16989
94 2 6.01634 10.8354 5.36389
95 2 8.0887 13.4008 1.03757
96 2 5.57255 15.6421 7.32238
97 2 6.39127 18.028 3.46928
98 2 7.32312 11.193 4.97747
99 2 0.4496 13.0514 0.726458
100 2 4.34848 16.1249 7.79935
101 2 7.11969 16.5479 1.8458
102 2 6.65055 12.5492 6.5974
103 2 8.58586 11.6854 2.41081
104 2 4.99884 17.374 6.16355
105 5 1.16614 10.4403 5.2248
106 5 3.64608 18.761 3.27975
107 5 1.56991 15.2869 7.57565
108 5 3.23398 13.8498 0.964226
109 5 3.15366 10.0253 5.84594
110 5 1.5373 19.0568 2.72952
111 5 8.38349 14.8488 7.03001
112 5 5.25601 14.2574 1.49789
113 3 8.07256 17.4573 2.18802
114 3 5.68215 11.643 6.33205
115 3 7.68728 12.5896 2.09702
116 3 5.92105 16.413 6.41292
117 3 6.13735 16.8507 2.77276
118 3 7.69794 12.2124 5.8169
119 3 0.662755 11.9847 1.57114
120 3 3.98686 17.0786 6.91884
121 6 2.28027 10.075 4.99689
122 6 2.54746 19.1234 3.47595
123 6 0.418707 14.9172 7.84238
124 6 4.31943 14.2546 0.736212
125 4 0.156869 17.2233 1.85133
126 4 4.57484 11.8021 6.54682
127 4 6.76104 12.4597 2.60304
128 4 6.997 16.3348 6.00843
129 4 5.2244 16.2424 2.73119
130 4 8.48763 12.7706 5.68962
131 4 1.50145 11.391 1.45448
132 4 3.16381 17.7053 7.11408
133 1 4.47325 10.2133 12.2513
134 1 0.876873 18.8283 13.3463
135 1 2.91967 15.0206 9.07054
136 1 2.42482 14.0154 16.5243
137 2 3.44059 18.3193 11.7324
138 2 1.89877 10.7455 13.9045
139 2 3.93324 13.3858 9.63154
140 2 1.50867 15.6224 15.9056
141 2 2.13974 18.0058 12.0731
142 2 3.16826 11.1068 13.5499
143 2 5.1624 13.0701 9.27009
144 2 9.14218 15.979 16.3618
145 2 2.99943 16.5043 10.3928
146 2 2.42419 12.5446 15.1236
147 2 4.56094 11.7415 10.9443
148 2 0.806737 17.4281 14.7455
149 5 5.94795 10.3651 13.7522
150 5 8.48634 18.7133 11.8195
151 5 6.30524 15.329 16.1289
152 5 8.04894 13.8189 9.44941
153 5 7.99115 10.0346 14.2503
154 5 6.3338 19.0186 11.3156
155 5 4.35585 14.9322 15.6147
156 5 1.19959 14.1489 10.022
157 3 4.00577 17.3435 10.7796
158 3 1.54431 11.6184 14.909
159 3 3.60503 12.5471 10.6133
160 3 1.74822 16.4757 15.0245
161 3 1.92388 16.9129 11.2202
162 3 3.43557 12.1811 14.3607
163 3 5.47821 12.0449 10.03
164 3 8.83481 17.0429 15.6028
165 6 7.02545 9.91613 13.51
166 6 7.29882 19.0079 12.093
167 6 5.2876 14.8082 16.3315
168 6 9.16378 14.3012 9.25208
169 4 4.96807 17.2872 10.1911
170 4 0.660732 11.7099 15.5112
171 4 2.89161 12.7556 11.328
172 4 2.78186 16.5842 14.6237
173 4 1.02911 16.2905 11.4274
174 4 4.28773 12.737 14.1699
175 4 6.47039 11.4903 9.94083
176 4 7.93137 17.5076 15.5789
177 7 7.36416 13.3569 14.3569
178 8 6.84643 13.0679 15.1036
179 8 6.67992 13.1813 13.6886
180 7 6.9076 15.5824 12.4916
181 8 6.87218 16.4959 12.7418
182 8 7.85828 15.3552 12.3832
183 7 5.32154 4.90568 12.8881
184 8 4.36038 5.03593 12.9985
185 8 5.58761 5.83241 12.9964
186 7 7.15003 5.72142 11.3233
187 8 7.64393 5.69371 12.1364
188 8 7.69191 6.22248 10.6961
189 7 2.94854 4.9207 4.46486
190 8 2.67804 5.8715 4.39358
191 8 2.2019 4.67217 3.84127
192 7 4.64974 2.87179 4.1628
193 8 4.54674 2.73132 3.21059
194 8 5.28499 3.58583 4.37277
ITEM: TIMESTEP
39
ITEM: NUMBER OF ATOMS
194
ITEM: BOX BOUNDS xy xz yz pp pp pp
-1.9002175175657499e-03 9.5463527841339708e+00 0.0000000000000000e+00
-4.1328630299393154e-03 1.9391131963029942e+01 6.3065236661640023e-01
-3.6374003707244640e-03 1.7066452500370705e+01 0.0000000000000000e+00
ITEM: ATOMS id type x y z
1 1 8.69045 0.524535 3.72252
2 1 4.99287 9.18129 4.78548
3 1 7.06568 5.40022 0.476688
4 1 6.60061 4.30405 8.03537
5 2 7.70481 8.62805 3.15222
6 2 6.08739 1.08469 5.44036
7 2 8.09481 3.71515 1.10581
8 2 5.6282 5.95992 7.40964
9 2 6.47953 8.22291 3.57938
10 2 7.38571 1.50467 4.92042
11 2 0.442627 3.41964 0.745327
12 2 4.36223 6.29253 7.87162
13 2 7.09204 6.83553 1.97766
14 2 6.60154 2.80848 6.66524
15 2 8.72753 1.95916 2.36472
16 2 4.95082 7.77601 6.11218
17 5 1.10415 0.771681 5.24212
18 5 3.70065 8.96401 3.29861
19 5 1.52938 5.65364 7.54827
20 5 3.15629 4.11859 1.05469
21 5 3.18912 0.313869 5.74602
22 5 1.56449 9.40552 2.77823
23 5 8.49987 5.08545 7.12415
24 5 5.22718 4.56279 1.49768
25 3 8.07647 7.72557 2.22597
26 3 5.60237 1.88902 6.42945
27 3 7.70924 2.89142 2.10282
28 3 5.95365 6.85066 6.40542
29 3 6.16336 7.11632 2.85695
30 3 7.53345 2.47047 5.7747
31 3 0.76087 2.3701 1.52097
32 3 3.95987 7.43651 7.02482
33 6 2.25196 0.36584 5.02855
34 6 2.53633 9.33571 3.54416
35 6 0.458132 5.21833 7.82935
36 6 4.29131 4.49595 0.737558
37 4 0.128036 7.5971 1.88195
38 4 4.60188 1.85865 6.84474
39 4 6.64203 2.89073 2.4524
40 4 7.04988 7.05485 6.18751
41 4 5.12612 6.74748 2.79274
42 4 8.58159 2.74738 5.85217
43 4 1.75101 1.85859 1.46751
44 4 3.07632 7.99677 7.17964
45 1 4.54101 0.543749 12.2863
46 1 0.897659 9.15865 13.2895
47 1 2.9778 5.32905 9.02334
48 1 2.45296 4.30124 16.5444
49 2 3.5119 8.61177 11.7272
50 2 1.75988 1.07711 13.786
51 2 3.97113 3.82098 9.7139
52 2 1.50193 5.98485 15.966
53 2 2.17209 8.24183 11.9342
54 2 3.14475 1.31556 13.6102
55 2 5.29496 3.40237 9.26548
56 2 9.1216 6.36199 16.3827
57 2 2.89684 6.85877 10.369
58 2 2.44941 2.91588 15.2325
59 2 4.49273 1.88158 10.8446
60 2 0.836201 7.63779 14.6158
61 5 5.80431 0.679925 13.7517
62 5 8.46271 9.10941 11.923
63 5 6.31733 5.627 16.1587
64 5 8.01512 4.06557 9.48747
65 5 7.88749 0.327323 14.2565
66 5 6.34266 9.40675 11.2785
67 5 4.25628 5.11869 15.6428
68 5 1.12339 4.57541 10.0356
69 3 3.9574 7.69423 10.7806
70 3 1.4867 1.95604 14.8185
71 3 3.53948 2.87045 10.5813
72 3 1.8699 6.87917 15.0223
73 3 1.90758 7.14635 11.2102
74 3 3.38282 2.49793 14.3004
75 3 5.55186 2.34063 10.0009
76 3 8.77756 7.34999 15.5149
77 6 6.93429 0.343241 13.4916
78 6 7.26601 9.31064 12.1171
79 6 5.2001 5.26435 16.3369
80 6 9.10933 4.53405 9.26937
81 4 4.87409 7.78919 10.0506
82 4 9.44236 1.95481 15.3374
83 4 2.72984 3.02105 11.2236
84 4 2.6465 6.74351 14.2787
85 4 0.904051 6.71517 11.1278
86 4 4.49453 2.81126 14.3817
87 4 6.46345 1.7911 9.96573
88 4 7.72045 7.84578 15.5979
89 1 8.64788 10.2205 3.75674
90 1 5.03649 18.8492 4.75523
91 1 7.09456 15.0566 0.532971
92 1 6.60733 13.9928 8.02822
93 2 7.73286 18.3294 3.17082
94 2 6.01739 10.8355 5.36249
95 2 8.08795 13.4007 1.03602
96 2 5.57071 15.6404 7.32169
97 2 6.39062 18.0304 3.46843
98 2 7.32436 11.1937 4.97645
99 2 0.450467 13.0504 0.725594
100 2 4.34858 16.1274 7.79985
101 2 7.12009 16.5476 1.84477
102 2 6.65171 12.5511 6.59771
103 2 8.58407 11.6836 2.41288
104 2 4.99936 17.3755 6.16146
105 5 1.16807 10.4405 5.22499
106 5 3.64617 18.7637 3.27817
107 5 1.56758 15.2865 7.57583
108 5 3.23527 13.851 0.964638
109 5 3.15127 10.0255 5.84718
110 5 1.53867 19.0565 2.72944
111 5 8.38453 14.8484 7.03127
112 5 5.25437 14.2582 1.49743
113 3 8.07274 17.4568 2.18681
114 3 5.68359 11.6433 6.33198
115 3 7.68735 12.5892 2.0977
116 3 5.91931 16.4121 6.41097
117 3 6.13995 16.8494 2.77168
118 3 7.70046 12.2125 5.81749
119 3 0.66084 11.9838 1.57178
120 3 3.98527 17.0791 6.91755
121 6 2.28062 10.0766 4.99686
122 6 2.54537 19.126 3.47574
123 6 0.41972 14.9201 7.84114
124 6 4.32037 14.2557 0.735871
125 4 0.157618 17.2204 1.85889
126 4 4.57567 11.8136 6.54336
127 4 6.76001 12.4615 2.59696
128 4 6.99746 16.3405 6.00258
129 4 5.22279 16.2483 2.73753
130 4 8.48267 12.7705 5.68688
131 4 1.49419 11.3881 1.45453
132 4 3.16951 17.7111 7.11455
133 1 4.47228 10.2126 12.2508
134 1 0.87637 18.8281 13.347
135 1 2.9186 15.0189 9.07094
136 1 2.42446 14.016 16.524
137 2 3.43981 18.3203 11.7327
138 2 1.89903 10.7435 13.9047
139 2 3.93208 13.386 9.63125
140 2 1.50823 15.62 15.9069
141 2 2.13623 18.007 12.0735
142 2 3.16953 11.1059 13.5499
143 2 5.16293 13.0701 9.2687
144 2 9.14351 15.9779 16.3631
145 2 3.00014 16.5025 10.3918
146 2 2.42384 12.5468 15.1242
147 2 4.56252 11.7409 10.9468
148 2 0.806134 17.4296 14.7459
149 5 5.95011 10.3631 13.7523
150 5 8.48612 18.7155 11.8192
151 5 6.30411 15.3307 16.1295
152 5 8.05316 13.82 9.44841
153 5 7.99043 10.0351 14.2484
154 5 6.33531 19.0172 11.3169
155 5 4.35866 14.9342 15.6161
156 5 1.20019 14.1472 10.0208
157 3 4.0059 17.3413 10.7818
158 3 1.54563 11.6179 14.9101
159 3 3.60526 12.546 10.6138
160 3 1.74596 16.4779 15.0231
161 3 1.92392 16.9144 11.2191
162 3 3.43579 12.1796 14.3605
163 3 5.4769 12.0446 10.0299
164 3 8.83488 17.0437 15.6043
165 6 7.02516 9.91432 13.511
166 6 7.29933 19.0061 12.0926
167 6 5.28849 14.8065 16.3323
168 6 9.16312 14.3017 9.25359
169 4 4.9702 17.2881 10.1958
170 4 0.66213 11.7074 15.5089
171 4 2.90166 12.7589 11.3317
172 4 2.78207 16.5882 14.6264
173 4 1.03277 16.2876 11.4264
174 4 4.28048 12.7415 14.1709
175 4 6.47132 11.4906 9.93831
176 4 7.93244 17.5033 15.5834
177 7 7.36642 13.3563 14.3569
178 8 6.84743 13.0695 15.1095
179 8 6.67623 13.1904 13.6924
180 7 6.90776 15.5815 12.4921
181 8 6.87366 16.5011 12.7428
182 8 7.85678 15.3632 12.3788
183 7 5.32068 4.90475 12.8874
184 8 4.3593 5.03147 13.0031
185 8 5.58671 5.83349 12.9804
186 7 7.15044 5.72279 11.3244
187 8 7.64626 5.69592 12.1414
188 8 7.69989 6.22 10.6994
189 7 2.94603 4.92345 4.46303
190 8 2.67545 5.87214 4.40008
191 8 2.20929 4.66548 3.83554
192 7 4.6495 2.87202 4.16097
193 8 4.55617 2.72978 3.20739
194 8 5.28541 3.58617 4.36422
ITEM: TIMESTEP
40
ITEM: NUMBER OF ATOMS
194
ITEM: BOX BOUNDS xy xz yz pp pp pp
-1.9839270862114233e-03 9.5464483335774286e+00 0.0000000000000000e+00
-4.3149264928388220e-03 1.9391314026492839e+01 6.3066420649121324e-01
-3.7976374031760685e-03 1.7066612737403155e+01 0.0000000000000000e+00
ITEM: ATOMS id type x y z
1 1 8.69149 0.523945 3.72194
2 1 4.9919 9.18219 4.78541
3 1 7.06475 5.40033 0.475533
4 1 6.60118 4.3041 8.03611
5 2 7.70619 8.62973 3.15258
6 2 6.09125 1.08247 5.44084
7 2 8.09427 3.71568 1.10536
8 2 5.62892 5.95949 7.40971
9 2 6.48008 8.22248 3.58121
10 2 7.38588 1.50443 4.91883
11 2 0.443902 3.42029 0.744723
12 2 4.36161 6.29419 7.87238
13 2 7.09274 6.83329 1.97781
14 2 6.60039 2.80847 6.66778
15 2 8.72772 1.9574 2.36575
16 2 4.94944 7.77914 6.11047
17 5 1.10572 0.771959 5.24285
18 5 3.69983 8.96472 3.29826
19 5 1.5269 5.65517 7.54749
20 5 3.15712 4.1193 1.05689
21 5 3.18864 0.313727 5.74626
22 5 1.56577 9.40614 2.77898
23 5 8.50122 5.08332 7.1249
24 5 5.22521 4.56368 1.49741
25 3 8.07672 7.72519 2.22689
26 3 5.60348 1.88784 6.43212
27 3 7.71093 2.89075 2.10301
28 3 5.95212 6.85223 6.40442
29 3 6.16485 7.11537 2.86055
30 3 7.53402 2.46994 5.77356
31 3 0.761246 2.37049 1.52101
32 3 3.95945 7.43636 7.02644
33 6 2.24906 0.366823 5.02623
34 6 2.53818 9.33456 3.54451
35 6 0.461487 5.21973 7.83283
36 6 4.28894 4.49526 0.736677
37 4 0.126153 7.58938 1.88539
38 4 4.60308 1.86194 6.84753
39 4 6.64347 2.88091 2.45401
40 4 7.04765 7.06481 6.19132
41 4 5.12806 6.74778 2.79216
42 4 8.57998 2.74813 5.86136
43 4 1.75228 1.86001 1.46577
44 4 3.08007 7.99899 7.18236
45 1 4.54172 0.543556 12.2866
46 1 0.897737 9.15892 13.2887
47 1 2.97821 5.32737 9.02259
48 1 2.45328 4.30128 16.5446
49 2 3.5114 8.61217 11.7275
50 2 1.75835 1.07608 13.7831
51 2 3.97374 3.82302 9.71454
52 2 1.50212 5.98475 15.967
53 2 2.16974 8.24303 11.9326
54 2 3.14424 1.31217 13.6116
55 2 5.29547 3.40439 9.26439
56 2 9.12211 6.36319 16.3842
57 2 2.89673 6.85838 10.3666
58 2 2.44892 2.91697 15.2337
59 2 4.49259 1.87923 10.8428
60 2 0.834754 7.63791 14.613
61 5 5.80284 0.67813 13.7518
62 5 8.46225 9.11359 11.9246
63 5 6.31582 5.62832 16.1591
64 5 8.01796 4.06437 9.48722
65 5 7.88379 0.327647 14.255
66 5 6.34438 9.40746 11.279
67 5 4.25628 5.1178 15.6439
68 5 1.12238 4.57659 10.0356
69 3 3.95651 7.69188 10.7816
70 3 1.4872 1.9575 14.8182
71 3 3.53963 2.86832 10.5815
72 3 1.87034 6.88201 15.0224
73 3 1.90662 7.14493 11.2083
74 3 3.38117 2.49761 14.3004
75 3 5.55118 2.33791 10.0025
76 3 8.7776 7.34943 15.5149
77 6 6.93311 0.343608 13.4912
78 6 7.2661 9.30849 12.1172
79 6 5.20002 5.26548 16.3408
80 6 9.10857 4.53398 9.26881
81 4 4.87401 7.79279 10.0519
82 4 9.44176 1.95604 15.3344
83 4 2.73436 3.02237 11.2255
84 4 2.64265 6.73948 14.2781
85 4 0.901446 6.71854 11.1234
86 4 4.49451 2.80721 14.3862
87 4 6.46523 1.79454 9.95828
88 4 7.71978 7.84827 15.5941
89 1 8.64779 10.2201 3.75708
90 1 5.03657 18.8496 4.75436
91 1 7.09438 15.0558 0.533112
92 1 6.60795 13.9929 8.02869
93 2 7.73384 18.3313 3.17177
94 2 6.0185 10.8355 5.36105
95 2 8.08715 13.4005 1.03453
96 2 5.56882 15.6387 7.3211
97 2 6.38999 18.0328 3.46756
98 2 7.3256 11.1944 4.97547
99 2 0.451338 13.0495 0.724747
100 2 4.34867 16.1299 7.80033
101 2 7.12048 16.5472 1.84378
102 2 6.65287 12.5532 6.59805
103 2 8.58232 11.6817 2.41495
104 2 4.99993 17.3771 6.15931
105 5 1.16997 10.4407 5.22519
106 5 3.6463 18.7664 3.27654
107 5 1.56522 15.2862 7.576
108 5 3.23652 13.8522 0.965074
109 5 3.14889 10.0257 5.84839
110 5 1.54008 19.0562 2.72938
111 5 8.38561 14.848 7.03256
112 5 5.25274 14.259 1.49699
113 3 8.0729 17.4562 2.18557
114 3 5.68498 11.6437 6.33195
115 3 7.68745 12.5888 2.09835
116 3 5.91766 16.4112 6.40893
117 3 6.14258 16.8482 2.77056
118 3 7.70286 12.2126 5.81807
119 3 0.658916 11.9831 1.57237
120 3 3.98367 17.0795 6.91631
121 6 2.28099 10.0782 4.99677
122 6 2.54313 19.1287 3.47566
123 6 0.420747 14.923 7.83988
124 6 4.32139 14.2569 0.735444
125 4 0.158521 17.2177 1.86657
126 4 4.57716 11.825 6.53988
127 4 6.75849 12.4636 2.59067
128 4 6.99706 16.3466 5.99681
129 4 5.2211 16.2547 2.74411
130 4 8.47878 12.7712 5.68388
131 4 1.48744 11.3848 1.45452
132 4 3.17497 17.7172 7.11509
133 1 4.47132 10.2119 12.2503
134 1 0.875859 18.8279 13.3477
135 1 2.91753 15.0173 9.07134
136 1 2.42411 14.0166 16.5236
137 2 3.43912 18.3212 11.733
138 2 1.89926 10.7414 13.9048
139 2 3.93087 13.3863 9.63097
140 2 1.50771 15.6175 15.9084
141 2 2.13276 18.008 12.0739
142 2 3.17081 11.105 13.5498
143 2 5.16353 13.07 9.26729
144 2 9.14486 15.9769 16.3644
145 2 3.00081 16.5006 10.3908
146 2 2.42352 12.5491 15.1249
147 2 4.56412 11.7401 10.9492
148 2 0.805596 17.4312 14.7464
149 5 5.95224 10.3612 13.7523
150 5 8.48586 18.7178 11.8189
151 5 6.30304 15.3325 16.1301
152 5 8.0574 13.821 9.44742
153 5 7.98972 10.0357 14.2466
154 5 6.33684 19.0158 11.3182
155 5 4.36142 14.9361 15.6174
156 5 1.20079 14.1456 10.0196
157 3 4.00592 17.3392 10.784
158 3 1.54695 11.6174 14.9111
159 3 3.60548 12.545 10.6142
160 3 1.74378 16.4802 15.0217
161 3 1.92398 16.9159 11.2179
162 3 3.436 12.178 14.3603
163 3 5.47567 12.0442 10.0299
164 3 8.83495 17.0444 15.6058
165 6 7.0249 9.91251 13.512
166 6 7.29982 19.0043 12.0922
167 6 5.28931 14.8048 16.3331
168 6 9.16242 14.3021 9.25511
169 4 4.97205 17.2895 10.201
170 4 0.663118 11.7046 15.5062
171 4 2.91112 12.7624 11.3357
172 4 2.78197 16.5922 14.6291
173 4 1.03667 16.2847 11.4251
174 4 4.27368 12.7464 14.172
175 4 6.47173 11.4912 9.93585
176 4 7.93267 17.4993 15.5883
177 7 7.36866 13.3558 14.3569
178 8 6.84858 13.0711 15.1156
179 8 6.67286 13.1998 13.6962
180 7 6.90795 15.5806 12.4926
181 8 6.8752 16.5063 12.7439
182 8 7.85485 15.3714 12.3744
183 7 5.31979 4.90384 12.8867
184 8 4.35849 5.0268 13.0077
185 8 5.58593 5.83433 12.9642
186 7 7.15085 5.72418 11.3255
187 8 7.64866 5.69808 12.1463
188 8 7.7078 6.21738 10.7029
189 7 2.94345 4.92625 4.46115
190 8 2.67319 5.87253 4.40688
191 8 2.21727 4.65853 3.83019
192 7 4.64925 2.87226 4.1591
193 8 4.56573 2.72851 3.2044
194 8 5.28551 3.58624 4.35536
ITEM: TIMESTEP
41
ITEM: NUMBER OF ATOMS
194
ITEM: BOX BOUNDS xy xz yz pp pp pp
-2.0683470307352181e-03 9.5465446938722742e+00 0.0000000000000000e+00
-4.4985349821242693e-03 1.9391497634982123e+01 6.3067614684153450e-01
-3.9592342386267632e-03 1.7066774334238609e+01 0.0000000000000000e+00
ITEM: ATOMS id type x y z
1 1 8.69252 0.523357 3.72136
2 1 4.99092 9.1831 4.78534
3 1 7.06381 5.40044 0.474382
4 1 6.60176 4.30414 8.03684
5 2 7.70759 8.63142 3.15296
6 2 6.09516 1.08019 5.44127
7 2 8.09368 3.71627 1.10489
8 2 5.62963 5.95905 7.4098
9 2 6.48058 8.22205 3.58304
10 2 7.38591 1.50411 4.91731
11 2 0.445215 3.42092 0.744123
12 2 4.36094 6.29596 7.87304
13 2 7.09349 6.83097 1.9779
14 2 6.59919 2.80848 6.67036
15 2 8.72783 1.95565 2.36679
16 2 4.94808 7.78227 6.1088
17 5 1.10732 0.772231 5.24359
18 5 3.69896 8.96542 3.29789
19 5 1.52446 5.65672 7.54671
20 5 3.15797 4.12003 1.05908
21 5 3.18818 0.313586 5.74655
22 5 1.56708 9.40674 2.77974
23 5 8.50249 5.08119 7.12556
24 5 5.22324 4.56456 1.49714
25 3 8.0769 7.72481 2.22782
26 3 5.60468 1.88668 6.43478
27 3 7.71266 2.89004 2.10319
28 3 5.9506 6.85383 6.40344
29 3 6.16629 7.11446 2.86417
30 3 7.5347 2.46946 5.77241
31 3 0.761673 2.37086 1.52105
32 3 3.95914 7.43607 7.0281
33 6 2.24613 0.36775 5.02372
34 6 2.54002 9.33346 3.54492
35 6 0.464858 5.22107 7.83647
36 6 4.28657 4.49462 0.735717
37 4 0.124838 7.58163 1.88864
38 4 4.6043 1.86531 6.85039
39 4 6.64542 2.87083 2.45559
40 4 7.04485 7.07468 6.19515
41 4 5.13018 6.74807 2.79161
42 4 8.57828 2.74921 5.87074
43 4 1.75324 1.86161 1.464
44 4 3.08352 8.00137 7.18519
45 1 4.54242 0.543358 12.287
46 1 0.897808 9.15918 13.2879
47 1 2.97862 5.3257 9.02185
48 1 2.4536 4.30132 16.5449
49 2 3.51089 8.61252 11.7278
50 2 1.7569 1.07505 13.7802
51 2 3.97643 3.82504 9.71513
52 2 1.50226 5.98463 15.9681
53 2 2.16742 8.24427 11.931
54 2 3.14368 1.30883 13.613
55 2 5.29588 3.40646 9.2633
56 2 9.12265 6.36436 16.3856
57 2 2.89669 6.85796 10.3643
58 2 2.4484 2.91799 15.2349
59 2 4.49247 1.87695 10.8409
60 2 0.833298 7.63809 14.6102
61 5 5.80137 0.676332 13.7519
62 5 8.46177 9.11777 11.9261
63 5 6.31434 5.62966 16.1596
64 5 8.02081 4.06315 9.48698
65 5 7.88009 0.327979 14.2535
66 5 6.34611 9.40816 11.2795
67 5 4.25627 5.11691 15.6449
68 5 1.12138 4.57777 10.0356
69 3 3.95559 7.68952 10.7826
70 3 1.48771 1.95901 14.818
71 3 3.53985 2.86615 10.5817
72 3 1.87077 6.88485 15.0226
73 3 1.90565 7.14351 11.2063
74 3 3.37961 2.4973 14.3005
75 3 5.55044 2.33512 10.0042
76 3 8.77757 7.3489 15.5149
77 6 6.93201 0.34392 13.4907
78 6 7.26618 9.30635 12.1172
79 6 5.19987 5.26649 16.345
80 6 9.10784 4.53395 9.26817
81 4 4.87323 7.79649 10.0539
82 4 9.44114 1.95726 15.3312
83 4 2.73844 3.02373 11.2278
84 4 2.639 6.73521 14.2776
85 4 0.898928 6.72206 11.1191
86 4 4.49367 2.80303 14.3907
87 4 6.46726 1.79789 9.95066
88 4 7.72005 7.85043 15.59
89 1 8.6477 10.2196 3.75741
90 1 5.03664 18.8499 4.75348
91 1 7.0942 15.0551 0.533248
92 1 6.60857 13.9929 8.02915
93 2 7.73477 18.3331 3.17272
94 2 6.01966 10.8354 5.35956
95 2 8.08631 13.4004 1.03309
96 2 5.56687 15.6369 7.32061
97 2 6.38938 18.0351 3.46667
98 2 7.32684 11.1951 4.97452
99 2 0.45221 13.0485 0.723918
100 2 4.34875 16.1323 7.80079
101 2 7.12085 16.5469 1.84284
102 2 6.65401 12.5553 6.59843
103 2 8.58058 11.6797 2.41704
104 2 5.00054 17.3788 6.15708
105 5 1.17184 10.4408 5.22541
106 5 3.64648 18.7691 3.27486
107 5 1.56285 15.2858 7.57616
108 5 3.23771 13.8534 0.965532
109 5 3.14653 10.0259 5.84957
110 5 1.54153 19.0559 2.72934
111 5 8.38673 14.8476 7.03389
112 5 5.25112 14.2598 1.49657
113 3 8.07306 17.4556 2.18429
114 3 5.68631 11.6441 6.33194
115 3 7.68758 12.5884 2.09898
116 3 5.9161 16.4105 6.40679
117 3 6.14523 16.847 2.76938
118 3 7.70512 12.2125 5.81865
119 3 0.656981 11.9823 1.57293
120 3 3.98208 17.0798 6.91512
121 6 2.28141 10.0796 4.9966
122 6 2.54074 19.1315 3.47572
123 6 0.421779 14.9259 7.83859
124 6 4.32249 14.2582 0.73493
125 4 0.159587 17.2152 1.87435
126 4 4.57933 11.8365 6.53638
127 4 6.75647 12.4661 2.58421
128 4 6.99579 16.353 5.99116
129 4 5.21934 16.2614 2.75091
130 4 8.476 12.7726 5.6806
131 4 1.48122 11.3812 1.45444
132 4 3.18017 17.7237 7.11573
133 1 4.47037 10.2113 12.2498
134 1 0.875337 18.8277 13.3483
135 1 2.91646 15.0156 9.07175
136 1 2.42377 14.0171 16.5233
137 2 3.43852 18.322 11.7332
138 2 1.89948 10.7393 13.905
139 2 3.92962 13.3866 9.6307
140 2 1.50711 15.615 15.9099
141 2 2.12932 18.0091 12.0743
142 2 3.17209 11.104 13.5498
143 2 5.1642 13.0699 9.26584
144 2 9.14623 15.9759 16.3656
145 2 3.00144 16.4988 10.3899
146 2 2.42322 12.5515 15.1256
147 2 4.56573 11.7393 10.9517
148 2 0.805121 17.4327 14.7468
149 5 5.95432 10.3593 13.7523
150 5 8.48555 18.7201 11.8186
151 5 6.30205 15.3343 16.1307
152 5 8.06164 13.8221 9.44647
153 5 7.98902 10.0362 14.2448
154 5 6.3384 19.0144 11.3196
155 5 4.36412 14.9381 15.6188
156 5 1.20138 14.144 10.0184
157 3 4.00585 17.3372 10.7862
158 3 1.54825 11.6168 14.9121
159 3 3.60568 12.5439 10.6146
160 3 1.74169 16.4826 15.0202
161 3 1.92405 16.9174 11.2168
162 3 3.43619 12.1764 14.36
163 3 5.47452 12.0438 10.0298
164 3 8.83501 17.0451 15.6073
165 6 7.02467 9.91067 13.5129
166 6 7.30027 19.0026 12.0918
167 6 5.29007 14.803 16.3341
168 6 9.1617 14.3026 9.25664
169 4 4.97362 17.2911 10.2067
170 4 0.663684 11.7014 15.5034
171 4 2.91997 12.7662 11.34
172 4 2.78155 16.5963 14.632
173 4 1.0408 16.2819 11.4237
174 4 4.26733 12.7519 14.173
175 4 6.4716 11.4923 9.93345
176 4 7.93206 17.4955 15.5933
177 7 7.37088 13.3552 14.3569
178 8 6.84992 13.0728 15.1218
179 8 6.66981 13.2093 13.6999
180 7 6.90816 15.5796 12.4931
181 8 6.8768 16.5114 12.7449
182 8 7.85254 15.3796 12.3701
183 7 5.31886 4.90294 12.886
184 8 4.35796 5.02193 13.0124
185 8 5.58524 5.83492 12.9479
186 7 7.15126 5.72561 11.3266
187 8 7.6511 5.70019 12.1513
188 8 7.71564 6.21461 10.7066
189 7 2.94082 4.92908 4.45924
190 8 2.67124 5.8727 4.41397
191 8 2.22579 4.65135 3.82521
192 7 4.64897 2.87253 4.15719
193 8 4.57542 2.72751 3.20162
194 8 5.2853 3.58603 4.34623
ITEM: TIMESTEP
42
ITEM: NUMBER OF ATOMS
194
ITEM: BOX BOUNDS xy xz yz pp pp pp
-2.1534337901210066e-03 9.5466418152962245e+00 0.0000000000000000e+00
-4.6835937551090723e-03 1.9391682693755108e+01 6.3068818150609751e-01
-4.1221074924902013e-03 1.7066937207492472e+01 0.0000000000000000e+00
ITEM: ATOMS id type x y z
1 1 8.69356 0.522771 3.72078
2 1 4.98995 9.184 4.78527
3 1 7.06288 5.40055 0.473236
4 1 6.60234 4.30419 8.03758
5 2 7.70902 8.63313 3.15337
6 2 6.09913 1.07785 5.44165
7 2 8.09306 3.71692 1.10442
8 2 5.63033 5.9586 7.4099
9 2 6.48103 8.22161 3.58485
10 2 7.3858 1.50372 4.91587
11 2 0.446562 3.42155 0.743528
12 2 4.36023 6.29783 7.87358
13 2 7.09428 6.82859 1.97794
14 2 6.59793 2.8085 6.67299
15 2 8.72787 1.95389 2.36785
16 2 4.94674 7.78542 6.10717
17 5 1.10894 0.772496 5.24436
18 5 3.69805 8.96614 3.29751
19 5 1.52206 5.65829 7.54591
20 5 3.15883 4.12077 1.06126
21 5 3.18775 0.313446 5.74687
22 5 1.56842 9.40734 2.7805
23 5 8.50367 5.07905 7.12614
24 5 5.22129 4.56545 1.49688
25 3 8.07702 7.72444 2.22875
26 3 5.606 1.88553 6.43742
27 3 7.71441 2.88929 2.10337
28 3 5.94908 6.85543 6.40246
29 3 6.1677 7.11358 2.86781
30 3 7.53549 2.46903 5.77126
31 3 0.762152 2.37119 1.52108
32 3 3.95893 7.43564 7.02981
33 6 2.24317 0.368622 5.02103
34 6 2.54184 9.33241 3.54541
35 6 0.468231 5.22236 7.84026
36 6 4.28422 4.49403 0.734682
37 4 0.12411 7.57388 1.89169
38 4 4.60553 1.86876 6.85331
39 4 6.64787 2.86051 2.45713
40 4 7.04149 7.08445 6.199
41 4 5.13247 6.74836 2.79112
42 4 8.57651 2.75059 5.88028
43 4 1.7539 1.86336 1.46219
44 4 3.08667 8.00392 7.18812
45 1 4.54313 0.543154 12.2873
46 1 0.897874 9.15945 13.2872
47 1 2.97904 5.32402 9.02111
48 1 2.45393 4.30137 16.5452
49 2 3.51036 8.61284 11.728
50 2 1.75553 1.07405 13.7773
51 2 3.9792 3.82703 9.71569
52 2 1.50236 5.98448 15.9692
53 2 2.16513 8.24556 11.9295
54 2 3.14305 1.30552 13.6143
55 2 5.29618 3.40858 9.26224
56 2 9.12321 6.36552 16.3869
57 2 2.89671 6.85753 10.3619
58 2 2.44786 2.91893 15.2359
59 2 4.49239 1.87471 10.8389
60 2 0.831833 7.63833 14.6074
61 5 5.79988 0.674531 13.752
62 5 8.46127 9.12196 11.9275
63 5 6.31288 5.63103 16.1599
64 5 8.02365 4.06191 9.48674
65 5 7.87639 0.328318 14.2521
66 5 6.34788 9.40885 11.2801
67 5 4.25623 5.11605 15.6458
68 5 1.12039 4.57895 10.0356
69 3 3.95464 7.68715 10.7835
70 3 1.4882 1.96056 14.8178
71 3 3.54015 2.86393 10.5819
72 3 1.87119 6.88771 15.0227
73 3 1.90467 7.14209 11.2044
74 3 3.37814 2.49698 14.3006
75 3 5.54964 2.33227 10.0059
76 3 8.77748 7.3484 15.515
77 6 6.93099 0.344177 13.4902
78 6 7.26625 9.30422 12.1173
79 6 5.19967 5.2674 16.3494
80 6 9.10716 4.53396 9.26746
81 4 4.87175 7.80029 10.0569
82 4 9.44052 1.95848 15.3278
83 4 2.74209 3.02514 11.2302
84 4 2.63555 6.73071 14.2774
85 4 0.896497 6.72572 11.1147
86 4 4.49201 2.79873 14.3953
87 4 6.46952 1.80113 9.9429
88 4 7.72124 7.85226 15.5858
89 1 8.64762 10.2192 3.75775
90 1 5.03672 18.8502 4.7526
91 1 7.09403 15.0544 0.533378
92 1 6.60918 13.9929 8.02961
93 2 7.73567 18.335 3.17368
94 2 6.02086 10.8353 5.35802
95 2 8.08543 13.4004 1.03169
96 2 5.56487 15.6351 7.32022
97 2 6.38878 18.0374 3.46576
98 2 7.32808 11.1957 4.97359
99 2 0.453079 13.0475 0.723108
100 2 4.34881 16.1346 7.80123
101 2 7.12122 16.5465 1.84194
102 2 6.65514 12.5574 6.59882
103 2 8.57886 11.6777 2.41914
104 2 5.0012 17.3805 6.15478
105 5 1.17367 10.441 5.22565
106 5 3.6467 18.7717 3.27313
107 5 1.56045 15.2855 7.57629
108 5 3.23887 13.8545 0.966013
109 5 3.14418 10.0261 5.85074
110 5 1.54302 19.0556 2.72932
111 5 8.38788 14.8472 7.03526
112 5 5.24952 14.2606 1.49617
113 3 8.0732 17.455 2.18299
114 3 5.68758 11.6445 6.33198
115 3 7.68774 12.588 2.09957
116 3 5.91464 16.4098 6.40455
117 3 6.14791 16.8458 2.76817
118 3 7.70725 12.2123 5.81923
119 3 0.655035 11.9817 1.57346
120 3 3.9805 17.0801 6.91398
121 6 2.28187 10.0811 4.99636
122 6 2.53822 19.1343 3.4759
123 6 0.422809 14.9288 7.83729
124 6 4.32365 14.2595 0.734329
125 4 0.160823 17.2129 1.88221
126 4 4.58218 11.8481 6.53284
127 4 6.75392 12.4688 2.57758
128 4 6.99364 16.3597 5.98565
129 4 5.21752 16.2684 2.75791
130 4 8.47436 12.775 5.67704
131 4 1.47555 11.3772 1.4543
132 4 3.18511 17.7305 7.11648
133 1 4.46942 10.2106 12.2493
134 1 0.874806 18.8275 13.349
135 1 2.91539 15.014 9.07214
136 1 2.42343 14.0177 16.5229
137 2 3.43799 18.3229 11.7333
138 2 1.89968 10.7371 13.9052
139 2 3.92833 13.387 9.63045
140 2 1.50642 15.6124 15.9115
141 2 2.12592 18.01 12.0746
142 2 3.17338 11.1031 13.5498
143 2 5.16493 13.0699 9.26436
144 2 9.14762 15.9748 16.3668
145 2 3.00204 16.497 10.389
146 2 2.42296 12.554 15.1264
147 2 4.56736 11.7384 10.9543
148 2 0.804707 17.4343 14.7472
149 5 5.95636 10.3575 13.7524
150 5 8.4852 18.7223 11.8183
151 5 6.30112 15.3361 16.1314
152 5 8.06589 13.8231 9.44554
153 5 7.98834 10.0367 14.2429
154 5 6.33998 19.013 11.3209
155 5 4.36677 14.94 15.62
156 5 1.20197 14.1423 10.0172
157 3 4.00568 17.3352 10.7885
158 3 1.54955 11.6163 14.9131
159 3 3.60588 12.5428 10.615
160 3 1.73969 16.4851 15.0185
161 3 1.92414 16.9189 11.2158
162 3 3.43637 12.1747 14.3597
163 3 5.47346 12.0433 10.0297
164 3 8.83507 17.0458 15.6089
165 6 7.02447 9.90883 13.5139
166 6 7.3007 19.001 12.0914
167 6 5.29076 14.8011 16.3351
168 6 9.16096 14.303 9.25817
169 4 4.9749 17.2932 10.2129
170 4 0.663816 11.6978 15.5004
171 4 2.92819 12.7702 11.3447
172 4 2.7808 16.6003 14.635
173 4 1.04514 16.2793 11.422
174 4 4.26147 12.7578 14.1739
175 4 6.47092 11.4937 9.93113
176 4 7.9306 17.4921 15.5985
177 7 7.37307 13.3546 14.3568
178 8 6.8515 13.0746 15.1281
179 8 6.66707 13.2191 13.7035
180 7 6.90838 15.5787 12.4936
181 8 6.87844 16.5164 12.7459
182 8 7.84993 15.388 12.3659
183 7 5.3179 4.90207 12.8853
184 8 4.3577 5.01686 13.0171
185 8 5.58463 5.83525 12.9315
186 7 7.15167 5.72707 11.3277
187 8 7.65352 5.70225 12.156
188 8 7.72339 6.21171 10.7104
189 7 2.93813 4.93195 4.45728
190 8 2.66957 5.87267 4.42131
191 8 2.23483 4.64395 3.82058
192 7 4.64868 2.87283 4.15524
193 8 4.58522 2.72676 3.19906
194 8 5.28481 3.58557 4.33685
ITEM: TIMESTEP
43
ITEM: NUMBER OF ATOMS
194
ITEM: BOX BOUNDS xy xz yz pp pp pp
-2.2391540530808385e-03 9.5467396598264429e+00 0.0000000000000000e+00
-4.8700303616691087e-03 1.9391869130361670e+01 6.3070030577335612e-01
-4.2861934002260682e-03 1.7067101293400206e+01 0.0000000000000000e+00
ITEM: ATOMS id type x y z
1 1 8.69461 0.522187 3.7202
2 1 4.98898 9.18491 4.7852
3 1 7.06195 5.40065 0.472096
4 1 6.60293 4.30424 8.03832
5 2 7.71047 8.63485 3.15379
6 2 6.10315 1.07545 5.44198
7 2 8.0924 3.71762 1.10393
8 2 5.631 5.95815 7.41
9 2 6.48143 8.22119 3.58665
10 2 7.38557 1.50325 4.91449
11 2 0.447942 3.42217 0.74294
12 2 4.35948 6.29979 7.87401
13 2 7.0951 6.82615 1.97794
14 2 6.59662 2.80855 6.67565
15 2 8.72783 1.95213 2.36893
16 2 4.94541 7.78856 6.10559
17 5 1.11057 0.772757 5.24515
18 5 3.69711 8.96686 3.29711
19 5 1.5197 5.65988 7.54511
20 5 3.15971 4.12151 1.06343
21 5 3.18734 0.313308 5.74722
22 5 1.56978 9.40792 2.78127
23 5 8.50478 5.0769 7.12662
24 5 5.21934 4.56633 1.49662
25 3 8.07708 7.72406 2.22969
26 3 5.60741 1.8844 6.44005
27 3 7.7162 2.88851 2.10356
28 3 5.94757 6.85706 6.4015
29 3 6.16907 7.11272 2.87147
30 3 7.53638 2.46865 5.7701
31 3 0.76268 2.3715 1.52112
32 3 3.95883 7.43509 7.03154
33 6 2.24019 0.369438 5.01817
34 6 2.54365 9.33142 3.54597
35 6 0.471592 5.2236 7.84419
36 6 4.28189 4.4935 0.733576
37 4 0.123978 7.56612 1.89457
38 4 4.60677 1.87225 6.85629
39 4 6.65081 2.85 2.45861
40 4 7.03758 7.09411 6.20287
41 4 5.13492 6.74864 2.79069
42 4 8.57468 2.75226 5.88996
43 4 1.75427 1.86527 1.46036
44 4 3.08949 8.00665 7.19119
45 1 4.54383 0.542945 12.2877
46 1 0.897932 9.15971 13.2864
47 1 2.97945 5.32234 9.02037
48 1 2.45425 4.30141 16.5455
49 2 3.50982 8.61311 11.7282
50 2 1.75425 1.07305 13.7745
51 2 3.98205 3.82899 9.7162
52 2 1.5024 5.98431 15.9703
53 2 2.16287 8.24688 11.928
54 2 3.14237 1.30227 13.6157
55 2 5.29639 3.41074 9.2612
56 2 9.12378 6.36666 16.3882
57 2 2.89681 6.85707 10.3596
58 2 2.44729 2.91981 15.2369
59 2 4.49232 1.87253 10.837
60 2 0.83036 7.63862 14.6046
61 5 5.79839 0.672726 13.7522
62 5 8.46076 9.12614 11.9289
63 5 6.31145 5.63243 16.1602
64 5 8.02649 4.06064 9.4865
65 5 7.8727 0.328665 14.2507
66 5 6.34967 9.40954 11.2807
67 5 4.25617 5.1152 15.6467
68 5 1.11941 4.58013 10.0357
69 3 3.95367 7.68476 10.7843
70 3 1.4887 1.96213 14.8177
71 3 3.54052 2.86167 10.5822
72 3 1.87158 6.89057 15.0227
73 3 1.90368 7.14068 11.2025
74 3 3.37677 2.49665 14.3007
75 3 5.54878 2.32936 10.0077
76 3 8.77734 7.34792 15.5151
77 6 6.93005 0.344378 13.4896
78 6 7.26632 9.30212 12.1174
79 6 5.19939 5.26819 16.354
80 6 9.10654 4.53402 9.26669
81 4 4.86958 7.80416 10.0606
82 4 9.43989 1.95972 15.3243
83 4 2.74529 3.02659 11.233
84 4 2.6323 6.72598 14.2773
85 4 0.894153 6.72951 11.1102
86 4 4.48953 2.79431 14.3999
87 4 6.472 1.80422 9.93501
88 4 7.72336 7.85374 15.5814
89 1 8.64754 10.2187 3.75809
90 1 5.03679 18.8506 4.75173
91 1 7.09386 15.0536 0.533505
92 1 6.6098 13.993 8.03007
93 2 7.73653 18.3369 3.17464
94 2 6.02212 10.8351 5.35644
95 2 8.08451 13.4003 1.03035
96 2 5.56282 15.6332 7.31992
97 2 6.38821 18.0396 3.46483
98 2 7.32931 11.1964 4.9727
99 2 0.453942 13.0465 0.722317
100 2 4.34886 16.1369 7.80166
101 2 7.12159 16.546 1.84108
102 2 6.65627 12.5596 6.59924
103 2 8.57717 11.6756 2.42124
104 2 5.0019 17.3823 6.15242
105 5 1.17546 10.4412 5.22591
106 5 3.64696 18.7743 3.27136
107 5 1.55805 15.2851 7.57641
108 5 3.23997 13.8557 0.966516
109 5 3.14184 10.0262 5.85188
110 5 1.54455 19.0553 2.72931
111 5 8.38907 14.8468 7.03666
112 5 5.24794 14.2614 1.49578
113 3 8.07333 17.4544 2.18166
114 3 5.6888 11.645 6.33204
115 3 7.68793 12.5876 2.10013
116 3 5.91328 16.4092 6.40221
117 3 6.15061 16.8446 2.76693
118 3 7.70925 12.212 5.81981
119 3 0.653078 11.9811 1.57396
120 3 3.97892 17.0804 6.91289
121 6 2.28236 10.0824 4.99605
122 6 2.53558 19.1373 3.47621
123 6 0.423831 14.9317 7.83598
124 6 4.32488 14.2608 0.733642
125 4 0.162236 17.2107 1.89016
126 4 4.58568 11.8596 6.52927
127 4 6.75085 12.4718 2.5708
128 4 6.99063 16.3666 5.9803
129 4 5.21566 16.2758 2.76506
130 4 8.47386 12.7781 5.67319
131 4 1.47043 11.3728 1.45407
132 4 3.18976 17.7376 7.11735
133 1 4.46848 10.2099 12.2488
134 1 0.874265 18.8273 13.3496
135 1 2.91432 15.0123 9.07254
136 1 2.4231 14.0183 16.5226
137 2 3.43754 18.3237 11.7334
138 2 1.89986 10.735 13.9054
139 2 3.927 13.3875 9.63021
140 2 1.50565 15.6098 15.9133
141 2 2.12257 18.0109 12.0749
142 2 3.17466 11.1022 13.5498
143 2 5.16573 13.0698 9.26286
144 2 9.14901 15.9737 16.368
145 2 3.00259 16.4951 10.3882
146 2 2.42273 12.5565 15.1272
147 2 4.56901 11.7374 10.9568
148 2 0.804351 17.4359 14.7475
149 5 5.95836 10.3556 13.7525
150 5 8.4848 18.7246 11.818
151 5 6.30025 15.3379 16.132
152 5 8.07014 13.8242 9.44463
153 5 7.98768 10.0372 14.2411
154 5 6.34158 19.0115 11.3222
155 5 4.36936 14.942 15.6213
156 5 1.20254 14.1408 10.016
157 3 4.00541 17.3333 10.7908
158 3 1.55085 11.6157 14.914
159 3 3.60606 12.5418 10.6154
160 3 1.73778 16.4876 15.0167
161 3 1.92425 16.9204 11.2147
162 3 3.43654 12.173 14.3593
163 3 5.47248 12.0427 10.0297
164 3 8.83512 17.0465 15.6104
165 6 7.02431 9.90696 13.5149
166 6 7.3011 18.9994 12.0911
167 6 5.2914 14.7992 16.3362
168 6 9.16022 14.3034 9.25969
169 4 4.97591 17.2956 10.2195
170 4 0.663505 11.694 15.4972
171 4 2.93578 12.7746 11.3498
172 4 2.77972 16.6042 14.638
173 4 1.0497 16.2767 11.4202
174 4 4.2561 12.7642 14.1748
175 4 6.46969 11.4954 9.92888
176 4 7.92827 17.489 15.6039
177 7 7.37524 13.354 14.3568
178 8 6.85336 13.0765 15.1344
179 8 6.66464 13.229 13.707
180 7 6.9086 15.5778 12.4941
181 8 6.88011 16.5212 12.7468
182 8 7.84708 15.3963 12.3617
183 7 5.31691 4.90123 12.8846
184 8 4.35773 5.01161 13.0217
185 8 5.5841 5.83531 12.9149
186 7 7.1521 5.72856 11.3288
187 8 7.65588 5.70425 12.1606
188 8 7.73103 6.20867 10.7144
189 7 2.9354 4.93485 4.45529
190 8 2.66813 5.87247 4.42888
191 8 2.24435 4.63636 3.81625
192 7 4.64838 2.87314 4.15325
193 8 4.59512 2.72624 3.19671
194 8 5.28406 3.5849 4.32725
ITEM: TIMESTEP
44
ITEM: NUMBER OF ATOMS
194
ITEM: BOX BOUNDS xy xz yz pp pp pp
-2.3254835063646340e-03 9.5468381997108178e+00 0.0000000000000000e+00
-5.0577919218959266e-03 1.9392056891921897e+01 6.3071251620444635e-01
-4.4514454213633314e-03 1.7067266545421340e+01 0.0000000000000000e+00
ITEM: ATOMS id type x y z
1 1 8.69566 0.521605 3.71962
2 1 4.98801 9.18582 4.78514
3 1 7.06102 5.40075 0.47096
4 1 6.60352 4.30428 8.03906
5 2 7.71194 8.63658 3.15424
6 2 6.10721 1.073 5.44227
7 2 8.09171 3.71839 1.10343
8 2 5.63166 5.9577 7.4101
9 2 6.48177 8.22076 3.58844
10 2 7.3852 1.50271 4.91319
11 2 0.449351 3.42278 0.742359
12 2 4.35869 6.30185 7.87433
13 2 7.09597 6.82364 1.97788
14 2 6.59526 2.80861 6.67834
15 2 8.72773 1.95038 2.37002
16 2 4.9441 7.79171 6.10406
17 5 1.11221 0.773015 5.24596
18 5 3.69614 8.96758 3.29668
19 5 1.5174 5.66149 7.54429
20 5 3.1606 4.12226 1.06558
21 5 3.18695 0.313172 5.74761
22 5 1.57118 9.40848 2.78204
23 5 8.50582 5.07475 7.12703
24 5 5.2174 4.56722 1.49637
25 3 8.07708 7.72369 2.23064
26 3 5.60893 1.88327 6.44265
27 3 7.71801 2.88768 2.10375
28 3 5.94606 6.8587 6.40054
29 3 6.17041 7.1119 2.87514
30 3 7.53738 2.46834 5.76896
31 3 0.763258 2.37177 1.52115
32 3 3.95884 7.43442 7.0333
33 6 2.23722 0.370197 5.01513
34 6 2.54543 9.33048 3.54661
35 6 0.474925 5.22478 7.84825
36 6 4.27959 4.49302 0.732406
37 4 0.124443 7.55838 1.89729
38 4 4.60801 1.87578 6.85932
39 4 6.65424 2.83929 2.46002
40 4 7.03314 7.10366 6.20677
41 4 5.13751 6.74891 2.79034
42 4 8.57281 2.75422 5.89975
43 4 1.75434 1.86733 1.45851
44 4 3.09198 8.00954 7.19438
45 1 4.54452 0.54273 12.288
46 1 0.897984 9.15997 13.2857
47 1 2.97987 5.32067 9.01963
48 1 2.45458 4.30147 16.5458
49 2 3.50926 8.61334 11.7283
50 2 1.75304 1.07208 13.7717
51 2 3.98496 3.83092 9.71667
52 2 1.5024 5.98412 15.9714
53 2 2.16064 8.24825 11.9266
54 2 3.14163 1.29906 13.6172
55 2 5.2965 3.41293 9.26018
56 2 9.12438 6.36779 16.3895
57 2 2.89696 6.85658 10.3572
58 2 2.4467 2.92061 15.2378
59 2 4.49228 1.87039 10.835
60 2 0.82888 7.63897 14.6018
61 5 5.79689 0.670918 13.7523
62 5 8.46024 9.13032 11.9302
63 5 6.31005 5.63386 16.1605
64 5 8.02933 4.05935 9.48626
65 5 7.86901 0.32902 14.2493
66 5 6.35148 9.41022 11.2812
67 5 4.25609 5.11436 15.6476
68 5 1.11844 4.58131 10.0357
69 3 3.95268 7.68238 10.7851
70 3 1.48919 1.96374 14.8176
71 3 3.54098 2.85939 10.5823
72 3 1.87196 6.89342 15.0228
73 3 1.90267 7.13928 11.2005
74 3 3.37549 2.49632 14.3008
75 3 5.54787 2.32642 10.0096
76 3 8.77713 7.34748 15.5153
77 6 6.92918 0.344524 13.4889
78 6 7.26637 9.30003 12.1175
79 6 5.19904 5.26887 16.3588
80 6 9.10597 4.53412 9.26585
81 4 4.86672 7.80809 10.0651
82 4 9.43924 1.96097 15.3206
83 4 2.74804 3.02809 11.2361
84 4 2.62928 6.72103 14.2773
85 4 0.891894 6.73344 11.1058
86 4 4.48625 2.78979 14.4046
87 4 6.47467 1.80716 9.92703
88 4 7.72638 7.85487 15.5769
89 1 8.64746 10.2183 3.75843
90 1 5.03687 18.8509 4.75085
91 1 7.09369 15.0529 0.533626
92 1 6.61041 13.993 8.03052
93 2 7.73734 18.3388 3.17559
94 2 6.02342 10.835 5.35482
95 2 8.08356 13.4002 1.02907
96 2 5.56072 15.6312 7.31972
97 2 6.38767 18.0418 3.46387
98 2 7.33055 11.197 4.97184
99 2 0.454797 13.0454 0.721545
100 2 4.34889 16.1391 7.80207
101 2 7.12194 16.5456 1.84026
102 2 6.65739 12.5619 6.59969
103 2 8.57549 11.6735 2.42336
104 2 5.00264 17.3842 6.14999
105 5 1.17722 10.4415 5.22618
106 5 3.64725 18.777 3.26954
107 5 1.55564 15.2848 7.5765
108 5 3.24103 13.8568 0.967041
109 5 3.13952 10.0264 5.853
110 5 1.54611 19.055 2.72932
111 5 8.39029 14.8464 7.03809
112 5 5.24639 14.2622 1.49542
113 3 8.07345 17.4538 2.1803
114 3 5.68997 11.6456 6.33214
115 3 7.68816 12.5872 2.10065
116 3 5.91201 16.4086 6.39977
117 3 6.15333 16.8436 2.76566
118 3 7.71111 12.2117 5.82039
119 3 0.651109 11.9805 1.57442
120 3 3.97736 17.0807 6.91183
121 6 2.28291 10.0838 4.99566
122 6 2.53282 19.1403 3.47665
123 6 0.424836 14.9345 7.83467
124 6 4.32617 14.2622 0.73287
125 4 0.163828 17.2087 1.89818
126 4 4.58983 11.871 6.52564
127 4 6.74726 12.4751 2.56388
128 4 6.98675 16.3738 5.97513
129 4 5.21376 16.2834 2.77234
130 4 8.4745 12.7821 5.66905
131 4 1.46587 11.368 1.45376
132 4 3.19414 17.7451 7.11835
133 1 4.46754 10.2092 12.2484
134 1 0.873713 18.8271 13.3502
135 1 2.91325 15.0107 9.07293
136 1 2.42277 14.0188 16.5222
137 2 3.43717 18.3244 11.7334
138 2 1.90003 10.7329 13.9057
139 2 3.92564 13.3881 9.62998
140 2 1.50481 15.6071 15.9151
141 2 2.11926 18.0118 12.0751
142 2 3.17595 11.1013 13.5499
143 2 5.1666 13.0698 9.26133
144 2 9.15042 15.9726 16.3692
145 2 3.0031 16.4933 10.3874
146 2 2.42253 12.5591 15.1281
147 2 4.57067 11.7364 10.9594
148 2 0.80405 17.4375 14.7479
149 5 5.96031 10.3538 13.7526
150 5 8.48437 18.7269 11.8177
151 5 6.29945 15.3398 16.1326
152 5 8.07438 13.8252 9.44376
153 5 7.98703 10.0377 14.2392
154 5 6.34319 19.0101 11.3235
155 5 4.37189 14.9439 15.6225
156 5 1.20311 14.1392 10.0147
157 3 4.00503 17.3314 10.7931
158 3 1.55213 11.615 14.9149
159 3 3.60624 12.5407 10.6158
160 3 1.73595 16.4902 15.0149
161 3 1.92438 16.9219 11.2136
162 3 3.43669 12.1712 14.3589
163 3 5.47159 12.0421 10.0296
164 3 8.83518 17.0471 15.612
165 6 7.02418 9.90507 13.5159
166 6 7.30147 18.9978 12.0908
167 6 5.29198 14.7972 16.3374
168 6 9.15948 14.3039 9.2612
169 4 4.97663 17.2983 10.2265
170 4 0.662748 11.6899 15.4938
171 4 2.94272 12.7793 11.3552
172 4 2.77833 16.6082 14.6411
173 4 1.05444 16.2742 11.4181
174 4 4.25124 12.7711 14.1756
175 4 6.46793 11.4975 9.92672
176 4 7.9251 17.4863 15.6095
177 7 7.37738 13.3534 14.3568
178 8 6.85554 13.0785 15.1406
179 8 6.66251 13.239 13.7105
180 7 6.90884 15.5769 12.4945
181 8 6.88179 16.5256 12.7476
182 8 7.84408 15.4047 12.3576
183 7 5.31589 4.9004 12.8839
184 8 4.35804 5.0062 13.0264
185 8 5.58362 5.8351 12.8983
186 7 7.15255 5.73008 11.3299
187 8 7.65813 5.70619 12.1649
188 8 7.73857 6.20548 10.7186
189 7 2.93262 4.93779 4.45327
190 8 2.66689 5.87215 4.43668
191 8 2.25429 4.62861 3.81222
192 7 4.64805 2.87347 4.15121
193 8 4.60508 2.72592 3.19458
194 8 5.28307 3.58405 4.31746
ITEM: TIMESTEP
45
ITEM: NUMBER OF ATOMS
194
ITEM: BOX BOUNDS xy xz yz pp pp pp
-2.4124045553817197e-03 9.5469374148661768e+00 0.0000000000000000e+00
-5.2468401685761279e-03 1.9392245940168575e+01 6.3072481031079064e-01
-4.6178298762988845e-03 1.7067432929876276e+01 0.0000000000000000e+00
ITEM: ATOMS id type x y z
1 1 8.69671 0.521025 3.71903
2 1 4.98704 9.18673 4.78507
3 1 7.06009 5.40085 0.469829
4 1 6.60412 4.30433 8.03981
5 2 7.71343 8.63831 3.15471
6 2 6.11131 1.07049 5.44252
7 2 8.09098 3.71921 1.10291
8 2 5.63229 5.95725 7.41021
9 2 6.48208 8.22035 3.59022
10 2 7.38472 1.5021 4.91195
11 2 0.450786 3.42338 0.741787
12 2 4.35786 6.304 7.87455
13 2 7.09687 6.82108 1.97778
14 2 6.59385 2.80868 6.68107
15 2 8.72756 1.94863 2.37111
16 2 4.9428 7.79486 6.10259
17 5 1.11386 0.77327 5.24679
18 5 3.69514 8.9683 3.29624
19 5 1.51515 5.66311 7.54347
20 5 3.1615 4.12302 1.06772
21 5 3.18657 0.313037 5.74802
22 5 1.57259 9.40904 2.78281
23 5 8.50679 5.07259 7.12735
24 5 5.21547 4.56811 1.49612
25 3 8.07701 7.72331 2.23159
26 3 5.61055 1.88216 6.44524
27 3 7.71986 2.88681 2.10395
28 3 5.94455 6.86036 6.39959
29 3 6.17172 7.1111 2.87881
30 3 7.53846 2.46808 5.76783
31 3 0.763883 2.372 1.52119
32 3 3.95895 7.43363 7.03509
33 6 2.23425 0.370898 5.01195
34 6 2.54718 9.3296 3.54732
35 6 0.478215 5.22591 7.85244
36 6 4.27732 4.49259 0.731175
37 4 0.125499 7.55067 1.89984
38 4 4.60926 1.87933 6.86238
39 4 6.65815 2.82844 2.46134
40 4 7.02819 7.11307 6.21068
41 4 5.14024 6.74917 2.79006
42 4 8.57092 2.75643 5.90963
43 4 1.75413 1.86953 1.45664
44 4 3.09414 8.01259 7.19772
45 1 4.54522 0.542509 12.2883
46 1 0.898029 9.16022 13.2849
47 1 2.98028 5.319 9.0189
48 1 2.4549 4.30152 16.5461
49 2 3.50868 8.61352 11.7284
50 2 1.75192 1.07114 13.769
51 2 3.98795 3.83282 9.71711
52 2 1.50235 5.98392 15.9725
53 2 2.15845 8.24966 11.9252
54 2 3.14083 1.2959 13.6186
55 2 5.29652 3.41515 9.25919
56 2 9.12499 6.36889 16.3907
57 2 2.89718 6.85607 10.3548
58 2 2.44609 2.92134 15.2386
59 2 4.49227 1.8683 10.833
60 2 0.827394 7.63936 14.5989
61 5 5.79539 0.669107 13.7525
62 5 8.45971 9.1345 11.9315
63 5 6.30868 5.63532 16.1607
64 5 8.03215 4.05803 9.48603
65 5 7.86534 0.329383 14.2479
66 5 6.35331 9.4109 11.2818
67 5 4.25599 5.11354 15.6483
68 5 1.11749 4.58249 10.0358
69 3 3.95166 7.67999 10.7858
70 3 1.48968 1.96536 14.8175
71 3 3.54152 2.85707 10.5825
72 3 1.87232 6.89628 15.0228
73 3 1.90165 7.13788 11.1986
74 3 3.3743 2.49598 14.3009
75 3 5.5469 2.32343 10.0116
76 3 8.77687 7.34707 15.5154
77 6 6.92838 0.344613 13.4882
78 6 7.26641 9.29796 12.1176
79 6 5.19861 5.26944 16.3638
80 6 9.10547 4.53426 9.26496
81 4 4.86321 7.81207 10.0704
82 4 9.43858 1.96225 15.3168
83 4 2.75036 3.02962 11.2394
84 4 2.62647 6.71586 14.2775
85 4 0.889716 6.73749 11.1012
86 4 4.4822 2.78516 14.4092
87 4 6.47753 1.80991 9.91897
88 4 7.73028 7.85565 15.5722
89 1 8.64738 10.2178 3.75877
90 1 5.03694 18.8513 4.74997
91 1 7.09352 15.0522 0.533742
92 1 6.61102 13.993 8.03098
93 2 7.73811 18.3406 3.17655
94 2 6.02476 10.8347 5.35315
95 2 8.08258 13.4002 1.02783
96 2 5.55857 15.6291 7.3196
97 2 6.38715 18.0439 3.46289
98 2 7.33178 11.1976 4.97101
99 2 0.45564 13.0444 0.720794
100 2 4.34891 16.1413 7.80247
101 2 7.1223 16.5451 1.83948
102 2 6.6585 12.5643 6.60015
103 2 8.57384 11.6713 2.42547
104 2 5.00342 17.3861 6.1475
105 5 1.17894 10.4417 5.22648
106 5 3.64758 18.7796 3.26768
107 5 1.55322 15.2845 7.57658
108 5 3.24204 13.8579 0.967586
109 5 3.13722 10.0265 5.8541
110 5 1.54769 19.0547 2.72934
111 5 8.39154 14.846 7.03955
112 5 5.24486 14.263 1.49507
113 3 8.07356 17.4532 2.17894
114 3 5.69108 11.6461 6.33227
115 3 7.68841 12.5869 2.10114
116 3 5.91083 16.4081 6.39724
117 3 6.15606 16.8425 2.76437
118 3 7.71284 12.2112 5.82097
119 3 0.649129 11.98 1.57486
120 3 3.97581 17.0809 6.91081
121 6 2.28349 10.085 4.99521
122 6 2.52995 19.1433 3.47721
123 6 0.425819 14.9374 7.83337
124 6 4.32751 14.2636 0.732013
125 4 0.165602 17.2069 1.90624
126 4 4.59461 11.8824 6.52197
127 4 6.74316 12.4786 2.55684
128 4 6.98206 16.3811 5.97014
129 4 5.21184 16.2913 2.77971
130 4 8.47624 12.787 5.6646
131 4 1.46186 11.3629 1.45335
132 4 3.19824 17.7529 7.11949
133 1 4.46661 10.2085 12.2479
134 1 0.873152 18.8269 13.3509
135 1 2.91219 15.009 9.07333
136 1 2.42245 14.0194 16.5219
137 2 3.43687 18.3251 11.7333
138 2 1.90018 10.7307 13.906
139 2 3.92424 13.3887 9.62977
140 2 1.50388 15.6043 15.917
141 2 2.11602 18.0125 12.0752
142 2 3.17723 11.1004 13.5499
143 2 5.16751 13.0698 9.25978
144 2 9.15184 15.9715 16.3703
145 2 3.00357 16.4914 10.3867
146 2 2.42236 12.5618 15.129
147 2 4.57234 11.7353 10.962
148 2 0.803803 17.4391 14.7482
149 5 5.96221 10.3519 13.7528
150 5 8.4839 18.7292 11.8173
151 5 6.29872 15.3417 16.1332
152 5 8.0786 13.8262 9.44292
153 5 7.98641 10.0382 14.2374
154 5 6.34482 19.0086 11.3249
155 5 4.37435 14.9459 15.6237
156 5 1.20367 14.1376 10.0134
157 3 4.00456 17.3296 10.7955
158 3 1.55341 11.6144 14.9158
159 3 3.60641 12.5396 10.6161
160 3 1.73422 16.4929 15.0129
161 3 1.92453 16.9235 11.2126
162 3 3.43683 12.1694 14.3584
163 3 5.47078 12.0414 10.0296
164 3 8.83523 17.0478 15.6136
165 6 7.02409 9.90315 13.5168
166 6 7.30181 18.9963 12.0905
167 6 5.2925 14.7952 16.3387
168 6 9.15875 14.3043 9.2627
169 4 4.97708 17.3013 10.2339
170 4 0.661542 11.6855 15.4903
171 4 2.94903 12.7842 11.361
172 4 2.77662 16.6122 14.6443
173 4 1.05934 16.2718 11.4159
174 4 4.24688 12.7784 14.1762
175 4 6.46566 11.5 9.92466
176 4 7.92109 17.4838 15.6153
177 7 7.37949 13.3528 14.3568
178 8 6.85807 13.0806 15.1466
179 8 6.66066 13.2492 13.7139
180 7 6.90907 15.576 12.495
181 8 6.88348 16.5296 12.7483
182 8 7.84101 15.413 12.3535
183 7 5.31484 4.89959 12.8832
184 8 4.3586 5.00063 13.0311
185 8 5.58318 5.8346 12.8815
186 7 7.153 5.73163 11.3311
187 8 7.66024 5.70807 12.1689
188 8 7.74598 6.20215 10.7229
189 7 2.92981 4.94074 4.45122
190 8 2.66581 5.87174 4.44466
191 8 2.26462 4.6207 3.80843
192 7 4.64771 2.87381 4.14913
193 8 4.61511 2.7258 3.19265
194 8 5.2819 3.58306 4.30753
ITEM: TIMESTEP
46
ITEM: NUMBER OF ATOMS
194
ITEM: BOX BOUNDS xy xz yz pp pp pp
-2.4999035336064068e-03 9.5470372896930087e+00 0.0000000000000000e+00
-5.4371453778063739e-03 1.9392436245377802e+01 6.3073718615939667e-01
-4.7853206045385122e-03 1.7067600420604514e+01 0.0000000000000000e+00
ITEM: ATOMS id type x y z
1 1 8.69777 0.520447 3.71845
2 1 4.98608 9.18764 4.78501
3 1 7.05916 5.40094 0.468703
4 1 6.60473 4.30438 8.04056
5 2 7.71494 8.64005 3.1552
6 2 6.11545 1.06793 5.44274
7 2 8.09022 3.72008 1.10239
8 2 5.6329 5.95681 7.41033
9 2 6.48234 8.21994 3.59199
10 2 7.38411 1.50141 4.91079
11 2 0.452244 3.42397 0.741225
12 2 4.357 6.30624 7.87466
13 2 7.0978 6.81846 1.97765
14 2 6.59241 2.80878 6.68382
15 2 8.72733 1.94689 2.37221
16 2 4.94151 7.798 6.10117
17 5 1.11551 0.773525 5.24763
18 5 3.69412 8.96902 3.29579
19 5 1.51297 5.66476 7.54265
20 5 3.1624 4.12378 1.06984
21 5 3.1862 0.312905 5.74846
22 5 1.57404 9.40958 2.78359
23 5 8.50769 5.07043 7.12761
24 5 5.21355 4.56899 1.49587
25 3 8.07688 7.72294 2.23253
26 3 5.61227 1.88105 6.4478
27 3 7.72173 2.88589 2.10416
28 3 5.94305 6.86204 6.39865
29 3 6.173 7.11033 2.8825
30 3 7.53963 2.46789 5.76672
31 3 0.764553 2.37221 1.52122
32 3 3.95917 7.43273 7.03689
33 6 2.2313 0.371541 5.00861
34 6 2.54889 9.32877 3.54811
35 6 0.481449 5.22697 7.85674
36 6 4.27509 4.49222 0.729889
37 4 0.127131 7.54299 1.90225
38 4 4.61051 1.8829 6.86546
39 4 6.6625 2.81745 2.46256
40 4 7.02278 7.12235 6.21461
41 4 5.14307 6.74944 2.78988
42 4 8.56902 2.7589 5.91958
43 4 1.75365 1.87185 1.45475
44 4 3.09598 8.0158 7.20121
45 1 4.54591 0.542282 12.2887
46 1 0.898067 9.16048 13.2841
47 1 2.9807 5.31732 9.01817
48 1 2.45523 4.30158 16.5464
49 2 3.50808 8.61366 11.7284
50 2 1.75088 1.07022 13.7664
51 2 3.991 3.83468 9.71751
52 2 1.50225 5.9837 15.9736
53 2 2.15629 8.25111 11.9238
54 2 3.13998 1.2928 13.62
55 2 5.29644 3.41739 9.25823
56 2 9.12563 6.36997 16.3919
57 2 2.89746 6.85554 10.3524
58 2 2.44546 2.92199 15.2394
59 2 4.49227 1.86626 10.8309
60 2 0.825901 7.63981 14.5961
61 5 5.79387 0.667292 13.7527
62 5 8.45918 9.13868 11.9327
63 5 6.30734 5.6368 16.1609
64 5 8.03495 4.05668 9.48579
65 5 7.86168 0.329753 14.2466
66 5 6.35516 9.41157 11.2825
67 5 4.25588 5.11273 15.649
68 5 1.11654 4.58367 10.0359
69 3 3.95062 7.6776 10.7865
70 3 1.49016 1.967 14.8175
71 3 3.54214 2.85472 10.5826
72 3 1.87265 6.89913 15.0229
73 3 1.90062 7.13651 11.1967
74 3 3.37319 2.49563 14.3011
75 3 5.54588 2.32043 10.0136
76 3 8.77656 7.3467 15.5156
77 6 6.92764 0.344647 13.4874
78 6 7.26645 9.2959 12.1178
79 6 5.1981 5.26991 16.369
80 6 9.10504 4.53445 9.264
81 4 4.85907 7.81609 10.0764
82 4 9.4379 1.96356 15.3128
83 4 2.75226 3.03118 11.243
84 4 2.6239 6.7105 14.2777
85 4 0.887616 6.74165 11.0967
86 4 4.47743 2.78045 14.4139
87 4 6.48053 1.81246 9.91086
88 4 7.73501 7.85608 15.5674
89 1 8.64731 10.2174 3.75911
90 1 5.03701 18.8517 4.74909
91 1 7.09336 15.0514 0.533854
92 1 6.61163 13.9931 8.03143
93 2 7.73884 18.3425 3.1775
94 2 6.02616 10.8345 5.35145
95 2 8.08156 13.4001 1.02666
96 2 5.55637 15.627 7.31958
97 2 6.38666 18.046 3.46189
98 2 7.33302 11.1982 4.97021
99 2 0.456467 13.0434 0.720063
100 2 4.34891 16.1434 7.80285
101 2 7.12264 16.5445 1.83873
102 2 6.65961 12.5666 6.60063
103 2 8.57222 11.669 2.42759
104 2 5.00423 17.3881 6.14496
105 5 1.18062 10.442 5.2268
106 5 3.64793 18.7821 3.26578
107 5 1.55082 15.2841 7.57662
108 5 3.24301 13.8591 0.968152
109 5 3.13494 10.0267 5.85518
110 5 1.5493 19.0545 2.72938
111 5 8.39282 14.8455 7.04103
112 5 5.24335 14.2638 1.49476
113 3 8.07365 17.4526 2.17755
114 3 5.69215 11.6468 6.33243
115 3 7.68869 12.5865 2.10159
116 3 5.90974 16.4077 6.39461
117 3 6.1588 16.8415 2.76307
118 3 7.71443 12.2106 5.82155
119 3 0.64714 11.9796 1.57527
120 3 3.97427 17.0811 6.90983
121 6 2.28413 10.0862 4.99467
122 6 2.52699 19.1465 3.47789
123 6 0.426771 14.9402 7.83208
124 6 4.3289 14.265 0.731074
125 4 0.167554 17.2052 1.91436
126 4 4.59997 11.8937 6.51824
127 4 6.73857 12.4824 2.54968
128 4 6.97657 16.3886 5.96535
129 4 5.2099 16.2995 2.78715
130 4 8.47904 12.7926 5.65986
131 4 1.4584 11.3575 1.45285
132 4 3.20207 17.761 7.12079
133 1 4.46568 10.2078 12.2474
134 1 0.872579 18.8268 13.3515
135 1 2.91112 15.0074 9.07371
136 1 2.42214 14.02 16.5216
137 2 3.43663 18.3258 11.7332
138 2 1.90033 10.7286 13.9063
139 2 3.92281 13.3895 9.62957
140 2 1.50289 15.6015 15.919
141 2 2.11283 18.0132 12.0753
142 2 3.17851 11.0995 13.5499
143 2 5.16849 13.0697 9.25821
144 2 9.15326 15.9704 16.3714
145 2 3.004 16.4895 10.386
146 2 2.42222 12.5645 15.1299
147 2 4.57401 11.7341 10.9646
148 2 0.803606 17.4407 14.7485
149 5 5.96405 10.3501 13.7529
150 5 8.48339 18.7316 11.817
151 5 6.29805 15.3436 16.1338
152 5 8.0828 13.8272 9.44211
153 5 7.9858 10.0387 14.2356
154 5 6.34647 19.0072 11.3262
155 5 4.37676 14.9478 15.6249
156 5 1.20423 14.136 10.0121
157 3 4.004 17.3279 10.7979
158 3 1.55469 11.6137 14.9167
159 3 3.60657 12.5385 10.6164
160 3 1.73258 16.4957 15.0108
161 3 1.9247 16.925 11.2115
162 3 3.43694 12.1675 14.358
163 3 5.47006 12.0407 10.0295
164 3 8.83528 17.0484 15.6152
165 6 7.02403 9.90121 13.5177
166 6 7.30212 18.9948 12.0903
167 6 5.29298 14.7932 16.3401
168 6 9.15804 14.3048 9.26418
169 4 4.97727 17.3045 10.2418
170 4 0.659891 11.6808 15.4866
171 4 2.95472 12.7895 11.3672
172 4 2.77461 16.6162 14.6475
173 4 1.0644 16.2695 11.4136
174 4 4.24302 12.7861 14.1768
175 4 6.46288 11.5027 9.92269
176 4 7.91627 17.4817 15.6213
177 7 7.38157 13.3521 14.3568
178 8 6.86099 13.0828 15.1525
179 8 6.6591 13.2596 13.7173
180 7 6.90931 15.5752 12.4955
181 8 6.88517 16.5331 12.7488
182 8 7.83796 15.4213 12.3495
183 7 5.31376 4.8988 12.8826
184 8 4.35941 4.99492 13.0359
185 8 5.58277 5.83382 12.8647
186 7 7.15348 5.73321 11.3323
187 8 7.66218 5.70989 12.1726
188 8 7.75327 6.19869 10.7274
189 7 2.92696 4.94372 4.44915
190 8 2.66486 5.87129 4.45281
191 8 2.27529 4.61266 3.80485
192 7 4.64735 2.87418 4.14701
193 8 4.62517 2.72586 3.19091
194 8 5.28056 3.58197 4.29749
ITEM: TIMESTEP
47
ITEM: NUMBER OF ATOMS
194
ITEM: BOX BOUNDS xy xz yz pp pp pp
-2.5879673928530522e-03 9.5471378092975883e+00 0.0000000000000000e+00
-5.6286791705364436e-03 1.9392627779170532e+01 6.3074964190472993e-01
-4.9538926292171936e-03 1.7067768992629190e+01 0.0000000000000000e+00
ITEM: ATOMS id type x y z
1 1 8.69883 0.519872 3.71786
2 1 4.98511 9.18856 4.78495
3 1 7.05824 5.40103 0.467583
4 1 6.60534 4.30443 8.04131
5 2 7.71645 8.64179 3.15572
6 2 6.11961 1.06531 5.44292
7 2 8.08944 3.721 1.10185
8 2 5.63348 5.95638 7.41045
9 2 6.48256 8.21955 3.59376
10 2 7.3834 1.50066 4.9097
11 2 0.453722 3.42455 0.740674
12 2 4.35612 6.30855 7.87467
13 2 7.09877 6.81579 1.97747
14 2 6.59092 2.80888 6.68659
15 2 8.72704 1.94515 2.37332
16 2 4.94024 7.80113 6.09981
17 5 1.11716 0.77378 5.2485
18 5 3.69308 8.96975 3.29531
19 5 1.51085 5.66644 7.54182
20 5 3.16331 4.12455 1.07196
21 5 3.18583 0.312775 5.74891
22 5 1.57551 9.4101 2.78437
23 5 8.50854 5.06826 7.12779
24 5 5.21164 4.56988 1.49563
25 3 8.07669 7.72255 2.23348
26 3 5.61409 1.87996 6.45034
27 3 7.72363 2.88493 2.10437
28 3 5.94153 6.86374 6.39772
29 3 6.17425 7.10958 2.88618
30 3 7.54088 2.46776 5.76564
31 3 0.765267 2.37239 1.52126
32 3 3.9595 7.43173 7.0387
33 6 2.22839 0.372127 5.00513
34 6 2.55056 9.32801 3.54897
35 6 0.484612 5.22797 7.86114
36 6 4.27291 4.4919 0.728554
37 4 0.129319 7.53536 1.90454
38 4 4.61177 1.88645 6.86855
39 4 6.66729 2.80635 2.46367
40 4 7.01693 7.13149 6.21855
41 4 5.146 6.74969 2.78979
42 4 8.56712 2.76158 5.92956
43 4 1.75292 1.87428 1.45285
44 4 3.0975 8.01914 7.20485
45 1 4.5466 0.54205 12.289
46 1 0.898098 9.16073 13.2834
47 1 2.98111 5.31566 9.01744
48 1 2.45556 4.30165 16.5467
49 2 3.50745 8.61374 11.7283
50 2 1.74993 1.06932 13.7638
51 2 3.9941 3.8365 9.71788
52 2 1.5021 5.98347 15.9747
53 2 2.15417 8.25259 11.9224
54 2 3.13907 1.28975 13.6214
55 2 5.29627 3.41965 9.25731
56 2 9.12628 6.37103 16.393
57 2 2.8978 6.85498 10.35
58 2 2.4448 2.92258 15.24
59 2 4.4923 1.86426 10.8289
60 2 0.824402 7.64031 14.5933
61 5 5.79235 0.665472 13.7529
62 5 8.45864 9.14286 11.9338
63 5 6.30603 5.63831 16.161
64 5 8.03774 4.0553 9.48556
65 5 7.85803 0.330132 14.2453
66 5 6.35704 9.41223 11.2831
67 5 4.25576 5.11194 15.6497
68 5 1.1156 4.58484 10.0359
69 3 3.94955 7.67523 10.7871
70 3 1.49063 1.96866 14.8175
71 3 3.54284 2.85236 10.5828
72 3 1.87296 6.90197 15.0229
73 3 1.89959 7.13515 11.1949
74 3 3.37217 2.49527 14.3013
75 3 5.54482 2.31741 10.0156
76 3 8.77621 7.34636 15.5158
77 6 6.92697 0.344624 13.4866
78 6 7.26646 9.29387 12.118
79 6 5.1975 5.27026 16.3744
80 6 9.1047 4.53468 9.263
81 4 4.85433 7.82013 10.0831
82 4 9.4372 1.96491 15.3088
83 4 2.75374 3.03276 11.2469
84 4 2.62156 6.70495 14.278
85 4 0.885589 6.74592 11.092
86 4 4.47196 2.77566 14.4186
87 4 6.48366 1.81479 9.90273
88 4 7.74053 7.85618 15.5624
89 1 8.64724 10.2169 3.75945
90 1 5.03708 18.852 4.74821
91 1 7.0932 15.0507 0.533961
92 1 6.61225 13.9931 8.03188
93 2 7.73952 18.3443 3.17844
94 2 6.0276 10.8342 5.34972
95 2 8.08052 13.4001 1.02554
96 2 5.55413 15.6248 7.31963
97 2 6.38621 18.048 3.46085
98 2 7.33425 11.1988 4.96944
99 2 0.457275 13.0423 0.719353
100 2 4.34889 16.1454 7.80321
101 2 7.12299 16.544 1.83802
102 2 6.6607 12.5691 6.60113
103 2 8.57061 11.6667 2.42971
104 2 5.00507 17.3901 6.14236
105 5 1.18225 10.4423 5.22713
106 5 3.6483 18.7847 3.26384
107 5 1.54842 15.2838 7.57664
108 5 3.24393 13.8601 0.968738
109 5 3.13268 10.0268 5.85623
110 5 1.55093 19.0542 2.72942
111 5 8.39412 14.8451 7.04253
112 5 5.24188 14.2646 1.49446
113 3 8.07374 17.452 2.17616
114 3 5.69318 11.6474 6.33263
115 3 7.689 12.5863 2.10199
116 3 5.90874 16.4074 6.39188
117 3 6.16154 16.8406 2.76176
118 3 7.7159 12.2099 5.82214
119 3 0.645145 11.9792 1.57566
120 3 3.97276 17.0813 6.90888
121 6 2.28481 10.0873 4.99406
122 6 2.52395 19.1497 3.47868
123 6 0.427686 14.9431 7.83082
124 6 4.33034 14.2665 0.730054
125 4 0.169681 17.2036 1.9225
126 4 4.6059 11.905 6.51445
127 4 6.73349 12.4864 2.54242
128 4 6.97033 16.3963 5.96077
129 4 5.20797 16.3078 2.79462
130 4 8.48287 12.799 5.65483
131 4 1.45546 11.3517 1.45225
132 4 3.20564 17.7694 7.12224
133 1 4.46476 10.2071 12.247
134 1 0.871996 18.8266 13.3521
135 1 2.91006 15.0057 9.0741
136 1 2.42184 14.0205 16.5212
137 2 3.43645 18.3264 11.7331
138 2 1.90048 10.7264 13.9067
139 2 3.92136 13.3902 9.62938
140 2 1.50182 15.5987 15.9211
141 2 2.1097 18.0139 12.0753
142 2 3.17978 11.0986 13.5499
143 2 5.16951 13.0697 9.25663
144 2 9.15469 15.9693 16.3725
145 2 3.00439 16.4877 10.3854
146 2 2.42212 12.5673 15.1309
147 2 4.5757 11.7328 10.9673
148 2 0.803457 17.4424 14.7487
149 5 5.96584 10.3484 13.7531
150 5 8.48285 18.7339 11.8167
151 5 6.29744 15.3456 16.1344
152 5 8.08698 13.8282 9.44133
153 5 7.98522 10.0392 14.2338
154 5 6.34812 19.0057 11.3275
155 5 4.3791 14.9497 15.626
156 5 1.20477 14.1345 10.0108
157 3 4.00333 17.3262 10.8003
158 3 1.55596 11.6131 14.9175
159 3 3.60672 12.5374 10.6167
160 3 1.73103 16.4985 15.0087
161 3 1.92489 16.9265 11.2105
162 3 3.43704 12.1656 14.3575
163 3 5.46943 12.0399 10.0294
164 3 8.83532 17.049 15.6169
165 6 7.02401 9.89924 13.5186
166 6 7.3024 18.9933 12.0901
167 6 5.29342 14.7911 16.3415
168 6 9.15736 14.3052 9.26562
169 4 4.9772 17.3081 10.25
170 4 0.657799 11.6758 15.4828
171 4 2.9598 12.7951 11.3738
172 4 2.77233 16.6203 14.6507
173 4 1.06958 16.2673 11.411
174 4 4.23963 12.7943 14.1772
175 4 6.45965 11.5058 9.92083
176 4 7.91069 17.48 15.6274
177 7 7.38362 13.3514 14.3569
178 8 6.86431 13.0852 15.158
179 8 6.65781 13.2702 13.7205
180 7 6.90953 15.5744 12.496
181 8 6.88683 16.536 12.7492
182 8 7.835 15.4294 12.3454
183 7 5.31266 4.89804 12.8819
184 8 4.36044 4.9891 13.0406
185 8 5.58238 5.83273 12.8477
186 7 7.15398 5.73483 11.3335
187 8 7.66391 5.71163 12.1758
188 8 7.76043 6.19509 10.732
189 7 2.92408 4.94671 4.44706
190 8 2.66397 5.87083 4.4611
191 8 2.28623 4.60451 3.80144
192 7 4.64697 2.87455 4.14485
193 8 4.63525 2.72605 3.18934
194 8 5.27909 3.58083 4.28737
ITEM: TIMESTEP
48
ITEM: NUMBER OF ATOMS
194
ITEM: BOX BOUNDS xy xz yz pp pp pp
-2.6765798869465840e-03 9.5472389551358852e+00 0.0000000000000000e+00
-5.8214062122790011e-03 1.9392820506212274e+01 6.3076217524893285e-01
-5.1235148518760099e-03 1.7067938614851847e+01 0.0000000000000000e+00
ITEM: ATOMS id type x y z
1 1 8.69989 0.519299 3.71727
2 1 4.98415 9.18948 4.78489
3 1 7.05731 5.40112 0.466468
4 1 6.60596 4.30447 8.04206
5 2 7.71798 8.64354 3.15626
6 2 6.12379 1.06265 5.44307
7 2 8.08863 3.72197 1.10129
8 2 5.63403 5.95596 7.41057
9 2 6.48274 8.21917 3.59551
10 2 7.38258 1.49983 4.90867
11 2 0.455217 3.42512 0.740135
12 2 4.35521 6.31094 7.87458
13 2 7.09977 6.81308 1.97727
14 2 6.58941 2.80899 6.68939
15 2 8.72669 1.94343 2.37443
16 2 4.93899 7.80425 6.09852
17 5 1.1188 0.774036 5.24938
18 5 3.69202 8.97047 3.29481
19 5 1.5088 5.66814 7.54098
20 5 3.16421 4.12533 1.07405
21 5 3.18547 0.312648 5.74938
22 5 1.57702 9.41061 2.78515
23 5 8.50933 5.06609 7.12792
24 5 5.20973 4.57076 1.49538
25 3 8.07645 7.72216 2.23442
26 3 5.61602 1.87886 6.45284
27 3 7.72556 2.88393 2.10459
28 3 5.94002 6.86546 6.3968
29 3 6.17547 7.10884 2.88986
30 3 7.54221 2.46771 5.76459
31 3 0.76602 2.37253 1.5213
32 3 3.95992 7.43063 7.04052
33 6 2.22552 0.372654 5.00152
34 6 2.55218 9.32732 3.5499
35 6 0.48769 5.2289 7.86563
36 6 4.27079 4.49164 0.727177
37 4 0.132034 7.5278 1.90672
38 4 4.61304 1.88998 6.87164
39 4 6.67249 2.79518 2.46467
40 4 7.01068 7.14048 6.22249
41 4 5.149 6.74994 2.7898
42 4 8.56526 2.76448 5.93955
43 4 1.75195 1.87681 1.45095
44 4 3.09872 8.02261 7.20865
45 1 4.54728 0.541812 12.2894
46 1 0.898121 9.16098 13.2826
47 1 2.98153 5.31399 9.01671
48 1 2.4559 4.30172 16.547
49 2 3.50679 8.61378 11.7282
50 2 1.74905 1.06846 13.7613
51 2 3.99727 3.83829 9.71822
52 2 1.50191 5.98324 15.9758
53 2 2.1521 8.2541 11.9211
54 2 3.1381 1.28676 13.6228
55 2 5.29601 3.42192 9.25642
56 2 9.12695 6.37206 16.3941
57 2 2.8982 6.85439 10.3476
58 2 2.44413 2.92309 15.2406
59 2 4.49234 1.86229 10.8268
60 2 0.822898 7.64086 14.5906
61 5 5.79082 0.663648 13.7531
62 5 8.45809 9.14703 11.9349
63 5 6.30474 5.63984 16.1611
64 5 8.04051 4.0539 9.48534
65 5 7.85441 0.330519 14.244
66 5 6.35893 9.41289 11.2837
67 5 4.25563 5.11117 15.6503
68 5 1.11467 4.58602 10.036
69 3 3.94845 7.67286 10.7876
70 3 1.49109 1.97033 14.8175
71 3 3.54362 2.84999 10.5828
72 3 1.87324 6.9048 15.0229
73 3 1.89855 7.13381 11.193
74 3 3.37123 2.49489 14.3015
75 3 5.54373 2.31438 10.0177
76 3 8.77582 7.34605 15.516
77 6 6.92636 0.344545 13.4856
78 6 7.26647 9.29185 12.1182
79 6 5.1968 5.27052 16.3799
80 6 9.10443 4.53497 9.26194
81 4 4.84906 7.82419 10.0904
82 4 9.43648 1.9663 15.3045
83 4 2.75485 3.03435 11.251
84 4 2.61944 6.69922 14.2785
85 4 0.883628 6.7503 11.0873
86 4 4.46587 2.77082 14.4234
87 4 6.48688 1.81689 9.8946
88 4 7.74677 7.85595 15.5574
89 1 8.64717 10.2165 3.75979
90 1 5.03715 18.8524 4.74733
91 1 7.09304 15.05 0.534064
92 1 6.61285 13.9932 8.03233
93 2 7.74015 18.3461 3.17937
94 2 6.02908 10.8339 5.34795
95 2 8.07946 13.4001 1.02447
96 2 5.55185 15.6226 7.31977
97 2 6.38579 18.0499 3.45978
98 2 7.33547 11.1994 4.96871
99 2 0.458061 13.0413 0.718664
100 2 4.34885 16.1474 7.80357
101 2 7.12334 16.5434 1.83734
102 2 6.6618 12.5716 6.60164
103 2 8.56903 11.6643 2.43183
104 2 5.00594 17.3922 6.13972
105 5 1.18384 10.4426 5.22748
106 5 3.6487 18.7873 3.26186
107 5 1.54604 15.2835 7.57663
108 5 3.24481 13.8612 0.969342
109 5 3.13044 10.0269 5.85727
110 5 1.55257 19.0539 2.72947
111 5 8.39545 14.8447 7.04406
112 5 5.24044 14.2654 1.49419
113 3 8.07381 17.4514 2.17477
114 3 5.69416 11.6482 6.33285
115 3 7.68932 12.586 2.10236
116 3 5.90781 16.4071 6.38906
117 3 6.16428 16.8398 2.76044
118 3 7.71725 12.2092 5.82272
119 3 0.643144 11.9788 1.57602
120 3 3.97127 17.0814 6.90795
121 6 2.28554 10.0884 4.99338
122 6 2.52084 19.1529 3.47958
123 6 0.428559 14.9458 7.82959
124 6 4.33182 14.268 0.728955
125 4 0.171977 17.2021 1.93067
126 4 4.61233 11.916 6.5106
127 4 6.72796 12.4906 2.53506
128 4 6.96341 16.404 5.95638
129 4 5.20604 16.3162 2.80209
130 4 8.48764 12.8062 5.64952
131 4 1.45304 11.3456 1.45154
132 4 3.20897 17.778 7.12385
133 1 4.46385 10.2064 12.2465
134 1 0.871402 18.8264 13.3527
135 1 2.909 15.0041 9.07448
136 1 2.42154 14.0211 16.5209
137 2 3.43634 18.327 11.7329
138 2 1.90062 10.7243 13.9071
139 2 3.9199 13.3911 9.62921
140 2 1.50069 15.5959 15.9233
141 2 2.10665 18.0145 12.0753
142 2 3.18104 11.0977 13.55
143 2 5.17057 13.0697 9.25502
144 2 9.15612 15.9682 16.3736
145 2 3.00473 16.4858 10.3849
146 2 2.42204 12.5702 15.1319
147 2 4.5774 11.7315 10.9699
148 2 0.803354 17.4441 14.749
149 5 5.96757 10.3466 13.7533
150 5 8.48228 18.7362 11.8164
151 5 6.2969 15.3476 16.135
152 5 8.09112 13.8291 9.44059
153 5 7.98467 10.0397 14.232
154 5 6.34979 19.0042 11.3288
155 5 4.38137 14.9516 15.627
156 5 1.20531 14.133 10.0094
157 3 4.00256 17.3246 10.8028
158 3 1.55722 11.6123 14.9184
159 3 3.60686 12.5363 10.6169
160 3 1.72957 16.5013 15.0065
161 3 1.92511 16.9281 11.2095
162 3 3.43713 12.1636 14.357
163 3 5.46887 12.039 10.0294
164 3 8.83536 17.0495 15.6186
165 6 7.02403 9.89724 13.5195
166 6 7.30265 18.992 12.09
167 6 5.29381 14.7889 16.343
168 6 9.15673 14.3057 9.26704
169 4 4.9769 17.3119 10.2585
170 4 0.655277 11.6706 15.4788
171 4 2.96431 12.8009 11.3806
172 4 2.76979 16.6243 14.654
173 4 1.07487 16.2652 11.4084
174 4 4.23671 12.8027 14.1775
175 4 6.45599 11.5091 9.91907
176 4 7.90439 17.4785 15.6337
177 7 7.38563 13.3507 14.3569
178 8 6.86806 13.0877 15.1632
179 8 6.65677 13.2809 13.7237
180 7 6.90974 15.5737 12.4965
181 8 6.88846 16.5384 12.7495
182 8 7.83223 15.4375 12.3413
183 7 5.31153 4.89729 12.8813
184 8 4.36169 4.98317 13.0454
185 8 5.58198 5.83133 12.8306
186 7 7.15451 5.73647 11.3347
187 8 7.6654 5.7133 12.1787
188 8 7.76746 6.19137 10.7367
189 7 2.92119 4.94972 4.44495
190 8 2.66312 5.87041 4.46951
191 8 2.29739 4.59626 3.79814
192 7 4.64657 2.87493 4.14264
193 8 4.64532 2.72638 3.18794
194 8 5.27754 3.57969 4.27722
ITEM: TIMESTEP
49
ITEM: NUMBER OF ATOMS
194
ITEM: BOX BOUNDS xy xz yz pp pp pp
-2.7657172398365404e-03 9.5473407000689647e+00 0.0000000000000000e+00
-6.0152747915029892e-03 1.9393014374791498e+01 6.3077478282912292e-01
-5.2941417603484808e-03 1.7068109241760318e+01 0.0000000000000000e+00
ITEM: ATOMS id type x y z
1 1 8.70095 0.518729 3.71667
2 1 4.98319 9.1904 4.78483
3 1 7.05639 5.4012 0.465358
4 1 6.60658 4.30452 8.04282
5 2 7.71952 8.64528 3.15683
6 2 6.12799 1.05995 5.44319
7 2 8.0878 3.72298 1.10073
8 2 5.63455 5.95556 7.41069
9 2 6.48289 8.2188 3.59725
10 2 7.38165 1.49894 4.90771
11 2 0.456726 3.42568 0.73961
12 2 4.35429 6.3134 7.87439
13 2 7.1008 6.81031 1.97704
14 2 6.58786 2.80912 6.69219
15 2 8.72628 1.94171 2.37553
16 2 4.93775 7.80736 6.0973
17 5 1.12042 0.774295 5.25029
18 5 3.69095 8.97119 3.29429
19 5 1.50683 5.66986 7.54014
20 5 3.16511 4.12611 1.07613
21 5 3.1851 0.312524 5.74986
22 5 1.57855 9.41111 2.78594
23 5 8.51008 5.06391 7.12798
24 5 5.20783 4.57165 1.49514
25 3 8.07616 7.72177 2.23535
26 3 5.61804 1.87777 6.45532
27 3 7.72751 2.88288 2.10483
28 3 5.93849 6.8672 6.39589
29 3 6.17668 7.10812 2.89353
30 3 7.5436 2.46772 5.76358
31 3 0.766811 2.37265 1.52134
32 3 3.96045 7.42944 7.04234
33 6 2.2227 0.373123 4.9978
34 6 2.55374 9.32668 3.55092
35 6 0.490669 5.22977 7.87021
36 6 4.26872 4.49143 0.725762
37 4 0.135239 7.52032 1.90881
38 4 4.61432 1.89347 6.87472
39 4 6.67806 2.78394 2.46555
40 4 7.00408 7.14932 6.22644
41 4 5.15205 6.75019 2.78993
42 4 8.56343 2.76757 5.94952
43 4 1.75078 1.87941 1.44905
44 4 3.09966 8.02618 7.21262
45 1 4.54797 0.541567 12.2897
46 1 0.898137 9.16123 13.2818
47 1 2.98195 5.31232 9.01598
48 1 2.45623 4.30179 16.5473
49 2 3.50611 8.61376 11.728
50 2 1.74826 1.06763 13.7588
51 2 4.00048 3.84003 9.71853
52 2 1.50167 5.98301 15.9769
53 2 2.15006 8.25564 11.9199
54 2 3.13708 1.28383 13.6242
55 2 5.29567 3.42419 9.25557
56 2 9.12764 6.37308 16.3951
57 2 2.89865 6.85378 10.3451
58 2 2.44344 2.92354 15.2411
59 2 4.4924 1.86036 10.8247
60 2 0.821389 7.64145 14.5878
61 5 5.78929 0.661819 13.7534
62 5 8.45755 9.15121 11.9359
63 5 6.30348 5.6414 16.1611
64 5 8.04325 4.05246 9.48511
65 5 7.85081 0.330914 14.2427
66 5 6.36083 9.41355 11.2844
67 5 4.2555 5.11041 15.6509
68 5 1.11375 4.58719 10.0361
69 3 3.94732 7.6705 10.7882
70 3 1.49154 1.972 14.8175
71 3 3.54448 2.8476 10.5829
72 3 1.8735 6.90761 15.0229
73 3 1.8975 7.13249 11.1912
74 3 3.37036 2.49449 14.3017
75 3 5.5426 2.31136 10.0198
76 3 8.77539 7.34578 15.5162
77 6 6.9258 0.34441 13.4846
78 6 7.26646 9.28986 12.1185
79 6 5.19602 5.27067 16.3856
80 6 9.10426 4.5353 9.26085
81 4 4.84329 7.82825 10.0983
82 4 9.43573 1.96775 15.3002
83 4 2.7556 3.03595 11.2554
84 4 2.61756 6.69332 14.279
85 4 0.881729 6.75476 11.0826
86 4 4.45922 2.76593 14.4281
87 4 6.49016 1.81874 9.88649
88 4 7.75367 7.85542 15.5523
89 1 8.64711 10.2161 3.76014
90 1 5.03722 18.8527 4.74645
91 1 7.09288 15.0492 0.534161
92 1 6.61346 13.9932 8.03278
93 2 7.74073 18.348 3.18028
94 2 6.0306 10.8335 5.34615
95 2 8.07838 13.4 1.02347
96 2 5.54952 15.6203 7.31999
97 2 6.38541 18.0518 3.45869
98 2 7.3367 11.1999 4.968
99 2 0.458821 13.0402 0.717997
100 2 4.3488 16.1493 7.80391
101 2 7.12368 16.5428 1.83669
102 2 6.66288 12.5741 6.60217
103 2 8.56748 11.6618 2.43395
104 2 5.00684 17.3944 6.13702
105 5 1.18538 10.4429 5.22785
106 5 3.6491 18.7899 3.25985
107 5 1.54368 15.2831 7.5766
108 5 3.24565 13.8623 0.969964
109 5 3.12823 10.027 5.85829
110 5 1.55423 19.0536 2.72953
111 5 8.39681 14.8443 7.0456
112 5 5.23904 14.2662 1.49395
113 3 8.07388 17.4508 2.17337
114 3 5.69512 11.649 6.33311
115 3 7.68966 12.5858 2.10269
116 3 5.90696 16.4069 6.38615
117 3 6.16702 16.839 2.75914
118 3 7.71849 12.2084 5.82331
119 3 0.641142 11.9785 1.57636
120 3 3.9698 17.0815 6.90706
121 6 2.28631 10.0894 4.99263
122 6 2.51767 19.1562 3.48059
123 6 0.429381 14.9486 7.8284
124 6 4.33333 14.2695 0.727779
125 4 0.174433 17.2007 1.93885
126 4 4.61924 11.927 6.50668
127 4 6.722 12.495 2.5276
128 4 6.95587 16.4119 5.9522
129 4 5.20413 16.3248 2.80953
130 4 8.49328 12.814 5.64393
131 4 1.45109 11.3392 1.45072
132 4 3.21206 17.7868 7.12563
133 1 4.46295 10.2057 12.2461
134 1 0.870797 18.8263 13.3533
135 1 2.90794 15.0025 9.07486
136 1 2.42125 14.0217 16.5205
137 2 3.43627 18.3276 11.7326
138 2 1.90075 10.7221 13.9076
139 2 3.91841 13.392 9.62905
140 2 1.49949 15.593 15.9255
141 2 2.10367 18.015 12.0752
142 2 3.18229 11.0968 13.55
143 2 5.17168 13.0697 9.2534
144 2 9.15754 15.967 16.3746
145 2 3.00504 16.4839 10.3844
146 2 2.422 12.5731 15.1329
147 2 4.57909 11.7301 10.9726
148 2 0.803294 17.4458 14.7492
149 5 5.96924 10.3449 13.7535
150 5 8.48168 18.7386 11.816
151 5 6.29642 15.3496 16.1356
152 5 8.09522 13.8301 9.43989
153 5 7.98415 10.0402 14.2302
154 5 6.35146 19.0027 11.3301
155 5 4.38358 14.9536 15.6281
156 5 1.20584 14.1314 10.008
157 3 4.0017 17.323 10.8053
158 3 1.55847 11.6116 14.9191
159 3 3.60699 12.5352 10.6172
160 3 1.72819 16.5042 15.0043
161 3 1.92534 16.9296 11.2085
162 3 3.4372 12.1617 14.3565
163 3 5.4684 12.0381 10.0293
164 3 8.83538 17.0501 15.6203
165 6 7.02408 9.89521 13.5203
166 6 7.30287 18.9906 12.0899
167 6 5.29417 14.7867 16.3446
168 6 9.15614 14.3062 9.26842
169 4 4.97637 17.3159 10.2674
170 4 0.652338 11.6651 15.4747
171 4 2.96826 12.8071 11.3878
172 4 2.76702 16.6284 14.6572
173 4 1.08023 16.2632 11.4056
174 4 4.23422 12.8115 14.1776
175 4 6.45195 11.5126 9.91742
176 4 7.89743 17.4773 15.6401
177 7 7.38761 13.35 14.357
178 8 6.87225 13.0905 15.1681
179 8 6.65599 13.2917 13.7268
180 7 6.90993 15.573 12.497
181 8 6.89003 16.54 12.7496
182 8 7.82971 15.4454 12.3371
183 7 5.31039 4.89656 12.8806
184 8 4.3631 4.97716 13.0503
185 8 5.58156 5.82961 12.8135
186 7 7.15505 5.73814 11.336
187 8 7.66664 5.71489 12.1812
188 8 7.77435 6.18753 10.7414
189 7 2.91828 4.95274 4.44283
190 8 2.66227 5.87008 4.47802
191 8 2.30872 4.58792 3.79493
192 7 4.64615 2.87532 4.14038
193 8 4.65536 2.7268 3.18666
194 8 5.27595 3.57861 4.26706
ITEM: TIMESTEP
50
ITEM: NUMBER OF ATOMS
194
ITEM: BOX BOUNDS xy xz yz pp pp pp
-2.8553439579210860e-03 9.5474430035830142e+00 0.0000000000000000e+00
-6.2102077116765741e-03 1.9393209307711672e+01 6.3078745962508742e-01
-5.4657054127051907e-03 1.7068280805412677e+01 0.0000000000000000e+00
ITEM: ATOMS id type x y z
1 1 8.70202 0.518162 3.71608
2 1 4.98223 9.19132 4.78477
3 1 7.05546 5.40129 0.464253
4 1 6.60721 4.30457 8.04358
5 2 7.72105 8.64701 3.15742
6 2 6.13219 1.0572 5.44329
7 2 8.08695 3.72405 1.10015
8 2 5.63503 5.95517 7.41081
9 2 6.483 8.21845 3.59898
10 2 7.38063 1.49798 4.90682
11 2 0.458245 3.42624 0.739098
12 2 4.35334 6.31593 7.87411
13 2 7.10186 6.80751 1.97679
14 2 6.5863 2.80926 6.69501
15 2 8.72583 1.94 2.37663
16 2 4.93651 7.81045 6.09615
17 5 1.12203 0.774557 5.2512
18 5 3.68987 8.97191 3.29375
19 5 1.50493 5.67161 7.5393
20 5 3.16599 4.12689 1.0782
21 5 3.18473 0.312403 5.75034
22 5 1.58011 9.41159 2.78673
23 5 8.51078 5.06173 7.12798
24 5 5.20593 4.57253 1.49489
25 3 8.07582 7.72136 2.23627
26 3 5.62017 1.87669 6.45776
27 3 7.7295 2.88178 2.10507
28 3 5.93695 6.86895 6.39499
29 3 6.17787 7.10742 2.89718
30 3 7.54505 2.46781 5.76262
31 3 0.767635 2.37274 1.52139
32 3 3.96107 7.42817 7.04416
33 6 2.21995 0.373534 4.99396
34 6 2.55524 9.32612 3.552
35 6 0.493536 5.23058 7.87485
36 6 4.26672 4.49127 0.724318
37 4 0.138892 7.51295 1.91084
38 4 4.61563 1.89691 6.87778
39 4 6.68398 2.77267 2.4663
40 4 6.99718 7.158 6.23038
41 4 5.15513 6.75042 2.79018
42 4 8.56165 2.77084 5.95945
43 4 1.74942 1.88207 1.44715
44 4 3.10033 8.02983 7.21675
45 1 4.54865 0.541317 12.2901
46 1 0.898146 9.16148 13.2811
47 1 2.98236 5.31066 9.01526
48 1 2.45656 4.30187 16.5477
49 2 3.5054 8.61368 11.7277
50 2 1.74754 1.06684 13.7565
51 2 4.00374 3.84173 9.71882
52 2 1.50138 5.98278 15.978
53 2 2.14806 8.25721 11.9186
54 2 3.13601 1.28096 13.6257
55 2 5.29525 3.42646 9.25477
56 2 9.12834 6.37407 16.3961
57 2 2.89915 6.85314 10.3427
58 2 2.44273 2.92391 15.2415
59 2 4.49248 1.85846 10.8227
60 2 0.819877 7.64209 14.585
61 5 5.78776 0.659985 13.7536
62 5 8.45701 9.15538 11.9368
63 5 6.30225 5.64299 16.1611
64 5 8.04598 4.05099 9.48489
65 5 7.84724 0.331317 14.2415
66 5 6.36275 9.41419 11.285
67 5 4.25535 5.10966 15.6514
68 5 1.11284 4.58837 10.0363
69 3 3.94615 7.66816 10.7887
70 3 1.49197 1.97368 14.8176
71 3 3.54541 2.84522 10.5829
72 3 1.87374 6.9104 15.023
73 3 1.89645 7.1312 11.1893
74 3 3.36955 2.49406 14.302
75 3 5.54145 2.30835 10.0219
76 3 8.77494 7.34555 15.5164
77 6 6.92529 0.344221 13.4835
78 6 7.26643 9.28789 12.1188
79 6 5.19514 5.27073 16.3914
80 6 9.10419 4.53568 9.25972
81 4 4.83709 7.83231 10.1067
82 4 9.43495 1.96927 15.2958
83 4 2.75603 3.03753 11.2599
84 4 2.61591 6.68727 14.2796
85 4 0.879883 6.75931 11.0777
86 4 4.45206 2.76102 14.4329
87 4 6.49346 1.82034 9.87844
88 4 7.76115 7.8546 15.5472
89 1 8.64705 10.2156 3.76049
90 1 5.03728 18.8531 4.74557
91 1 7.09272 15.0485 0.534254
92 1 6.61407 13.9932 8.03322
93 2 7.74127 18.3497 3.18118
94 2 6.03217 10.8332 5.34432
95 2 8.07729 13.4 1.02252
96 2 5.54716 15.6179 7.32028
97 2 6.38507 18.0536 3.45756
98 2 7.33792 11.2005 4.96732
99 2 0.459552 13.0391 0.717352
100 2 4.34872 16.1511 7.80424
101 2 7.12403 16.5421 1.83607
102 2 6.66397 12.5767 6.60271
103 2 8.56594 11.6593 2.43605
104 2 5.00776 17.3966 6.13428
105 5 1.18688 10.4432 5.22823
106 5 3.64952 18.7924 3.2578
107 5 1.54135 15.2828 7.57653
108 5 3.24644 13.8634 0.970604
109 5 3.12604 10.0271 5.85928
110 5 1.55589 19.0534 2.7296
111 5 8.39819 14.8439 7.04715
112 5 5.23767 14.267 1.49374
113 3 8.07394 17.4502 2.17198
114 3 5.69604 11.6498 6.33339
115 3 7.69002 12.5856 2.10298
116 3 5.90618 16.4068 6.38316
117 3 6.16974 16.8383 2.75784
118 3 7.71961 12.2074 5.8239
119 3 0.639141 11.9783 1.57668
120 3 3.96835 17.0817 6.90618
121 6 2.28714 10.0904 4.9918
122 6 2.51446 19.1596 3.48171
123 6 0.430147 14.9513 7.82726
124 6 4.33488 14.2711 0.72653
125 4 0.177037 17.1994 1.94704
126 4 4.62655 11.9378 6.50271
127 4 6.71566 12.4996 2.52006
128 4 6.94777 16.4197 5.94821
129 4 5.20226 16.3335 2.81691
130 4 8.49971 12.8224 5.6381
131 4 1.44958 11.3326 1.4498
132 4 3.21495 17.7959 7.12759
133 1 4.46205 10.205 12.2456
134 1 0.870181 18.8261 13.3539
135 1 2.90689 15.0008 9.07524
136 1 2.42096 14.0222 16.5202
137 2 3.43626 18.328 11.7323
138 2 1.90089 10.72 13.908
139 2 3.91691 13.3929 9.6289
140 2 1.49823 15.5901 15.9278
141 2 2.10076 18.0155 12.0751
142 2 3.18352 11.0959 13.5501
143 2 5.17282 13.0697 9.25177
144 2 9.15896 15.9659 16.3756
145 2 3.0053 16.4821 10.3839
146 2 2.42199 12.576 15.134
147 2 4.5808 11.7287 10.9753
148 2 0.803273 17.4475 14.7494
149 5 5.97085 10.3431 13.7538
150 5 8.48105 18.7409 11.8157
151 5 6.296 15.3517 16.1362
152 5 8.09928 13.831 9.43923
153 5 7.98366 10.0407 14.2284
154 5 6.35314 19.0012 11.3314
155 5 4.38572 14.9555 15.6291
156 5 1.20636 14.1299 10.0067
157 3 4.00073 17.3215 10.8078
158 3 1.55971 11.6108 14.9199
159 3 3.6071 12.5341 10.6174
160 3 1.72691 16.5071 15.0019
161 3 1.9256 16.9311 11.2074
162 3 3.43726 12.1597 14.356
163 3 5.468 12.0372 10.0292
164 3 8.8354 17.0506 15.622
165 6 7.02417 9.89315 13.5211
166 6 7.30305 18.9893 12.0899
167 6 5.2945 14.7845 16.3463
168 6 9.1556 14.3068 9.26976
169 4 4.97564 17.3202 10.2765
170 4 0.648998 11.6595 15.4705
171 4 2.97169 12.8135 11.3952
172 4 2.76405 16.6325 14.6605
173 4 1.08565 16.2612 11.4027
174 4 4.23214 12.8205 14.1775
175 4 6.44758 11.5163 9.91589
176 4 7.88986 17.4764 15.6467
177 7 7.38956 13.3492 14.3571
178 8 6.87689 13.0933 15.1726
179 8 6.65544 13.3027 13.7299
180 7 6.91011 15.5724 12.4975
181 8 6.89153 16.541 12.7495
182 8 7.82753 15.4532 12.3329
183 7 5.30922 4.89585 12.88
184 8 4.36467 4.97109 13.0552
185 8 5.58111 5.82757 12.7962
186 7 7.15563 5.73984 11.3373
187 8 7.6676 5.7164 12.1832
188 8 7.78111 6.18359 10.7463
189 7 2.91537 4.95576 4.44071
190 8 2.66135 5.86988 4.48659
191 8 2.32016 4.57951 3.79174
192 7 4.64571 2.87571 4.13809
193 8 4.66536 2.7273 3.18551
194 8 5.27435 3.57763 4.25694
ITEM: TIMESTEP
51
ITEM: NUMBER OF ATOMS
194
ITEM: BOX BOUNDS xy xz yz pp pp pp
-2.9454086024545134e-03 9.5475458069637966e+00 0.0000000000000000e+00
-6.4060930965101903e-03 1.9393405193096505e+01 6.3080019836133461e-01
-5.6381073447919761e-03 1.7068453207344763e+01 0.0000000000000000e+00
ITEM: ATOMS id type x y z
1 1 8.7031 0.517597 3.71549
2 1 4.98127 9.19224 4.78471
3 1 7.05454 5.40137 0.463154
4 1 6.60784 4.30462 8.04434
5 2 7.72259 8.64873 3.15804
6 2 6.13639 1.05441 5.44336
7 2 8.08608 3.72515 1.09956
8 2 5.63548 5.95481 7.41093
9 2 6.48308 8.21812 3.6007
10 2 7.37952 1.49695 4.90599
11 2 0.459771 3.42679 0.738602
12 2 4.35239 6.31852 7.87373
13 2 7.10295 6.80466 1.97652
14 2 6.58471 2.8094 6.69783
15 2 8.72533 1.93831 2.37773
16 2 4.9353 7.81351 6.09507
17 5 1.12362 0.774824 5.25214
18 5 3.68878 8.97262 3.2932
19 5 1.50312 5.67338 7.53846
20 5 3.16687 4.12768 1.08025
21 5 3.18435 0.312285 5.75082
22 5 1.5817 9.41205 2.78752
23 5 8.51144 5.05955 7.12794
24 5 5.20403 4.57341 1.49464
25 3 8.07544 7.72094 2.23717
26 3 5.62239 1.8756 6.46017
27 3 7.73151 2.88063 2.10533
28 3 5.9354 6.87073 6.39411
29 3 6.17904 7.10672 2.90082
30 3 7.54656 2.46798 5.76171
31 3 0.768488 2.3728 1.52144
32 3 3.96178 7.42683 7.04596
33 6 2.21728 0.373889 4.99003
34 6 2.55668 9.32562 3.55316
35 6 0.496278 5.23131 7.87955
36 6 4.2648 4.49116 0.72285
37 4 0.142946 7.5057 1.91283
38 4 4.61696 1.90029 6.88079
39 4 6.6902 2.76138 2.46692
40 4 6.99001 7.16653 6.23431
41 4 5.15821 6.75064 2.79056
42 4 8.55995 2.77426 5.9693
43 4 1.74791 1.88476 1.44525
44 4 3.10077 8.03353 7.22105
45 1 4.54933 0.541061 12.2904
46 1 0.898147 9.16172 13.2803
47 1 2.98278 5.30901 9.01453
48 1 2.4569 4.30195 16.548
49 2 3.50466 8.61355 11.7274
50 2 1.74691 1.06608 13.7542
51 2 4.00703 3.84338 9.71908
52 2 1.50104 5.98254 15.9791
53 2 2.14611 8.25881 11.9174
54 2 3.13489 1.27815 13.6271
55 2 5.29475 3.42872 9.25402
56 2 9.12905 6.37503 16.3971
57 2 2.8997 6.85247 10.3403
58 2 2.44201 2.92421 15.2419
59 2 4.49257 1.85659 10.8206
60 2 0.81836 7.64278 14.5823
61 5 5.78622 0.658146 13.7539
62 5 8.45647 9.15955 11.9377
63 5 6.30105 5.64459 16.161
64 5 8.04867 4.04949 9.48466
65 5 7.84369 0.331728 14.2404
66 5 6.36468 9.41483 11.2857
67 5 4.25521 5.10893 15.6518
68 5 1.11193 4.58954 10.0364
69 3 3.94495 7.66584 10.7891
70 3 1.4924 1.97534 14.8176
71 3 3.54642 2.84283 10.5829
72 3 1.87395 6.91316 15.023
73 3 1.8954 7.12994 11.1875
74 3 3.36881 2.49361 14.3022
75 3 5.54028 2.30537 10.0239
76 3 8.77447 7.34535 15.5166
77 6 6.92482 0.343977 13.4823
78 6 7.26639 9.28593 12.1192
79 6 5.19416 5.27069 16.3973
80 6 9.10422 4.5361 9.25855
81 4 4.83052 7.83636 10.1155
82 4 9.43413 1.97085 15.2913
83 4 2.75617 3.03908 11.2647
84 4 2.61448 6.68108 14.2802
85 4 0.878084 6.76393 11.0728
86 4 4.44449 2.75611 14.4377
87 4 6.49673 1.82166 9.87047
88 4 7.76913 7.85353 15.5421
89 1 8.64699 10.2152 3.76084
90 1 5.03735 18.8535 4.74469
91 1 7.09257 15.0478 0.534342
92 1 6.61468 13.9933 8.03367
93 2 7.74176 18.3515 3.18206
94 2 6.03377 10.8328 5.34246
95 2 8.07619 13.4 1.02163
96 2 5.54476 15.6155 7.32064
97 2 6.38478 18.0554 3.45639
98 2 7.33914 11.201 4.96668
99 2 0.46025 13.0381 0.716729
100 2 4.34863 16.1529 7.80457
101 2 7.12438 16.5414 1.83547
102 2 6.66504 12.5793 6.60326
103 2 8.56443 11.6568 2.43815
104 2 5.0087 17.3988 6.1315
105 5 1.18832 10.4436 5.22864
106 5 3.64993 18.795 3.25572
107 5 1.53905 15.2825 7.57642
108 5 3.2472 13.8644 0.971259
109 5 3.12388 10.0272 5.86026
110 5 1.55756 19.0531 2.72967
111 5 8.3996 14.8435 7.04872
112 5 5.23634 14.2679 1.49355
113 3 8.074 17.4497 2.17059
114 3 5.69694 11.6507 6.3337
115 3 7.69038 12.5854 2.10322
116 3 5.90545 16.4068 6.38008
117 3 6.17245 16.8377 2.75656
118 3 7.72064 12.2065 5.82449
119 3 0.637147 11.978 1.57698
120 3 3.96694 17.0818 6.90533
121 6 2.28801 10.0913 4.9909
122 6 2.5112 19.163 3.48291
123 6 0.430851 14.954 7.82617
124 6 4.33644 14.2727 0.725209
125 4 0.179776 17.1982 1.95522
126 4 4.63423 11.9484 6.49867
127 4 6.70896 12.5043 2.51243
128 4 6.93919 16.4276 5.9444
129 4 5.20043 16.3423 2.8242
130 4 8.50682 12.8313 5.63202
131 4 1.44848 11.3257 1.44876
132 4 3.21766 17.8051 7.12971
133 1 4.46115 10.2043 12.2452
134 1 0.869553 18.826 13.3545
135 1 2.90583 14.9992 9.07561
136 1 2.42068 14.0228 16.5199
137 2 3.43629 18.3285 11.732
138 2 1.90104 10.7178 13.9085
139 2 3.91541 13.3939 9.62877
140 2 1.49691 15.5871 15.9301
141 2 2.09794 18.016 12.0749
142 2 3.18473 11.095 13.5501
143 2 5.174 13.0697 9.25013
144 2 9.16038 15.9647 16.3766
145 2 3.00552 16.4802 10.3836
146 2 2.42201 12.579 15.135
147 2 4.5825 11.7272 10.9781
148 2 0.80329 17.4493 14.7495
149 5 5.9724 10.3414 13.7541
150 5 8.48039 18.7433 11.8153
151 5 6.29563 15.3537 16.1368
152 5 8.10329 13.8318 9.4386
153 5 7.98319 10.0412 14.2266
154 5 6.35482 18.9997 11.3327
155 5 4.38778 14.9574 15.6301
156 5 1.20687 14.1284 10.0052
157 3 3.99966 17.3201 10.8104
158 3 1.56093 11.61 14.9206
159 3 3.60719 12.533 10.6176
160 3 1.7257 16.51 14.9996
161 3 1.92588 16.9326 11.2064
162 3 3.43731 12.1577 14.3554
163 3 5.46768 12.0362 10.0291
164 3 8.83539 17.0511 15.6237
165 6 7.0243 9.89105 13.5219
166 6 7.30321 18.9881 12.0899
167 6 5.2948 14.7823 16.3479
168 6 9.15514 14.3074 9.27105
169 4 4.97473 17.3246 10.286
170 4 0.64528 11.6536 15.4662
171 4 2.97464 12.8202 11.4028
172 4 2.76091 16.6367 14.6637
173 4 1.0911 16.2593 11.3997
174 4 4.23042 12.8297 14.1773
175 4 6.44293 11.5202 9.91447
176 4 7.88177 17.4758 15.6534
177 7 7.39147 13.3484 14.3573
178 8 6.88198 13.0964 15.1766
179 8 6.65511 13.3138 13.7328
180 7 6.91026 15.5718 12.4981
181 8 6.89295 16.5413 12.7492
182 8 7.82573 15.4607 12.3286
183 7 5.30805 4.89515 12.8794
184 8 4.36635 4.96497 13.0601
185 8 5.58061 5.82521 12.7789
186 7 7.15623 5.74157 11.3386
187 8 7.66827 5.71782 12.1848
188 8 7.78773 6.17954 10.7512
189 7 2.91245 4.95879 4.43858
190 8 2.66035 5.86985 4.49522
191 8 2.33166 4.57104 3.78853
192 7 4.64525 2.87611 4.13574
193 8 4.67529 2.72785 3.18444
194 8 5.27279 3.5768 4.2469
ITEM: TIMESTEP
52
ITEM: NUMBER OF ATOMS
194
ITEM: BOX BOUNDS xy xz yz pp pp pp
-3.0358397829033379e-03 9.5476490287233027e+00 0.0000000000000000e+00
-6.6027756757272016e-03 1.9393601875675724e+01 6.3081298894039284e-01
-5.8112109006991375e-03 1.7068626310900672e+01 0.0000000000000000e+00
ITEM: ATOMS id type x y z
1 1 8.70417 0.517035 3.71489
2 1 4.98032 9.19317 4.78466
3 1 7.05362 5.40144 0.462061
4 1 6.60848 4.30467 8.04511
5 2 7.72413 8.65045 3.15869
6 2 6.14059 1.05158 5.44342
7 2 8.0852 3.72629 1.09895
8 2 5.63589 5.95448 7.41105
9 2 6.48314 8.21782 3.60241
10 2 7.37833 1.49586 4.90522
11 2 0.461301 3.42734 0.738122
12 2 4.35143 6.32115 7.87326
13 2 7.10406 6.80178 1.97624
14 2 6.58311 2.80955 6.70065
15 2 8.72478 1.93662 2.37881
16 2 4.93409 7.81655 6.09407
17 5 1.12518 0.775096 5.25308
18 5 3.68769 8.97334 3.29262
19 5 1.50139 5.67519 7.53761
20 5 3.16774 4.12847 1.08228
21 5 3.18395 0.312171 5.7513
22 5 1.58332 9.4125 2.78832
23 5 8.51207 5.05737 7.12786
24 5 5.20214 4.57429 1.49439
25 3 8.07503 7.72051 2.23806
26 3 5.62471 1.87451 6.46254
27 3 7.73355 2.87943 2.10559
28 3 5.93383 6.87252 6.39324
29 3 6.1802 7.10604 2.90443
30 3 7.54812 2.46822 5.76086
31 3 0.769367 2.37284 1.5215
32 3 3.96258 7.42542 7.04775
33 6 2.21469 0.374187 4.98602
34 6 2.55805 9.32518 3.5544
35 6 0.498883 5.23198 7.8843
36 6 4.26295 4.4911 0.721365
37 4 0.147349 7.49859 1.9148
38 4 4.61833 1.90358 6.88375
39 4 6.69669 2.7501 2.46739
40 4 6.98264 7.17491 6.23822
41 4 5.16128 6.75085 2.79106
42 4 8.55833 2.77781 5.97905
43 4 1.74628 1.88747 1.44336
44 4 3.101 8.03727 7.22551
45 1 4.55 0.540799 12.2908
46 1 0.89814 9.16196 13.2795
47 1 2.9832 5.30735 9.01381
48 1 2.45724 4.30203 16.5484
49 2 3.50388 8.61336 11.727
50 2 1.74635 1.06537 13.752
51 2 4.01037 3.84499 9.71933
52 2 1.50066 5.98232 15.9801
53 2 2.1442 8.26043 11.9163
54 2 3.13372 1.27541 13.6285
55 2 5.29417 3.43096 9.25332
56 2 9.12978 6.37598 16.398
57 2 2.9003 6.85178 10.3378
58 2 2.44127 2.92445 15.2422
59 2 4.49267 1.85474 10.8185
60 2 0.816841 7.6435 14.5796
61 5 5.78467 0.6563 13.7541
62 5 8.45594 9.16372 11.9385
63 5 6.29986 5.64622 16.161
64 5 8.05133 4.04796 9.48444
65 5 7.84018 0.332147 14.2392
66 5 6.36662 9.41547 11.2864
67 5 4.25506 5.10822 15.6523
68 5 1.11104 4.59071 10.0366
69 3 3.9437 7.66354 10.7895
70 3 1.4928 1.977 14.8177
71 3 3.5475 2.84046 10.5828
72 3 1.87413 6.9159 15.023
73 3 1.89435 7.12872 11.1858
74 3 3.36811 2.49314 14.3025
75 3 5.5391 2.30241 10.026
76 3 8.774 7.34518 15.5168
77 6 6.92439 0.34368 13.481
78 6 7.26634 9.284 12.1196
79 6 5.19309 5.27056 16.4034
80 6 9.10435 4.53658 9.25736
81 4 4.82365 7.8404 10.1248
82 4 9.43328 1.97252 15.2867
83 4 2.75606 3.0406 11.2696
84 4 2.61326 6.67477 14.2809
85 4 0.876325 6.76862 11.0677
86 4 4.43657 2.75121 14.4425
87 4 6.49995 1.82271 9.8626
88 4 7.77752 7.85224 15.5369
89 1 8.64694 10.2148 3.76119
90 1 5.03741 18.8539 4.74381
91 1 7.09242 15.0471 0.534425
92 1 6.61528 13.9933 8.03411
93 2 7.7422 18.3532 3.18292
94 2 6.03542 10.8323 5.34058
95 2 8.07508 13.3999 1.0208
96 2 5.54232 15.6131 7.32106
97 2 6.38453 18.0571 3.4552
98 2 7.34036 11.2015 4.96606
99 2 0.460911 13.037 0.716128
100 2 4.34851 16.1546 7.80488
101 2 7.12473 16.5406 1.8349
102 2 6.66611 12.5819 6.60381
103 2 8.56295 11.6542 2.44024
104 2 5.00965 17.4011 6.12868
105 5 1.18972 10.444 5.22905
106 5 3.65035 18.7976 3.25362
107 5 1.53678 15.2823 7.57629
108 5 3.24792 13.8654 0.97193
109 5 3.12175 10.0272 5.86122
110 5 1.55923 19.0528 2.72975
111 5 8.40102 14.8431 7.05029
112 5 5.23505 14.2687 1.4934
113 3 8.07405 17.4491 2.16921
114 3 5.69783 11.6516 6.33404
115 3 7.69075 12.5853 2.10342
116 3 5.90477 16.4068 6.37693
117 3 6.17515 16.8372 2.7553
118 3 7.72157 12.2054 5.82508
119 3 0.635162 11.9778 1.57727
120 3 3.96554 17.0819 6.90449
121 6 2.28894 10.0921 4.98993
122 6 2.50793 19.1664 3.48421
123 6 0.431488 14.9566 7.82514
124 6 4.33803 14.2743 0.723821
125 4 0.182633 17.197 1.96338
126 4 4.64221 11.9588 6.49457
127 4 6.70196 12.5091 2.50472
128 4 6.93022 16.4354 5.94076
129 4 5.19867 16.3511 2.83136
130 4 8.51451 12.8407 5.62574
131 4 1.44775 11.3187 1.44761
132 4 3.22021 17.8143 7.13201
133 1 4.46027 10.2036 12.2448
134 1 0.868914 18.8258 13.3551
135 1 2.90478 14.9976 9.07599
136 1 2.42041 14.0233 16.5196
137 2 3.43637 18.3289 11.7315
138 2 1.90119 10.7157 13.9091
139 2 3.9139 13.395 9.62865
140 2 1.49554 15.5842 15.9325
141 2 2.09521 18.0163 12.0747
142 2 3.18593 11.0941 13.5501
143 2 5.1752 13.0697 9.24849
144 2 9.16178 15.9636 16.3775
145 2 3.0057 16.4784 10.3832
146 2 2.42206 12.582 15.1361
147 2 4.58421 11.7256 10.9808
148 2 0.803341 17.4511 14.7497
149 5 5.97388 10.3398 13.7544
150 5 8.47972 18.7456 11.815
151 5 6.29533 15.3558 16.1374
152 5 8.10724 13.8326 9.43801
153 5 7.98277 10.0417 14.2249
154 5 6.3565 18.9982 11.334
155 5 4.38977 14.9593 15.631
156 5 1.20738 14.1269 10.0038
157 3 3.9985 17.3188 10.813
158 3 1.56214 11.6092 14.9213
159 3 3.60727 12.5318 10.6178
160 3 1.72458 16.5129 14.9972
161 3 1.92619 16.9341 11.2054
162 3 3.43736 12.1558 14.3549
163 3 5.46742 12.0352 10.029
164 3 8.83536 17.0515 15.6255
165 6 7.02446 9.88891 13.5226
166 6 7.30333 18.9869 12.09
167 6 5.29508 14.78 16.3497
168 6 9.15474 14.308 9.27229
169 4 4.97365 17.3292 10.2956
170 4 0.641206 11.6475 15.4617
171 4 2.97716 12.827 11.4106
172 4 2.75764 16.6409 14.6669
173 4 1.09654 16.2575 11.3966
174 4 4.22904 12.8391 14.1768
175 4 6.43807 11.5243 9.91316
176 4 7.87323 17.4754 15.6601
177 7 7.39336 13.3476 14.3575
178 8 6.88752 13.0996 15.1802
179 8 6.65501 13.325 13.7357
180 7 6.91039 15.5713 12.4986
181 8 6.89427 16.5409 12.7487
182 8 7.82438 15.4681 12.3242
183 7 5.30686 4.89447 12.8787
184 8 4.36812 4.95882 13.0651
185 8 5.58004 5.82251 12.7615
186 7 7.15686 5.74333 11.34
187 8 7.66865 5.71915 12.186
188 8 7.79423 6.1754 10.7561
189 7 2.90954 4.96181 4.43645
190 8 2.65921 5.87002 4.50387
191 8 2.34316 4.56252 3.78526
192 7 4.64476 2.87651 4.13335
193 8 4.68514 2.72842 3.18343
194 8 5.27131 3.57618 4.23696
ITEM: TIMESTEP
53
ITEM: NUMBER OF ATOMS
194
ITEM: BOX BOUNDS xy xz yz pp pp pp
-3.1265425298601102e-03 9.5477525604596618e+00 0.0000000000000000e+00
-6.8000488963697592e-03 1.9393799148896367e+01 6.3082581792979664e-01
-5.9848342897872442e-03 1.7068799934289764e+01 0.0000000000000000e+00
ITEM: ATOMS id type x y z
1 1 8.70525 0.516477 3.7143
2 1 4.97937 9.1941 4.7846
3 1 7.0527 5.40152 0.460973
4 1 6.60913 4.30472 8.04588
5 2 7.72567 8.65215 3.15936
6 2 6.14478 1.04871 5.44347
7 2 8.08431 3.72748 1.09834
8 2 5.63625 5.95417 7.41116
9 2 6.48317 8.21753 3.6041
10 2 7.37706 1.49471 4.90452
11 2 0.462832 3.42788 0.73766
12 2 4.35047 6.32384 7.8727
13 2 7.1052 6.79886 1.97594
14 2 6.58151 2.80971 6.70346
15 2 8.7242 1.93495 2.37989
16 2 4.93289 7.81957 6.09315
17 5 1.12672 0.775374 5.25405
18 5 3.6866 8.97404 3.29202
19 5 1.49975 5.67702 7.53677
20 5 3.16859 4.12927 1.08429
21 5 3.18354 0.312061 5.75176
22 5 1.58496 9.41293 2.78913
23 5 8.51267 5.05519 7.12773
24 5 5.20026 4.57517 1.49414
25 3 8.07458 7.72006 2.23893
26 3 5.62713 1.87342 6.46487
27 3 7.73562 2.87819 2.10587
28 3 5.93224 6.87433 6.39239
29 3 6.18135 7.10536 2.90801
30 3 7.54972 2.46854 5.76007
31 3 0.770268 2.37285 1.52157
32 3 3.96347 7.42397 7.04953
33 6 2.21221 0.37443 4.98193
34 6 2.55935 9.32482 3.5557
35 6 0.501339 5.23258 7.88908
36 6 4.26118 4.49109 0.71987
37 4 0.152042 7.49164 1.91678
38 4 4.61974 1.90677 6.88664
39 4 6.7034 2.73885 2.46774
40 4 6.97511 7.18314 6.24211
41 4 5.16431 6.75105 2.79171
42 4 8.5568 2.78147 5.98868
43 4 1.74455 1.89016 1.44149
44 4 3.10107 8.041 7.23015
45 1 4.55067 0.540531 12.2911
46 1 0.898126 9.1622 13.2788
47 1 2.98361 5.3057 9.01309
48 1 2.45758 4.30212 16.5488
49 2 3.50307 8.61312 11.7265
50 2 1.74587 1.06469 13.7498
51 2 4.01373 3.84655 9.71956
52 2 1.50023 5.9821 15.9812
53 2 2.14233 8.26207 11.9151
54 2 3.1325 1.27274 13.63
55 2 5.29353 3.43318 9.25267
56 2 9.13052 6.3769 16.3989
57 2 2.90095 6.85105 10.3354
58 2 2.44052 2.92462 15.2423
59 2 4.49278 1.85292 10.8164
60 2 0.81532 7.64427 14.5769
61 5 5.78313 0.654448 13.7544
62 5 8.45541 9.1679 11.9392
63 5 6.2987 5.64787 16.1609
64 5 8.05396 4.0464 9.48422
65 5 7.8367 0.332575 14.2382
66 5 6.36858 9.4161 11.287
67 5 4.25491 5.10752 15.6527
68 5 1.11015 4.59188 10.0367
69 3 3.94241 7.66127 10.79
70 3 1.49319 1.97865 14.8178
71 3 3.54864 2.8381 10.5828
72 3 1.87428 6.9186 15.023
73 3 1.8933 7.12753 11.184
74 3 3.36747 2.49263 14.3029
75 3 5.5379 2.2995 10.0281
76 3 8.77352 7.34504 15.517
77 6 6.924 0.343331 13.4797
78 6 7.26627 9.28209 12.12
79 6 5.19191 5.27034 16.4095
80 6 9.10459 4.5371 9.25615
81 4 4.81656 7.84443 10.1343
82 4 9.43238 1.97427 15.2821
83 4 2.75575 3.04206 11.2747
84 4 2.61226 6.66835 14.2816
85 4 0.874598 6.77337 11.0626
86 4 4.42839 2.74634 14.4474
87 4 6.50306 1.82348 9.85486
88 4 7.78623 7.85075 15.5317
89 1 8.64689 10.2143 3.76154
90 1 5.03748 18.8542 4.74293
91 1 7.09227 15.0463 0.534504
92 1 6.61589 13.9934 8.03455
93 2 7.74258 18.3549 3.18375
94 2 6.03709 10.8319 5.33868
95 2 8.07396 13.3999 1.02002
96 2 5.53986 15.6106 7.32155
97 2 6.38432 18.0587 3.45397
98 2 7.34157 11.202 4.96547
99 2 0.461533 13.0359 0.715551
100 2 4.34837 16.1562 7.80519
101 2 7.12508 16.5398 1.83436
102 2 6.66717 12.5846 6.60437
103 2 8.56148 11.6516 2.44231
104 2 5.01062 17.4034 6.12582
105 5 1.19107 10.4444 5.22949
106 5 3.65076 18.8001 3.25148
107 5 1.53455 15.282 7.57611
108 5 3.24859 13.8665 0.972615
109 5 3.11965 10.0273 5.86215
110 5 1.56089 19.0526 2.72984
111 5 8.40246 14.8427 7.05188
112 5 5.2338 14.2695 1.49327
113 3 8.07409 17.4486 2.16784
114 3 5.6987 11.6527 6.3344
115 3 7.69112 12.5852 2.10358
116 3 5.90414 16.407 6.3737
117 3 6.17782 16.8368 2.75407
118 3 7.72243 12.2044 5.82567
119 3 0.633192 11.9776 1.57754
120 3 3.96418 17.082 6.90367
121 6 2.28991 10.0929 4.9889
122 6 2.50464 19.1698 3.4856
123 6 0.432053 14.9592 7.82418
124 6 4.33962 14.2759 0.722369
125 4 0.185591 17.1959 1.97152
126 4 4.65042 11.9691 6.49041
127 4 6.6947 12.5141 2.49692
128 4 6.92094 16.4432 5.93728
129 4 5.19698 16.3599 2.83836
130 4 8.52266 12.8504 5.61928
131 4 1.44733 11.3116 1.44635
132 4 3.22263 17.8237 7.13448
133 1 4.45939 10.2029 12.2444
134 1 0.868263 18.8257 13.3557
135 1 2.90372 14.9959 9.07635
136 1 2.42015 14.0239 16.5192
137 2 3.43648 18.3292 11.7311
138 2 1.90135 10.7136 13.9097
139 2 3.91239 13.3961 9.62854
140 2 1.49413 15.5813 15.9349
141 2 2.09256 18.0167 12.0744
142 2 3.1871 11.0932 13.5502
143 2 5.17643 13.0697 9.24684
144 2 9.16317 15.9624 16.3785
145 2 3.00583 16.4766 10.383
146 2 2.42214 12.5851 15.1373
147 2 4.58592 11.724 10.9835
148 2 0.803423 17.4529 14.7498
149 5 5.97529 10.3381 13.7547
150 5 8.47901 18.748 11.8146
151 5 6.29508 15.358 16.1381
152 5 8.11113 13.8334 9.43747
153 5 7.98237 10.0422 14.2232
154 5 6.35818 18.9967 11.3352
155 5 4.39169 14.9612 15.6319
156 5 1.20787 14.1254 10.0024
157 3 3.99723 17.3175 10.8157
158 3 1.56334 11.6083 14.9219
159 3 3.60732 12.5307 10.6181
160 3 1.72354 16.5158 14.9947
161 3 1.92653 16.9356 11.2044
162 3 3.4374 12.1538 14.3544
163 3 5.46723 12.0341 10.0289
164 3 8.83531 17.052 15.6273
165 6 7.02465 9.88673 13.5233
166 6 7.30342 18.9858 12.0902
167 6 5.29534 14.7777 16.3515
168 6 9.15443 14.3087 9.27347
169 4 4.97243 17.334 10.3055
170 4 0.636804 11.6413 15.4571
171 4 2.97929 12.8341 11.4185
172 4 2.75429 16.6452 14.67
173 4 1.10196 16.2558 11.3934
174 4 4.22794 12.8485 14.1762
175 4 6.43305 11.5284 9.91197
176 4 7.86433 17.4752 15.667
177 7 7.39521 13.3468 14.3577
178 8 6.8935 13.103 15.1834
179 8 6.6551 13.3364 13.7385
180 7 6.91049 15.5708 12.4992
181 8 6.89547 16.5398 12.7481
182 8 7.8235 15.4752 12.3197
183 7 5.30567 4.89381 12.8781
184 8 4.36993 4.95267 13.0702
185 8 5.57939 5.81948 12.744
186 7 7.15751 5.74511 11.3414
187 8 7.66873 5.72038 12.1867
188 8 7.80059 6.17117 10.761
189 7 2.90664 4.96484 4.43434
190 8 2.65789 5.87043 4.51252
191 8 2.35463 4.55396 3.78188
192 7 4.64425 2.87691 4.13092
193 8 4.69487 2.72898 3.18246
194 8 5.26993 3.57582 4.22717
ITEM: TIMESTEP
54
ITEM: NUMBER OF ATOMS
194
ITEM: BOX BOUNDS xy xz yz pp pp pp
-3.2173955035803559e-03 9.5478562636708499e+00 0.0000000000000000e+00
-6.9976488515202107e-03 1.9393996748851517e+01 6.3083866816726208e-01
-6.1587452432636525e-03 1.7068973845243242e+01 0.0000000000000000e+00
ITEM: ATOMS id type x y z
1 1 8.70633 0.515922 3.7137
2 1 4.97841 9.19503 4.78455
3 1 7.05179 5.40159 0.459892
4 1 6.60978 4.30477 8.04666
5 2 7.72719 8.65383 3.16006
6 2 6.14895 1.04581 5.4435
7 2 8.08342 3.72869 1.09771
8 2 5.63657 5.9539 7.41127
9 2 6.48318 8.21728 3.60579
10 2 7.37572 1.4935 4.90389
11 2 0.464361 3.42842 0.737217
12 2 4.34951 6.32657 7.87206
13 2 7.10635 6.79591 1.97564
14 2 6.5799 2.80988 6.70628
15 2 8.72358 1.9333 2.38095
16 2 4.93171 7.82255 6.09232
17 5 1.12822 0.77566 5.25502
18 5 3.68551 8.97474 3.2914
19 5 1.4982 5.67888 7.53593
20 5 3.16942 4.13007 1.08629
21 5 3.1831 0.311956 5.75221
22 5 1.58664 9.41335 2.78994
23 5 8.51325 5.05301 7.12757
24 5 5.19837 4.57604 1.49388
25 3 8.07412 7.71959 2.23978
26 3 5.62963 1.87233 6.46716
27 3 7.73772 2.8769 2.10616
28 3 5.93062 6.87616 6.39155
29 3 6.18249 7.10468 2.91157
30 3 7.55135 2.46895 5.75935
31 3 0.771186 2.37284 1.52165
32 3 3.96443 7.42246 7.05127
33 6 2.20982 0.37462 4.97778
34 6 2.56056 9.32453 3.55707
35 6 0.503636 5.23311 7.89388
36 6 4.25949 4.49112 0.718373
37 4 0.156966 7.48487 1.91878
38 4 4.6212 1.90985 6.88946
39 4 6.7103 2.72764 2.46794
40 4 6.96749 7.19121 6.24598
41 4 5.16728 6.75122 2.79251
42 4 8.55538 2.78523 5.99815
43 4 1.74277 1.89283 1.43962
44 4 3.101 8.04469 7.23494
45 1 4.55134 0.540258 12.2915
46 1 0.898104 9.16243 13.278
47 1 2.98403 5.30405 9.01237
48 1 2.45792 4.30221 16.5491
49 2 3.50223 8.61281 11.726
50 2 1.74547 1.06407 13.7478
51 2 4.01712 3.84806 9.71978
52 2 1.49976 5.9819 15.9822
53 2 2.14052 8.26373 11.914
54 2 3.13124 1.27013 13.6314
55 2 5.29281 3.43538 9.25207
56 2 9.13127 6.37779 16.3997
57 2 2.90164 6.8503 10.3329
58 2 2.43975 2.92472 15.2424
59 2 4.49291 1.85112 10.8144
60 2 0.813797 7.64507 14.5742
61 5 5.78159 0.65259 13.7547
62 5 8.45489 9.17207 11.9399
63 5 6.29756 5.64953 16.1607
64 5 8.05656 4.04481 9.484
65 5 7.83325 0.333011 14.2371
66 5 6.37054 9.41672 11.2877
67 5 4.25477 5.10683 15.6531
68 5 1.10928 4.59305 10.0369
69 3 3.94107 7.65902 10.7904
70 3 1.49357 1.98027 14.8178
71 3 3.54985 2.83576 10.5826
72 3 1.87441 6.92127 15.023
73 3 1.89226 7.12637 11.1823
74 3 3.36686 2.49208 14.3032
75 3 5.53671 2.29663 10.0301
76 3 8.77305 7.34493 15.5172
77 6 6.92363 0.342931 13.4783
78 6 7.26618 9.2802 12.1205
79 6 5.19063 5.27004 16.4158
80 6 9.10494 4.53767 9.25492
81 4 4.80932 7.84844 10.1441
82 4 9.43143 1.97612 15.2773
83 4 2.75527 3.04346 11.2799
84 4 2.61145 6.66184 14.2824
85 4 0.872896 6.77817 11.0573
86 4 4.42004 2.74152 14.4523
87 4 6.50602 1.82396 9.84728
88 4 7.79516 7.8491 15.5266
89 1 8.64684 10.2139 3.7619
90 1 5.03754 18.8546 4.74205
91 1 7.09212 15.0456 0.534579
92 1 6.61649 13.9935 8.03499
93 2 7.74292 18.3566 3.18456
94 2 6.03881 10.8314 5.33677
95 2 8.07285 13.3998 1.01931
96 2 5.53737 15.6081 7.32209
97 2 6.38417 18.0603 3.4527
98 2 7.34278 11.2024 4.96491
99 2 0.462112 13.0348 0.714996
100 2 4.3482 16.1577 7.80549
101 2 7.12545 16.539 1.83384
102 2 6.66823 12.5874 6.60494
103 2 8.56004 11.6489 2.44437
104 2 5.01159 17.4057 6.12294
105 5 1.19237 10.4448 5.22994
106 5 3.65116 18.8027 3.24933
107 5 1.53237 15.2817 7.5759
108 5 3.24924 13.8675 0.973313
109 5 3.11758 10.0273 5.86307
110 5 1.56255 19.0523 2.72992
111 5 8.40392 14.8423 7.05346
112 5 5.23259 14.2704 1.49317
113 3 8.07414 17.4482 2.16649
114 3 5.69957 11.6537 6.33478
115 3 7.69148 12.5851 2.1037
116 3 5.90354 16.4072 6.3704
117 3 6.18046 16.8365 2.75287
118 3 7.72321 12.2033 5.82626
119 3 0.631242 11.9775 1.57779
120 3 3.96284 17.0822 6.90287
121 6 2.29093 10.0936 4.98779
122 6 2.50136 19.1733 3.48706
123 6 0.43254 14.9617 7.8233
124 6 4.34123 14.2775 0.720858
125 4 0.188629 17.1948 1.97962
126 4 4.65881 11.9792 6.48618
127 4 6.68724 12.5191 2.48905
128 4 6.91145 16.4509 5.93394
129 4 5.19537 16.3687 2.84519
130 4 8.53115 12.8603 5.61265
131 4 1.44718 11.3044 1.44498
132 4 3.22496 17.8331 7.13713
133 1 4.45852 10.2022 12.244
134 1 0.867601 18.8255 13.3563
135 1 2.90267 14.9943 9.07672
136 1 2.41989 14.0244 16.5189
137 2 3.43662 18.3295 11.7306
138 2 1.90152 10.7115 13.9103
139 2 3.91088 13.3973 9.62845
140 2 1.49266 15.5784 15.9374
141 2 2.09002 18.0169 12.074
142 2 3.18824 11.0923 13.5502
143 2 5.17768 13.0698 9.24519
144 2 9.16455 15.9612 16.3794
145 2 3.00593 16.4748 10.3828
146 2 2.42225 12.5882 15.1384
147 2 4.58762 11.7223 10.9862
148 2 0.803535 17.4548 14.7499
149 5 5.97664 10.3365 13.755
150 5 8.47829 18.7503 11.8142
151 5 6.29488 15.3601 16.1387
152 5 8.11495 13.8342 9.43697
153 5 7.98202 10.0427 14.2215
154 5 6.35986 18.9951 11.3365
155 5 4.39354 14.963 15.6328
156 5 1.20836 14.1239 10.0009
157 3 3.99586 17.3164 10.8183
158 3 1.56452 11.6074 14.9226
159 3 3.60734 12.5296 10.6183
160 3 1.72258 16.5186 14.9923
161 3 1.92689 16.937 11.2033
162 3 3.43744 12.1519 14.3539
163 3 5.46709 12.033 10.0288
164 3 8.83522 17.0524 15.6291
165 6 7.02488 9.88452 13.524
166 6 7.30349 18.9847 12.0904
167 6 5.29559 14.7754 16.3533
168 6 9.1542 14.3094 9.27459
169 4 4.9711 17.3389 10.3155
170 4 0.632106 11.6349 15.4524
171 4 2.98106 12.8414 11.4265
172 4 2.75087 16.6496 14.6731
173 4 1.10733 16.2541 11.3902
174 4 4.22708 12.858 14.1754
175 4 6.42793 11.5325 9.91089
176 4 7.85514 17.4751 15.674
177 7 7.39703 13.3459 14.358
178 8 6.89991 13.1065 15.1861
179 8 6.6554 13.348 13.7412
180 7 6.91056 15.5704 12.4997
181 8 6.89654 16.5381 12.7474
182 8 7.82312 15.4821 12.3151
183 7 5.30447 4.89316 12.8774
184 8 4.37175 4.94652 13.0754
185 8 5.57864 5.8161 12.7264
186 7 7.1582 5.74693 11.3428
187 8 7.6685 5.72151 12.187
188 8 7.80684 6.16688 10.7658
189 7 2.90376 4.96786 4.43223
190 8 2.65636 5.87109 4.52115
191 8 2.36601 4.54538 3.77837
192 7 4.64372 2.87731 4.12844
193 8 4.70448 2.72952 3.18149
194 8 5.26868 3.57575 4.21756
ITEM: TIMESTEP
55
ITEM: NUMBER OF ATOMS
194
ITEM: BOX BOUNDS xy xz yz pp pp pp
-3.3082489202396204e-03 9.5479599673876230e+00 0.0000000000000000e+00
-7.1952497700369378e-03 1.9394194349770032e+01 6.3085151846737675e-01
-6.3326570446129438e-03 1.7069147757044590e+01 0.0000000000000000e+00
ITEM: ATOMS id type x y z
1 1 8.70741 0.515371 3.7131
2 1 4.97746 9.19596 4.7845
3 1 7.05087 5.40166 0.458817
4 1 6.61044 4.30482 8.04743
5 2 7.72871 8.65549 3.16079
6 2 6.1531 1.04287 5.44353
7 2 8.08251 3.72994 1.09708
8 2 5.63684 5.95366 7.41137
9 2 6.48317 8.21705 3.60747
10 2 7.37432 1.49224 4.90331
11 2 0.465883 3.42895 0.736794
12 2 4.34855 6.32933 7.87134
13 2 7.10753 6.79294 1.97533
14 2 6.57829 2.81006 6.70907
15 2 8.72293 1.93166 2.38199
16 2 4.93053 7.8255 6.09156
17 5 1.12969 0.775953 5.25601
18 5 3.68442 8.97544 3.29077
19 5 1.49675 5.68077 7.5351
20 5 3.17023 4.13087 1.08826
21 5 3.18263 0.311856 5.75264
22 5 1.58834 9.41375 2.79076
23 5 8.5138 5.05082 7.12738
24 5 5.19649 4.57692 1.49362
25 3 8.07363 7.7191 2.2406
26 3 5.63223 1.87123 6.46941
27 3 7.73986 2.87556 2.10645
28 3 5.92898 6.87801 6.39073
29 3 6.18363 7.10401 2.91509
30 3 7.55301 2.46944 5.75871
31 3 0.772117 2.37281 1.52174
32 3 3.96547 7.42093 7.05299
33 6 2.20755 0.374756 4.97358
34 6 2.5617 9.3243 3.55852
35 6 0.505764 5.23358 7.89869
36 6 4.2579 4.4912 0.71688
37 4 0.162058 7.4783 1.92084
38 4 4.62273 1.91281 6.89218
39 4 6.71735 2.71651 2.468
40 4 6.95983 7.19915 6.24982
41 4 5.17017 6.75138 2.79346
42 4 8.55408 2.78906 6.00744
43 4 1.74096 1.89544 1.43778
44 4 3.10083 8.04832 7.2399
45 1 4.55201 0.539979 12.2918
46 1 0.898074 9.16266 13.2772
47 1 2.98445 5.30241 9.01166
48 1 2.45826 4.30231 16.5495
49 2 3.50135 8.61244 11.7254
50 2 1.74514 1.06349 13.7459
51 2 4.02052 3.84951 9.71998
52 2 1.49924 5.98171 15.9833
53 2 2.13874 8.2654 11.9129
54 2 3.12994 1.2676 13.6328
55 2 5.29204 3.43754 9.25154
56 2 9.13203 6.37866 16.4005
57 2 2.90237 6.84952 10.3305
58 2 2.43898 2.92476 15.2425
59 2 4.49304 1.84933 10.8123
60 2 0.812274 7.64591 14.5716
61 5 5.78004 0.650725 13.755
62 5 8.45438 9.17624 11.9405
63 5 6.29644 5.65121 16.1606
64 5 8.05913 4.04318 9.48377
65 5 7.82985 0.333455 14.2361
66 5 6.3725 9.41734 11.2884
67 5 4.25463 5.10616 15.6534
68 5 1.10841 4.59421 10.0371
69 3 3.93968 7.65681 10.7908
70 3 1.49392 1.98188 14.8179
71 3 3.55113 2.83345 10.5825
72 3 1.8745 6.92389 15.0231
73 3 1.89122 7.12526 11.1806
74 3 3.36628 2.4915 14.3036
75 3 5.53552 2.29382 10.032
76 3 8.77261 7.34486 15.5174
77 6 6.92329 0.342481 13.4767
78 6 7.26608 9.27833 12.1211
79 6 5.18924 5.26966 16.4221
80 6 9.10541 4.53828 9.25368
81 4 4.80201 7.85243 10.1541
82 4 9.43042 1.97807 15.2726
83 4 2.75468 3.04477 11.2851
84 4 2.61082 6.65526 14.2832
85 4 0.871213 6.78302 11.052
86 4 4.41162 2.73677 14.4573
87 4 6.50879 1.82414 9.83988
88 4 7.80421 7.84733 15.5216
89 1 8.64679 10.2135 3.76225
90 1 5.0376 18.855 4.74117
91 1 7.09198 15.0449 0.53465
92 1 6.61709 13.9935 8.03543
93 2 7.74321 18.3582 3.18534
94 2 6.04055 10.8309 5.33484
95 2 8.07174 13.3998 1.01866
96 2 5.53485 15.6056 7.32268
97 2 6.38406 18.0618 3.45139
98 2 7.34399 11.2028 4.96438
99 2 0.462645 13.0338 0.714466
100 2 4.34801 16.1592 7.80579
101 2 7.12581 16.5381 1.83334
102 2 6.66928 12.5901 6.60551
103 2 8.55862 11.6462 2.44641
104 2 5.01258 17.4081 6.12002
105 5 1.19362 10.4452 5.2304
106 5 3.65154 18.8053 3.24715
107 5 1.53024 15.2815 7.57565
108 5 3.24984 13.8685 0.974024
109 5 3.11554 10.0273 5.86397
110 5 1.5642 19.0521 2.73001
111 5 8.40539 14.8419 7.05505
112 5 5.23144 14.2712 1.49311
113 3 8.07419 17.4478 2.16517
114 3 5.70045 11.6549 6.33518
115 3 7.69183 12.5851 2.10378
116 3 5.90296 16.4074 6.36704
117 3 6.18307 16.8363 2.75172
118 3 7.72394 12.2021 5.82684
119 3 0.629315 11.9773 1.57804
120 3 3.96153 17.0823 6.90207
121 6 2.29199 10.0943 4.98663
122 6 2.4981 19.1768 3.48859
123 6 0.432946 14.9642 7.8225
124 6 4.34283 14.2792 0.71929
125 4 0.191726 17.1938 1.98769
126 4 4.6673 11.9891 6.4819
127 4 6.67962 12.5242 2.4811
128 4 6.90185 16.4585 5.93071
129 4 5.19387 16.3775 2.8518
130 4 8.53987 12.8704 5.60591
131 4 1.44724 11.2971 1.4435
132 4 3.22721 17.8424 7.13994
133 1 4.45766 10.2015 12.2436
134 1 0.866926 18.8254 13.3568
135 1 2.90162 14.9927 9.07708
136 1 2.41965 14.025 16.5186
137 2 3.43679 18.3297 11.7301
138 2 1.90171 10.7094 13.911
139 2 3.90939 13.3985 9.62836
140 2 1.49115 15.5754 15.9398
141 2 2.08757 18.0172 12.0736
142 2 3.18936 11.0913 13.5502
143 2 5.17894 13.0698 9.24354
144 2 9.1659 15.96 16.3803
145 2 3.00598 16.473 10.3827
146 2 2.42239 12.5913 15.1395
147 2 4.58932 11.7206 10.989
148 2 0.803672 17.4567 14.75
149 5 5.97791 10.3349 13.7554
150 5 8.47754 18.7527 11.8139
151 5 6.29473 15.3623 16.1393
152 5 8.11871 13.8349 9.43651
153 5 7.9817 10.0432 14.2198
154 5 6.36154 18.9936 11.3377
155 5 4.39531 14.9649 15.6336
156 5 1.20885 14.1225 9.99945
157 3 3.9944 17.3153 10.8211
158 3 1.56567 11.6065 14.9232
159 3 3.60734 12.5285 10.6185
160 3 1.72168 16.5215 14.9898
161 3 1.92728 16.9384 11.2023
162 3 3.43749 12.15 14.3534
163 3 5.46702 12.0319 10.0287
164 3 8.8351 17.0528 15.631
165 6 7.02514 9.88226 13.5246
166 6 7.30352 18.9837 12.0907
167 6 5.29583 14.773 16.3552
168 6 9.15407 14.3102 9.27565
169 4 4.96967 17.3439 10.3257
170 4 0.627144 11.6284 15.4476
171 4 2.98255 12.8488 11.4344
172 4 2.74745 16.654 14.676
173 4 1.11263 16.2525 11.3869
174 4 4.22641 12.8674 14.1744
175 4 6.4228 11.5367 9.90992
176 4 7.84578 17.4753 15.681
177 7 7.39883 13.3451 14.3583
178 8 6.90673 13.1101 15.1883
179 8 6.65588 13.3596 13.7439
180 7 6.91061 15.57 12.5003
181 8 6.89747 16.5356 12.7464
182 8 7.82325 15.4887 12.3103
183 7 5.30327 4.89253 12.8768
184 8 4.37356 4.94042 13.0806
185 8 5.57778 5.81239 12.7088
186 7 7.1589 5.74876 11.3443
187 8 7.66797 5.72253 12.187
188 8 7.81296 6.16252 10.7707
189 7 2.90089 4.97087 4.43013
190 8 2.65459 5.87203 4.52974
191 8 2.37728 4.5368 3.77469
192 7 4.64317 2.8777 4.12592
193 8 4.71394 2.72999 3.18051
194 8 5.2676 3.57601 4.20815
ITEM: TIMESTEP
56
ITEM: NUMBER OF ATOMS
194
ITEM: BOX BOUNDS xy xz yz pp pp pp
-3.3989231106081874e-03 9.5480634665283528e+00 0.0000000000000000e+00
-7.3924608817552695e-03 1.9394391560881751e+01 6.3086434341773889e-01
-6.5062257706198778e-03 1.7069321325770598e+01 0.0000000000000000e+00
ITEM: ATOMS id type x y z
1 1 8.7085 0.514825 3.7125
2 1 4.97652 9.1969 4.78445
3 1 7.04996 5.40173 0.457749
4 1 6.6111 4.30488 8.04821
5 2 7.73021 8.65714 3.16155
6 2 6.15721 1.0399 5.44356
7 2 8.08161 3.73122 1.09643
8 2 5.63706 5.95347 7.41147
9 2 6.48315 8.21685 3.60913
10 2 7.37286 1.49092 4.9028
11 2 0.467398 3.42948 0.736393
12 2 4.3476 6.33212 7.87054
13 2 7.10872 6.78994 1.97503
14 2 6.5767 2.81024 6.71186
15 2 8.72225 1.93005 2.38301
16 2 4.92936 7.82841 6.0909
17 5 1.13112 0.776256 5.257
18 5 3.68334 8.97612 3.29011
19 5 1.49539 5.68268 7.53427
20 5 3.17102 4.13167 1.09022
21 5 3.18214 0.311761 5.75305
22 5 1.59008 9.41413 2.79158
23 5 8.51434 5.04864 7.12717
24 5 5.19461 4.57779 1.49335
25 3 8.07313 7.7186 2.24139
26 3 5.63492 1.87012 6.47161
27 3 7.74202 2.87417 2.10676
28 3 5.9273 6.87986 6.38993
29 3 6.18476 7.10333 2.91856
30 3 7.5547 2.47001 5.75815
31 3 0.773056 2.37276 1.52184
32 3 3.96657 7.41936 7.05467
33 6 2.20541 0.374842 4.96934
34 6 2.56275 9.32415 3.56003
35 6 0.507713 5.23397 7.90349
36 6 4.2564 4.49133 0.7154
37 4 0.167252 7.47197 1.92298
38 4 4.62432 1.91562 6.8948
39 4 6.72448 2.70545 2.46792
40 4 6.95217 7.20694 6.25362
41 4 5.17295 6.75152 2.79456
42 4 8.55289 2.79294 6.01652
43 4 1.73917 1.89797 1.43595
44 4 3.10061 8.05185 7.245
45 1 4.55267 0.539696 12.2921
46 1 0.898037 9.16289 13.2764
47 1 2.98487 5.30078 9.01094
48 1 2.4586 4.30242 16.5499
49 2 3.50043 8.61201 11.7248
50 2 1.74488 1.06296 13.744
51 2 4.02394 3.85092 9.72018
52 2 1.49869 5.98154 15.9843
53 2 2.13702 8.26709 11.9118
54 2 3.12859 1.26515 13.6343
55 2 5.29121 3.43965 9.25106
56 2 9.13279 6.3795 16.4012
57 2 2.90313 6.84871 10.328
58 2 2.43819 2.92473 15.2424
59 2 4.49319 1.84756 10.8103
60 2 0.81075 7.64679 14.5689
61 5 5.7785 0.648852 13.7553
62 5 8.45388 9.18041 11.941
63 5 6.29533 5.65291 16.1604
64 5 8.06166 4.04153 9.48355
65 5 7.82649 0.333908 14.2352
66 5 6.37448 9.41795 11.2891
67 5 4.25451 5.10551 15.6537
68 5 1.10755 4.59538 10.0373
69 3 3.93823 7.65463 10.7912
70 3 1.49425 1.98346 14.818
71 3 3.55246 2.83117 10.5823
72 3 1.87457 6.92648 15.0231
73 3 1.89019 7.1242 11.1789
74 3 3.36573 2.49088 14.304
75 3 5.53434 2.29108 10.034
76 3 8.77219 7.3448 15.5175
77 6 6.92297 0.341983 13.4751
78 6 7.26597 9.27648 12.1217
79 6 5.18776 5.26921 16.4285
80 6 9.10599 4.53894 9.25244
81 4 4.7947 7.8564 10.1641
82 4 9.42936 1.98014 15.2677
83 4 2.75402 3.04598 11.2903
84 4 2.61037 6.64862 14.2841
85 4 0.869541 6.78791 11.0465
86 4 4.4032 2.73211 14.4623
87 4 6.51133 1.82403 9.83268
88 4 7.81327 7.84547 15.5166
89 1 8.64675 10.2131 3.76262
90 1 5.03767 18.8554 4.74029
91 1 7.09184 15.0442 0.534718
92 1 6.6177 13.9936 8.03586
93 2 7.74344 18.3598 3.18608
94 2 6.04232 10.8304 5.3329
95 2 8.07063 13.3997 1.01807
96 2 5.53231 15.603 7.32332
97 2 6.38401 18.0632 3.45005
98 2 7.34519 11.2032 4.96388
99 2 0.463129 13.0327 0.713959
100 2 4.3478 16.1605 7.80608
101 2 7.12619 16.5372 1.83285
102 2 6.67033 12.5929 6.60608
103 2 8.55722 11.6434 2.44843
104 2 5.01357 17.4105 6.11708
105 5 1.19483 10.4457 5.23087
106 5 3.65189 18.8079 3.24496
107 5 1.52817 15.2813 7.57536
108 5 3.25042 13.8695 0.974747
109 5 3.11353 10.0274 5.86485
110 5 1.56584 19.0519 2.7301
111 5 8.40688 14.8415 7.05664
112 5 5.23033 14.2721 1.49308
113 3 8.07424 17.4474 2.16387
114 3 5.70133 11.656 6.3356
115 3 7.69216 12.5851 2.10382
116 3 5.9024 16.4078 6.36363
117 3 6.18565 16.8362 2.75061
118 3 7.72461 12.201 5.82741
119 3 0.627419 11.9771 1.57828
120 3 3.96025 17.0825 6.90129
121 6 2.2931 10.0949 4.9854
122 6 2.49486 19.1803 3.4902
123 6 0.433266 14.9666 7.82179
124 6 4.34442 14.2808 0.717672
125 4 0.194858 17.1928 1.9957
126 4 4.67583 11.9988 6.47756
127 4 6.67192 12.5294 2.47307
128 4 6.89222 16.466 5.92759
129 4 5.19248 16.3862 2.85817
130 4 8.54868 12.8806 5.59908
131 4 1.44747 11.2899 1.44192
132 4 3.22943 17.8517 7.14292
133 1 4.45681 10.2008 12.2432
134 1 0.86624 18.8253 13.3574
135 1 2.90057 14.9911 9.07743
136 1 2.41941 14.0255 16.5183
137 2 3.43698 18.3298 11.7295
138 2 1.90192 10.7073 13.9116
139 2 3.90791 13.3998 9.62829
140 2 1.48961 15.5725 15.9423
141 2 2.08523 18.0173 12.0732
142 2 3.19046 11.0904 13.5503
143 2 5.18022 13.0698 9.24189
144 2 9.16724 15.9588 16.3811
145 2 3.00599 16.4712 10.3827
146 2 2.42256 12.5944 15.1407
147 2 4.59102 11.7188 10.9917
148 2 0.803833 17.4586 14.7501
149 5 5.97912 10.3334 13.7558
150 5 8.47678 18.7551 11.8135
151 5 6.29464 15.3645 16.14
152 5 8.12238 13.8355 9.43609
153 5 7.98143 10.0437 14.2181
154 5 6.36321 18.992 11.3389
155 5 4.397 14.9668 15.6345
156 5 1.20932 14.121 9.99797
157 3 3.99283 17.3142 10.8238
158 3 1.5668 11.6056 14.9237
159 3 3.6073 12.5274 10.6188
160 3 1.72086 16.5243 14.9873
161 3 1.9277 16.9398 11.2012
162 3 3.43755 12.1482 14.3529
163 3 5.46698 12.0307 10.0286
164 3 8.83493 17.0532 15.6329
165 6 7.02543 9.87996 13.5251
166 6 7.30352 18.9828 12.0911
167 6 5.29607 14.7707 16.3571
168 6 9.15403 14.311 9.27664
169 4 4.96817 17.349 10.3359
170 4 0.621954 11.6218 15.4427
171 4 2.98379 12.8563 11.4423
172 4 2.74406 16.6585 14.6788
173 4 1.11781 16.2509 11.3836
174 4 4.22588 12.8766 14.1732
175 4 6.41771 11.5408 9.90907
176 4 7.83632 17.4755 15.6881
177 7 7.40059 13.3442 14.3586
178 8 6.91394 13.1139 15.1901
179 8 6.65654 13.3714 13.7464
180 7 6.91064 15.5698 12.5009
181 8 6.89822 16.5326 12.7454
182 8 7.82388 15.4951 12.3054
183 7 5.30207 4.8919 12.8762
184 8 4.37531 4.93436 13.086
185 8 5.57678 5.80835 12.6912
186 7 7.15964 5.75063 11.3458
187 8 7.66716 5.72344 12.1867
188 8 7.81897 6.15812 10.7754
189 7 2.89806 4.97387 4.42806
190 8 2.65254 5.87325 4.53825
191 8 2.38841 4.52823 3.77083
192 7 4.64259 2.87809 4.12336
193 8 4.72324 2.73039 3.17948
194 8 5.26669 3.57663 4.19898
ITEM: TIMESTEP
57
ITEM: NUMBER OF ATOMS
194
ITEM: BOX BOUNDS xy xz yz pp pp pp
-3.4892084134137136e-03 9.5481665217772935e+00 0.0000000000000000e+00
-7.5888261855503458e-03 1.9394587926185544e+01 6.3087711336387475e-01
-6.6790500872375702e-03 1.7069494150087216e+01 0.0000000000000000e+00
ITEM: ATOMS id type x y z
1 1 8.70958 0.514283 3.71191
2 1 4.97557 9.19784 4.7844
3 1 7.04904 5.4018 0.456688
4 1 6.61176 4.30494 8.04899
5 2 7.73169 8.65875 3.16234
6 2 6.16129 1.03691 5.44359
7 2 8.08071 3.73253 1.09577
8 2 5.63723 5.95331 7.41156
9 2 6.48311 8.21669 3.61079
10 2 7.37135 1.48956 4.90234
11 2 0.4689 3.43002 0.736015
12 2 4.34667 6.33493 7.86966
13 2 7.10993 6.78692 1.97474
14 2 6.57511 2.81042 6.71462
15 2 8.72154 1.92844 2.38402
16 2 4.92821 7.83128 6.09033
17 5 1.13251 0.776568 5.25801
18 5 3.68228 8.9768 3.28944
19 5 1.49412 5.68463 7.53346
20 5 3.17178 4.13248 1.09216
21 5 3.18161 0.311672 5.75343
22 5 1.59184 9.4145 2.79241
23 5 8.51487 5.04647 7.12694
24 5 5.19274 4.57867 1.49307
25 3 8.07263 7.71807 2.24216
26 3 5.63769 1.869 6.47376
27 3 7.74422 2.87274 2.10708
28 3 5.92558 6.88174 6.38914
29 3 6.1859 7.10265 2.922
30 3 7.5564 2.47068 5.75768
31 3 0.774 2.3727 1.52195
32 3 3.96774 7.41779 7.05631
33 6 2.2034 0.37488 4.96508
34 6 2.56372 9.32407 3.5616
35 6 0.509474 5.2343 7.90828
36 6 4.255 4.49149 0.713939
37 4 0.172483 7.46587 1.92522
38 4 4.62599 1.91829 6.8973
39 4 6.73167 2.6945 2.4677
40 4 6.94458 7.2146 6.25738
41 4 5.17562 6.75163 2.79583
42 4 8.55184 2.79686 6.02537
43 4 1.73741 1.90041 1.43415
44 4 3.10037 8.05524 7.25026
45 1 4.55333 0.539407 12.2925
46 1 0.897992 9.16312 13.2757
47 1 2.98528 5.29915 9.01022
48 1 2.45895 4.30253 16.5503
49 2 3.49947 8.61152 11.7241
50 2 1.74469 1.06249 13.7422
51 2 4.02737 3.85227 9.72037
52 2 1.49809 5.98139 15.9852
53 2 2.13534 8.26878 11.9107
54 2 3.12721 1.26277 13.6357
55 2 5.29032 3.44172 9.25065
56 2 9.13356 6.38032 16.4019
57 2 2.90394 6.84787 10.3255
58 2 2.4374 2.92464 15.2423
59 2 4.49333 1.8458 10.8083
60 2 0.809228 7.6477 14.5664
61 5 5.77697 0.646972 13.7556
62 5 8.4534 9.18458 11.9414
63 5 6.29424 5.65463 16.1602
64 5 8.06415 4.03984 9.48332
65 5 7.82318 0.334371 14.2343
66 5 6.37645 9.41856 11.2897
67 5 4.25439 5.10487 15.654
68 5 1.1067 4.59654 10.0375
69 3 3.93672 7.65248 10.7916
70 3 1.49456 1.985 14.818
71 3 3.55384 2.82893 10.5821
72 3 1.87461 6.92901 15.0231
73 3 1.88917 7.12318 11.1773
74 3 3.36518 2.49022 14.3044
75 3 5.53317 2.28841 10.0359
76 3 8.7718 7.34478 15.5176
77 6 6.92267 0.341438 13.4734
78 6 7.26583 9.27466 12.1224
79 6 5.18617 5.26869 16.4349
80 6 9.1067 4.53965 9.2512
81 4 4.78748 7.86036 10.1741
82 4 9.42824 1.98232 15.2629
83 4 2.75335 3.04707 11.2955
84 4 2.61008 6.64196 14.285
85 4 0.867875 6.79283 11.0409
86 4 4.39487 2.72755 14.4674
87 4 6.51358 1.82362 9.82571
88 4 7.82225 7.84356 15.5117
89 1 8.64671 10.2127 3.76298
90 1 5.03773 18.8558 4.73941
91 1 7.09169 15.0434 0.534782
92 1 6.6183 13.9936 8.0363
93 2 7.74362 18.3614 3.18679
94 2 6.04412 10.8299 5.33095
95 2 8.06954 13.3996 1.01754
96 2 5.52975 15.6004 7.324
97 2 6.38401 18.0645 3.44868
98 2 7.34639 11.2036 4.9634
99 2 0.463559 13.0316 0.713477
100 2 4.34756 16.1618 7.80637
101 2 7.12658 16.5362 1.83239
102 2 6.67136 12.5957 6.60665
103 2 8.55584 11.6406 2.45043
104 2 5.01456 17.4129 6.11412
105 5 1.19598 10.4462 5.23136
106 5 3.65222 18.8105 3.24275
107 5 1.52615 15.2811 7.57503
108 5 3.25096 13.8705 0.97548
109 5 3.11156 10.0274 5.86571
110 5 1.56746 19.0516 2.7302
111 5 8.40837 14.8411 7.05822
112 5 5.22927 14.2729 1.49308
113 3 8.0743 17.447 2.16259
114 3 5.70223 11.6573 6.33604
115 3 7.69246 12.5852 2.10382
116 3 5.90184 16.4082 6.36016
117 3 6.18819 16.8362 2.74954
118 3 7.72525 12.1998 5.82797
119 3 0.625558 11.9769 1.57851
120 3 3.95901 17.0827 6.90051
121 6 2.29425 10.0954 4.98411
122 6 2.49166 19.1838 3.49186
123 6 0.433498 14.969 7.82117
124 6 4.34601 14.2825 0.716007
125 4 0.198 17.1918 2.00366
126 4 4.68434 12.0083 6.47316
127 4 6.66418 12.5346 2.46497
128 4 6.88266 16.4733 5.92453
129 4 5.19121 16.3948 2.86428
130 4 8.55745 12.8906 5.59221
131 4 1.44782 11.2828 1.44024
132 4 3.23165 17.8608 7.14605
133 1 4.45596 10.2001 12.2428
134 1 0.865543 18.8251 13.3579
135 1 2.89952 14.9895 9.07779
136 1 2.41918 14.026 16.5179
137 2 3.43719 18.33 11.7289
138 2 1.90214 10.7053 13.9124
139 2 3.90645 13.4011 9.62823
140 2 1.48804 15.5697 15.9448
141 2 2.083 18.0175 12.0726
142 2 3.19152 11.0894 13.5503
143 2 5.1815 13.0699 9.24025
144 2 9.16854 15.9577 16.382
145 2 3.00596 16.4694 10.3827
146 2 2.42276 12.5975 15.1419
147 2 4.5927 11.717 10.9945
148 2 0.804015 17.4606 14.7501
149 5 5.98025 10.3318 13.7562
150 5 8.476 18.7575 11.8131
151 5 6.29459 15.3667 16.1407
152 5 8.12598 13.8362 9.43572
153 5 7.9812 10.0442 14.2165
154 5 6.36487 18.9905 11.3401
155 5 4.39862 14.9686 15.6352
156 5 1.20979 14.1195 9.99647
157 3 3.99116 17.3133 10.8266
158 3 1.56791 11.6046 14.9243
159 3 3.60722 12.5263 10.6191
160 3 1.72011 16.5271 14.9848
161 3 1.92814 16.9412 11.2001
162 3 3.43762 12.1464 14.3524
163 3 5.467 12.0295 10.0285
164 3 8.83471 17.0535 15.6348
165 6 7.02575 9.87762 13.5256
166 6 7.3035 18.9818 12.0915
167 6 5.29631 14.7683 16.359
168 6 9.1541 14.312 9.27756
169 4 4.96662 17.3542 10.3463
170 4 0.616576 11.6151 15.4376
171 4 2.98483 12.8639 11.45
172 4 2.74073 16.6631 14.6815
173 4 1.12288 16.2494 11.3802
174 4 4.22545 12.8857 14.1718
175 4 6.41274 11.5449 9.90832
176 4 7.82687 17.4759 15.6952
177 7 7.40234 13.3433 14.3589
178 8 6.92151 13.1178 15.1915
179 8 6.65738 13.3833 13.7489
180 7 6.91064 15.5695 12.5015
181 8 6.8988 16.529 12.7442
182 8 7.82497 15.5012 12.3003
183 7 5.30087 4.89129 12.8755
184 8 4.37697 4.92837 13.0914
185 8 5.57565 5.80396 12.6735
186 7 7.1604 5.75252 11.3474
187 8 7.66606 5.72423 12.186
188 8 7.82488 6.15367 10.7801
189 7 2.89524 4.97687 4.426
190 8 2.65018 5.87475 4.54668
191 8 2.39937 4.51971 3.76676
192 7 4.64199 2.87848 4.12076
193 8 4.73237 2.73068 3.17838
194 8 5.26597 3.57764 4.19007
ITEM: TIMESTEP
58
ITEM: NUMBER OF ATOMS
194
ITEM: BOX BOUNDS xy xz yz pp pp pp
-3.5788657327735507e-03 9.5482688602208619e+00 0.0000000000000000e+00
-7.7838256617273061e-03 1.9394782925661723e+01 6.3088979448808136e-01
-6.8506723166201766e-03 1.7069665772316601e+01 0.0000000000000000e+00
ITEM: ATOMS id type x y z
1 1 8.71067 0.513747 3.71131
2 1 4.97462 9.19878 4.78436
3 1 7.04813 5.40186 0.455634
4 1 6.61243 4.305 8.04978
5 2 7.73316 8.66034 3.16317
6 2 6.16532 1.03389 5.44363
7 2 8.07981 3.73386 1.09511
8 2 5.63735 5.9532 7.41164
9 2 6.48305 8.21656 3.61243
10 2 7.3698 1.48814 4.90195
11 2 0.470387 3.43054 0.73566
12 2 4.34575 6.33776 7.86872
13 2 7.11115 6.78388 1.97445
14 2 6.57354 2.81062 6.71737
15 2 8.72082 1.92686 2.385
16 2 4.92706 7.83411 6.08985
17 5 1.13385 0.77689 5.25902
18 5 3.68122 8.97748 3.28875
19 5 1.49296 5.6866 7.53265
20 5 3.17252 4.13329 1.09407
21 5 3.18105 0.311589 5.75377
22 5 1.59363 9.41485 2.79325
23 5 8.51539 5.04429 7.1267
24 5 5.19086 4.57954 1.49279
25 3 8.07213 7.71751 2.24289
26 3 5.64054 1.86787 6.47586
27 3 7.74645 2.87127 2.10741
28 3 5.92383 6.88362 6.38838
29 3 6.18704 7.10197 2.92538
30 3 7.5581 2.47143 5.7573
31 3 0.774943 2.37261 1.52208
32 3 3.96896 7.41621 7.05791
33 6 2.20153 0.374871 4.9608
34 6 2.56459 9.32405 3.56324
35 6 0.51104 5.23456 7.91303
36 6 4.2537 4.4917 0.712504
37 4 0.177685 7.46005 1.92758
38 4 4.62775 1.92078 6.89967
39 4 6.73886 2.68366 2.46735
40 4 6.93711 7.22213 6.26109
41 4 5.17814 6.75171 2.79726
42 4 8.55093 2.80079 6.03395
43 4 1.73574 1.90272 1.43237
44 4 3.10016 8.05847 7.25566
45 1 4.55399 0.539114 12.2928
46 1 0.897939 9.16335 13.2749
47 1 2.9857 5.29752 9.00951
48 1 2.4593 4.30264 16.5507
49 2 3.49847 8.61096 11.7233
50 2 1.74457 1.06207 13.7406
51 2 4.0308 3.85357 9.72055
52 2 1.49746 5.98127 15.9862
53 2 2.13372 8.27049 11.9097
54 2 3.12579 1.26046 13.6371
55 2 5.28939 3.44374 9.25031
56 2 9.13433 6.38111 16.4026
57 2 2.90477 6.84701 10.3231
58 2 2.4366 2.92449 15.242
59 2 4.49349 1.84405 10.8063
60 2 0.807709 7.64864 14.5638
61 5 5.77544 0.645085 13.756
62 5 8.45292 9.18875 11.9418
63 5 6.29316 5.65635 16.1599
64 5 8.0666 4.03812 9.48309
65 5 7.81991 0.334843 14.2334
66 5 6.37843 9.41917 11.2904
67 5 4.25428 5.10425 15.6543
68 5 1.10586 4.59771 10.0377
69 3 3.93514 7.65037 10.792
70 3 1.49485 1.98651 14.818
71 3 3.55528 2.82674 10.5818
72 3 1.87463 6.93149 15.0232
73 3 1.88817 7.12221 11.1756
74 3 3.36465 2.48951 14.3048
75 3 5.53203 2.28582 10.0377
76 3 8.77147 7.34477 15.5177
77 6 6.92237 0.34085 13.4717
78 6 7.26569 9.27285 12.1232
79 6 5.18448 5.2681 16.4414
80 6 9.10752 4.54039 9.24996
81 4 4.78043 7.8643 10.1841
82 4 9.42706 1.98463 15.258
83 4 2.7527 3.04803 11.3006
84 4 2.60993 6.63528 14.286
85 4 0.86621 6.79778 11.0352
86 4 4.38674 2.72312 14.4725
87 4 6.51552 1.82291 9.81899
88 4 7.83104 7.84165 15.5068
89 1 8.64668 10.2123 3.76335
90 1 5.03779 18.8562 4.73853
91 1 7.09155 15.0427 0.534843
92 1 6.6189 13.9937 8.03673
93 2 7.74375 18.3629 3.18746
94 2 6.04595 10.8294 5.32899
95 2 8.06847 13.3995 1.01707
96 2 5.52718 15.5978 7.32472
97 2 6.38407 18.0658 3.44726
98 2 7.34758 11.204 4.96295
99 2 0.463935 13.0306 0.71302
100 2 4.34729 16.1631 7.80665
101 2 7.12697 16.5352 1.83195
102 2 6.67239 12.5985 6.60722
103 2 8.55449 11.6378 2.4524
104 2 5.01555 17.4154 6.11114
105 5 1.19708 10.4467 5.23186
106 5 3.65252 18.8131 3.24052
107 5 1.52419 15.2809 7.57465
108 5 3.25148 13.8715 0.976222
109 5 3.10963 10.0274 5.86655
110 5 1.56906 19.0514 2.73029
111 5 8.40987 14.8407 7.05981
112 5 5.22826 14.2738 1.49311
113 3 8.07436 17.4467 2.16135
114 3 5.70316 11.6586 6.33649
115 3 7.69274 12.5853 2.10378
116 3 5.90128 16.4087 6.35664
117 3 6.19068 16.8363 2.74854
118 3 7.72587 12.1987 5.82852
119 3 0.623736 11.9768 1.57873
120 3 3.95779 17.0829 6.89974
121 6 2.29544 10.0959 4.98277
122 6 2.48852 19.1874 3.49357
123 6 0.433637 14.9713 7.82065
124 6 4.34758 14.2841 0.714302
125 4 0.201128 17.1908 2.01155
126 4 4.69276 12.0176 6.4687
127 4 6.65647 12.5398 2.4568
128 4 6.87327 16.4805 5.92153
129 4 5.19009 16.4032 2.87009
130 4 8.56607 12.9005 5.58532
131 4 1.44822 11.2758 1.43846
132 4 3.23389 17.8698 7.14934
133 1 4.45513 10.1994 12.2424
134 1 0.864834 18.825 13.3585
135 1 2.89848 14.9879 9.07814
136 1 2.41895 14.0266 16.5176
137 2 3.43741 18.33 11.7283
138 2 1.90239 10.7033 13.9131
139 2 3.90501 13.4024 9.62818
140 2 1.48643 15.5668 15.9473
141 2 2.08088 18.0175 12.0721
142 2 3.19254 11.0884 13.5503
143 2 5.18279 13.0699 9.23862
144 2 9.16982 15.9565 16.3828
145 2 3.00589 16.4677 10.3828
146 2 2.42299 12.6007 15.143
147 2 4.59439 11.7151 10.9972
148 2 0.804215 17.4626 14.7501
149 5 5.98131 10.3303 13.7567
150 5 8.47521 18.7598 11.8127
151 5 6.29458 15.3689 16.1413
152 5 8.1295 13.8367 9.4354
153 5 7.98101 10.0447 14.2149
154 5 6.36652 18.9889 11.3412
155 5 4.40016 14.9705 15.636
156 5 1.21026 14.1181 9.99496
157 3 3.98939 17.3124 10.8294
158 3 1.56898 11.6036 14.9248
159 3 3.60711 12.5253 10.6194
160 3 1.71942 16.5298 14.9823
161 3 1.92862 16.9426 11.1991
162 3 3.4377 12.1447 14.3519
163 3 5.46705 12.0283 10.0283
164 3 8.83444 17.0539 15.6367
165 6 7.0261 9.87523 13.5261
166 6 7.30345 18.981 12.092
167 6 5.29656 14.7659 16.361
168 6 9.15428 14.3129 9.2784
169 4 4.96504 17.3594 10.3567
170 4 0.611049 11.6084 15.4324
171 4 2.98573 12.8716 11.4576
172 4 2.73751 16.6679 14.6841
173 4 1.12778 16.2479 11.3769
174 4 4.22507 12.8946 14.1703
175 4 6.40794 11.5488 9.90768
176 4 7.81752 17.4762 15.7024
177 7 7.40406 13.3424 14.3593
178 8 6.92941 13.1219 15.1925
179 8 6.65839 13.3953 13.7514
180 7 6.91062 15.5693 12.5022
181 8 6.89919 16.5249 12.743
182 8 7.82651 15.507 12.2952
183 7 5.29969 4.89069 12.8749
184 8 4.37853 4.92246 13.0969
185 8 5.57435 5.79925 12.6558
186 7 7.16118 5.75443 11.3489
187 8 7.66471 5.7249 12.1851
188 8 7.83068 6.14919 10.7846
189 7 2.89246 4.97985 4.42396
190 8 2.6475 5.87652 4.55499
191 8 2.41015 4.51125 3.76248
192 7 4.64136 2.87886 4.11811
193 8 4.7413 2.73084 3.17719
194 8 5.26544 3.57905 4.18146
ITEM: TIMESTEP
59
ITEM: NUMBER OF ATOMS
194
ITEM: BOX BOUNDS xy xz yz pp pp pp
-3.6676284398353687e-03 9.5483701775182350e+00 0.0000000000000000e+00
-7.9768794079750904e-03 1.9394975979407970e+01 6.3090234907839482e-01
-7.0205820772581973e-03 1.7069835682077240e+01 0.0000000000000000e+00
ITEM: ATOMS id type x y z
1 1 8.71176 0.513216 3.71071
2 1 4.97368 9.19972 4.78431
3 1 7.04722 5.40193 0.454589
4 1 6.6131 4.30506 8.05057
5 2 7.7346 8.6619 3.16402
6 2 6.1693 1.03085 5.44368
7 2 8.07892 3.73522 1.09444
8 2 5.63741 5.95315 7.4117
9 2 6.483 8.21646 3.61406
10 2 7.36821 1.48668 4.90161
11 2 0.471856 3.43108 0.735332
12 2 4.34486 6.3406 7.8677
13 2 7.11238 6.78082 1.97418
14 2 6.572 2.81082 6.72008
15 2 8.72008 1.9253 2.38595
16 2 4.92593 7.8369 6.08947
17 5 1.13515 0.777224 5.26005
18 5 3.68018 8.97814 3.28804
19 5 1.49189 5.6886 7.53185
20 5 3.17322 4.13411 1.09597
21 5 3.18044 0.311514 5.75408
22 5 1.59545 9.41518 2.7941
23 5 8.5159 5.04212 7.12644
24 5 5.18899 4.58041 1.4925
25 3 8.07164 7.71693 2.24359
26 3 5.64348 1.86673 6.47792
27 3 7.74871 2.86976 2.10775
28 3 5.92203 6.88552 6.38763
29 3 6.18819 7.10128 2.92871
30 3 7.55981 2.47227 5.75702
31 3 0.775882 2.37251 1.52222
32 3 3.97023 7.41463 7.05946
33 6 2.1998 0.374818 4.95653
34 6 2.56538 9.32411 3.56494
35 6 0.512405 5.23476 7.91775
36 6 4.2525 4.49194 0.711104
37 4 0.182792 7.45452 1.93008
38 4 4.62961 1.9231 6.9019
39 4 6.74601 2.67296 2.46686
40 4 6.9298 7.22954 6.26477
41 4 5.18051 6.75176 2.79887
42 4 8.55016 2.80471 6.04225
43 4 1.73417 1.90489 1.43061
44 4 3.10001 8.06149 7.26119
45 1 4.55464 0.538817 12.2932
46 1 0.897879 9.16357 13.2741
47 1 2.98612 5.2959 9.0088
48 1 2.45965 4.30276 16.5511
49 2 3.49743 8.61034 11.7225
50 2 1.74452 1.0617 13.739
51 2 4.03423 3.85481 9.72074
52 2 1.49678 5.98117 15.9871
53 2 2.13214 8.2722 11.9086
54 2 3.12434 1.25824 13.6386
55 2 5.28841 3.4457 9.25003
56 2 9.1351 6.38188 16.4032
57 2 2.90563 6.84611 10.3206
58 2 2.4358 2.92429 15.2418
59 2 4.49365 1.8423 10.8043
60 2 0.806193 7.64962 14.5613
61 5 5.77391 0.64319 13.7563
62 5 8.45246 9.19292 11.9421
63 5 6.29208 5.65809 16.1597
64 5 8.06901 4.03637 9.48286
65 5 7.81669 0.335324 14.2326
66 5 6.38041 9.41976 11.2911
67 5 4.25418 5.10364 15.6546
68 5 1.10503 4.59887 10.0379
69 3 3.93349 7.64829 10.7925
70 3 1.49511 1.98799 14.818
71 3 3.55676 2.8246 10.5816
72 3 1.87461 6.93391 15.0232
73 3 1.88718 7.1213 11.174
74 3 3.36411 2.48875 14.3052
75 3 5.53092 2.28332 10.0394
76 3 8.77119 7.34479 15.5177
77 6 6.92207 0.34022 13.4698
78 6 7.26553 9.27106 12.124
79 6 5.18269 5.26746 16.4478
80 6 9.10847 4.54118 9.24874
81 4 4.77361 7.86824 10.194
82 4 9.42581 1.98707 15.2531
83 4 2.75213 3.04884 11.3056
84 4 2.60991 6.62862 14.2871
85 4 0.86454 6.80275 11.0293
86 4 4.37887 2.71883 14.4777
87 4 6.51709 1.8219 9.81255
88 4 7.83955 7.83977 15.5022
89 1 8.64665 10.2119 3.76372
90 1 5.03785 18.8565 4.73765
91 1 7.09142 15.042 0.534902
92 1 6.6195 13.9937 8.03717
93 2 7.74383 18.3644 3.18809
94 2 6.0478 10.8289 5.32704
95 2 8.06741 13.3994 1.01666
96 2 5.52459 15.5952 7.32547
97 2 6.38418 18.067 3.44581
98 2 7.34877 11.2043 4.96253
99 2 0.464252 13.0295 0.712589
100 2 4.34699 16.1642 7.80694
101 2 7.12738 16.5342 1.83152
102 2 6.67342 12.6013 6.60779
103 2 8.55315 11.635 2.45434
104 2 5.01653 17.4178 6.10814
105 5 1.19813 10.4472 5.23237
106 5 3.65279 18.8158 3.23829
107 5 1.5223 15.2808 7.57423
108 5 3.25197 13.8725 0.976974
109 5 3.10774 10.0273 5.86737
110 5 1.57063 19.0512 2.73039
111 5 8.41138 14.8403 7.06138
112 5 5.2273 14.2747 1.49317
113 3 8.07444 17.4465 2.16014
114 3 5.70411 11.6599 6.33695
115 3 7.69297 12.5855 2.1037
116 3 5.9007 16.4092 6.35309
117 3 6.19312 16.8365 2.74759
118 3 7.72646 12.1975 5.82906
119 3 0.62196 11.9765 1.57894
120 3 3.9566 17.0832 6.89897
121 6 2.29668 10.0964 4.98137
122 6 2.48544 19.1909 3.49533
123 6 0.433683 14.9735 7.82024
124 6 4.34912 14.2858 0.712561
125 4 0.204216 17.1899 2.01938
126 4 4.70102 12.0267 6.46419
127 4 6.64885 12.545 2.44856
128 4 6.86414 16.4875 5.91856
129 4 5.18911 16.4115 2.87559
130 4 8.5744 12.9101 5.57845
131 4 1.44862 11.269 1.43658
132 4 3.2362 17.8785 7.15277
133 1 4.4543 10.1987 12.242
134 1 0.864113 18.8249 13.359
135 1 2.89743 14.9863 9.07848
136 1 2.41874 14.0271 16.5173
137 2 3.43764 18.33 11.7276
138 2 1.90267 10.7012 13.9139
139 2 3.9036 13.4038 9.62815
140 2 1.4848 15.564 15.9497
141 2 2.07888 18.0176 12.0714
142 2 3.19353 11.0874 13.5503
143 2 5.18407 13.07 9.237
144 2 9.17106 15.9553 16.3836
145 2 3.00578 16.466 10.3829
146 2 2.42325 12.6038 15.1442
147 2 4.59606 11.7132 10.9999
148 2 0.80443 17.4646 14.7501
149 5 5.9823 10.3288 13.7571
150 5 8.4744 18.7622 11.8122
151 5 6.29462 15.3711 16.142
152 5 8.13292 13.8372 9.43512
153 5 7.98086 10.0452 14.2133
154 5 6.36816 18.9873 11.3424
155 5 4.40162 14.9723 15.6367
156 5 1.21072 14.1166 9.99344
157 3 3.98753 17.3116 10.8323
158 3 1.57003 11.6025 14.9253
159 3 3.60696 12.5242 10.6198
160 3 1.71879 16.5325 14.9799
161 3 1.92913 16.9439 11.198
162 3 3.4378 12.143 14.3515
163 3 5.46713 12.0271 10.0282
164 3 8.8341 17.0542 15.6386
165 6 7.02647 9.8728 13.5265
166 6 7.30337 18.9802 12.0926
167 6 5.29681 14.7636 16.3629
168 6 9.15457 14.314 9.27917
169 4 4.96346 17.3646 10.3671
170 4 0.605416 11.6016 15.4271
171 4 2.98653 12.8793 11.4649
172 4 2.73445 16.6727 14.6865
173 4 1.13252 16.2465 11.3735
174 4 4.22468 12.9031 14.1685
175 4 6.4034 11.5526 9.90715
176 4 7.80837 17.4767 15.7095
177 7 7.40576 13.3414 14.3597
178 8 6.93761 13.126 15.1932
179 8 6.65956 13.4075 13.7538
180 7 6.91058 15.5692 12.5028
181 8 6.89937 16.5203 12.7417
182 8 7.82843 15.5126 12.2898
183 7 5.29851 4.8901 12.8742
184 8 4.37995 4.91667 13.1026
185 8 5.57287 5.7942 12.638
186 7 7.16198 5.75637 11.3505
187 8 7.66311 5.72545 12.184
188 8 7.83639 6.14468 10.789
189 7 2.88971 4.98282 4.42195
190 8 2.64448 5.87854 4.56315
191 8 2.42074 4.50289 3.75798
192 7 4.64072 2.87925 4.11543
193 8 4.75002 2.73084 3.17588
194 8 5.26509 3.58086 4.17315
ITEM: TIMESTEP
60
ITEM: NUMBER OF ATOMS
194
ITEM: BOX BOUNDS xy xz yz pp pp pp
-3.7552049036992941e-03 9.5484701407902683e+00 0.0000000000000000e+00
-8.1673531439818703e-03 1.9395166453143979e+01 6.3091473588656355e-01
-7.1882211286737885e-03 1.7070003321128656e+01 0.0000000000000000e+00
ITEM: ATOMS id type x y z
1 1 8.71285 0.512693 3.71011
2 1 4.97274 9.20067 4.78427
3 1 7.04631 5.40199 0.453552
4 1 6.61378 4.30512 8.05136
5 2 7.73601 8.66343 3.1649
6 2 6.17323 1.02779 5.44374
7 2 8.07803 3.73659 1.09376
8 2 5.63742 5.95314 7.41176
9 2 6.48293 8.21641 3.61568
10 2 7.36659 1.48518 4.90133
11 2 0.473305 3.43161 0.73503
12 2 4.34399 6.34344 7.86663
13 2 7.11362 6.77776 1.97393
14 2 6.57048 2.81103 6.72277
15 2 8.71933 1.92376 2.38688
16 2 4.9248 7.83964 6.08918
17 5 1.1364 0.777569 5.26108
18 5 3.67915 8.9788 3.28732
19 5 1.49092 5.69063 7.53107
20 5 3.1739 4.13492 1.09784
21 5 3.1798 0.311446 5.75434
22 5 1.59729 9.41549 2.79496
23 5 8.51642 5.03996 7.12619
24 5 5.18712 4.58128 1.4922
25 3 8.07116 7.71632 2.24426
26 3 5.6465 1.86557 6.47992
27 3 7.75101 2.86821 2.1081
28 3 5.92019 6.88743 6.38691
29 3 6.18935 7.10059 2.93199
30 3 7.56152 2.4732 5.75684
31 3 0.776812 2.37241 1.52239
32 3 3.97154 7.41307 7.06096
33 6 2.19823 0.374724 4.95227
34 6 2.56607 9.32423 3.56669
35 6 0.513562 5.23489 7.9224
36 6 4.2514 4.49222 0.709746
37 4 0.187742 7.44929 1.93275
38 4 4.63158 1.92523 6.90397
39 4 6.75308 2.66239 2.46623
40 4 6.92271 7.23683 6.26839
41 4 5.18271 6.75178 2.80065
42 4 8.54954 2.8086 6.05025
43 4 1.73275 1.90689 1.42889
44 4 3.09997 8.06427 7.26685
45 1 4.55529 0.538517 12.2935
46 1 0.897812 9.16379 13.2733
47 1 2.98654 5.29429 9.00808
48 1 2.46 4.30289 16.5515
49 2 3.49635 8.60966 11.7216
50 2 1.74453 1.0614 13.7375
51 2 4.03765 3.85599 9.72093
52 2 1.49607 5.9811 15.988
53 2 2.13061 8.27391 11.9076
54 2 3.12287 1.2561 13.64
55 2 5.28739 3.44759 9.24982
56 2 9.13587 6.38262 16.4038
57 2 2.90653 6.84519 10.3181
58 2 2.43498 2.92402 15.2414
59 2 4.49381 1.84056 10.8023
60 2 0.804681 7.65062 14.5588
61 5 5.7724 0.641288 13.7566
62 5 8.45201 9.1971 11.9423
63 5 6.291 5.65984 16.1594
64 5 8.07138 4.03459 9.48263
65 5 7.81352 0.335816 14.2318
66 5 6.38239 9.42036 11.2917
67 5 4.2541 5.10305 15.6549
68 5 1.10422 4.60004 10.0382
69 3 3.93176 7.64626 10.793
70 3 1.49535 1.98942 14.818
71 3 3.55829 2.82251 10.5813
72 3 1.87457 6.93628 15.0233
73 3 1.88621 7.12044 11.1725
74 3 3.36357 2.48795 14.3057
75 3 5.52984 2.28092 10.041
76 3 8.77098 7.34482 15.5178
77 6 6.92177 0.33955 13.4679
78 6 7.26536 9.26929 12.1248
79 6 5.18081 5.26676 16.4543
80 6 9.10953 4.54201 9.24754
81 4 4.76711 7.87217 10.2037
82 4 9.42449 1.98966 15.2482
83 4 2.75169 3.04948 11.3104
84 4 2.61 6.62198 14.2882
85 4 0.862863 6.80774 11.0233
86 4 4.37135 2.71469 14.483
87 4 6.51827 1.82059 9.8064
88 4 7.84769 7.83795 15.4976
89 1 8.64662 10.2115 3.7641
90 1 5.03791 18.8569 4.73677
91 1 7.09128 15.0413 0.534959
92 1 6.6201 13.9938 8.0376
93 2 7.74386 18.3658 3.18869
94 2 6.04968 10.8284 5.32509
95 2 8.06637 13.3992 1.01632
96 2 5.52199 15.5925 7.32624
97 2 6.38435 18.0682 3.44433
98 2 7.34996 11.2046 4.96213
99 2 0.464508 13.0285 0.712185
100 2 4.34666 16.1653 7.80722
101 2 7.1278 16.5331 1.83111
102 2 6.67444 12.6041 6.60836
103 2 8.55184 11.6321 2.45626
104 2 5.0175 17.4203 6.10514
105 5 1.19914 10.4477 5.23289
106 5 3.65301 18.8184 3.23605
107 5 1.52048 15.2807 7.57377
108 5 3.25243 13.8734 0.977734
109 5 3.10588 10.0273 5.86817
110 5 1.57218 19.051 2.73049
111 5 8.4129 14.84 7.06294
112 5 5.22639 14.2756 1.49327
113 3 8.07453 17.4463 2.15898
114 3 5.7051 11.6613 6.33742
115 3 7.69317 12.5857 2.10359
116 3 5.9001 16.4098 6.3495
117 3 6.19552 16.8369 2.7467
118 3 7.72705 12.1964 5.82957
119 3 0.620235 11.9763 1.57916
120 3 3.95545 17.0835 6.89821
121 6 2.29795 10.0968 4.97992
122 6 2.48244 19.1944 3.49713
123 6 0.433632 14.9757 7.81994
124 6 4.35064 14.2874 0.71079
125 4 0.207236 17.1889 2.02712
126 4 4.70907 12.0356 6.45962
127 4 6.64137 12.5502 2.44026
128 4 6.85537 16.4943 5.91559
129 4 5.18829 16.4197 2.88076
130 4 8.58233 12.9193 5.57166
131 4 1.44898 11.2624 1.43462
132 4 3.23859 17.8869 7.15634
133 1 4.45348 10.198 12.2417
134 1 0.86338 18.8248 13.3595
135 1 2.89639 14.9847 9.07882
136 1 2.41853 14.0276 16.517
137 2 3.43788 18.3299 11.7269
138 2 1.90297 10.6993 13.9147
139 2 3.90221 13.4052 9.62812
140 2 1.48315 15.5612 15.9522
141 2 2.077 18.0176 12.0707
142 2 3.19448 11.0864 13.5503
143 2 5.18535 13.07 9.23539
144 2 9.17226 15.9541 16.3844
145 2 3.00563 16.4643 10.3831
146 2 2.42353 12.6069 15.1454
147 2 4.59772 11.7112 11.0026
148 2 0.804658 17.4667 14.7501
149 5 5.98322 10.3274 13.7576
150 5 8.47358 18.7646 11.8118
151 5 6.2947 15.3733 16.1427
152 5 8.13626 13.8377 9.43489
153 5 7.98076 10.0457 14.2117
154 5 6.36978 18.9857 11.3435
155 5 4.40301 14.9741 15.6374
156 5 1.21117 14.1152 9.99191
157 3 3.98556 17.3109 10.8352
158 3 1.57103 11.6014 14.9258
159 3 3.60676 12.5232 10.6202
160 3 1.71821 16.5351 14.9774
161 3 1.92966 16.9452 11.1968
162 3 3.43793 12.1415 14.3511
163 3 5.46724 12.0259 10.0281
164 3 8.8337 17.0545 15.6406
165 6 7.02687 9.87033 13.5268
166 6 7.30326 18.9794 12.0932
167 6 5.29709 14.7612 16.3649
168 6 9.15499 14.3151 9.27985
169 4 4.96189 17.3698 10.3775
170 4 0.59972 11.5947 15.4216
171 4 2.98729 12.8869 11.4718
172 4 2.73157 16.6776 14.6887
173 4 1.13706 16.245 11.3702
174 4 4.22425 12.9113 14.1665
175 4 6.39917 11.5562 9.90672
176 4 7.79952 17.4771 15.7166
177 7 7.40745 13.3405 14.3601
178 8 6.94606 13.1301 15.1935
179 8 6.6609 13.4197 13.7562
180 7 6.91054 15.5691 12.5034
181 8 6.89933 16.5154 12.7403
182 8 7.83067 15.5178 12.2844
183 7 5.29735 4.88951 12.8736
184 8 4.38121 4.91099 13.1083
185 8 5.57121 5.78883 12.6203
186 7 7.1628 5.75834 11.3521
187 8 7.6613 5.72586 12.1828
188 8 7.842 6.14016 10.7932
189 7 2.887 4.98578 4.41996
190 8 2.64109 5.88078 4.57116
191 8 2.43113 4.49466 3.75329
192 7 4.64006 2.87963 4.11271
193 8 4.75852 2.73067 3.17446
194 8 5.26491 3.58308 4.16517
ITEM: TIMESTEP
61
ITEM: NUMBER OF ATOMS
194
ITEM: BOX BOUNDS xy xz yz pp pp pp
-3.8412818668360771e-03 9.5485683924723102e+00 0.0000000000000000e+00
-8.3545655527661467e-03 1.9395353665552761e+01 6.3092691060546713e-01
-7.3529898326398779e-03 1.7070168089832620e+01 0.0000000000000000e+00
ITEM: ATOMS id type x y z
1 1 8.71393 0.512176 3.70952
2 1 4.9718 9.20161 4.78423
3 1 7.0454 5.40205 0.452524
4 1 6.61446 4.30519 8.05216
5 2 7.7374 8.66492 3.16582
6 2 6.17709 1.0247 5.44382
7 2 8.07716 3.73799 1.09308
8 2 5.63736 5.95319 7.4118
9 2 6.48286 8.21639 3.61729
10 2 7.36495 1.48365 4.90111
11 2 0.47473 3.43214 0.734756
12 2 4.34315 6.34628 7.86549
13 2 7.11487 6.77468 1.97371
14 2 6.56899 2.81124 6.72542
15 2 8.71858 1.92224 2.38778
16 2 4.92368 7.84233 6.089
17 5 1.1376 0.777927 5.26211
18 5 3.67814 8.97945 3.28658
19 5 1.49005 5.69269 7.53031
20 5 3.17455 4.13574 1.0997
21 5 3.17911 0.311386 5.75455
22 5 1.59916 9.41579 2.79583
23 5 8.51694 5.0378 7.12593
24 5 5.18525 4.58215 1.4919
25 3 8.07071 7.71569 2.24488
26 3 5.64959 1.86439 6.48186
27 3 7.75334 2.86662 2.10846
28 3 5.9183 6.88935 6.38621
29 3 6.19052 7.09988 2.9352
30 3 7.56321 2.47423 5.75676
31 3 0.777729 2.37229 1.52257
32 3 3.97289 7.41154 7.0624
33 6 2.19681 0.374591 4.94804
34 6 2.56667 9.32442 3.56851
35 6 0.514506 5.23496 7.92699
36 6 4.25041 4.49253 0.708437
37 4 0.192472 7.4444 1.9356
38 4 4.63367 1.92716 6.90588
39 4 6.76002 2.65199 2.46548
40 4 6.91588 7.24402 6.27196
41 4 5.18472 6.75177 2.80261
42 4 8.54907 2.81245 6.05791
43 4 1.73149 1.90871 1.4272
44 4 3.10008 8.06679 7.27261
45 1 4.55594 0.538215 12.2939
46 1 0.897738 9.164 13.2725
47 1 2.98696 5.29269 9.00737
48 1 2.46035 4.30302 16.5519
49 2 3.49522 8.60891 11.7206
50 2 1.74461 1.06115 13.7362
51 2 4.04105 3.85712 9.72112
52 2 1.49532 5.98106 15.9888
53 2 2.12914 8.27562 11.9066
54 2 3.12137 1.25405 13.6414
55 2 5.28633 3.44942 9.24968
56 2 9.13663 6.38334 16.4044
57 2 2.90744 6.84423 10.3156
58 2 2.43417 2.9237 15.2409
59 2 4.49397 1.83881 10.8004
60 2 0.803176 7.65166 14.5564
61 5 5.77089 0.639378 13.757
62 5 8.45157 9.20128 11.9425
63 5 6.28993 5.6616 16.1592
64 5 8.07372 4.03278 9.48239
65 5 7.8104 0.336319 14.2311
66 5 6.38436 9.42095 11.2924
67 5 4.25404 5.10247 15.6552
68 5 1.10341 4.6012 10.0384
69 3 3.92997 7.64427 10.7935
70 3 1.49556 1.9908 14.8179
71 3 3.55985 2.82049 10.5809
72 3 1.8745 6.93858 15.0233
73 3 1.88526 7.11964 11.1709
74 3 3.36302 2.4871 14.3061
75 3 5.5288 2.27861 10.0426
76 3 8.77083 7.34487 15.5177
77 6 6.92147 0.338842 13.4658
78 6 7.26518 9.26754 12.1258
79 6 5.17882 5.26602 16.4607
80 6 9.11072 4.54287 9.24636
81 4 4.76098 7.87609 10.2131
82 4 9.4231 1.99239 15.2433
83 4 2.75141 3.04995 11.3151
84 4 2.61018 6.6154 14.2894
85 4 0.861176 6.81274 11.0172
86 4 4.36427 2.71071 14.4884
87 4 6.51901 1.81898 9.80056
88 4 7.85535 7.83623 15.4932
89 1 8.64659 10.2111 3.76448
90 1 5.03796 18.8573 4.73589
91 1 7.09115 15.0405 0.535014
92 1 6.62069 13.9939 8.03803
93 2 7.74384 18.3671 3.18923
94 2 6.05157 10.8278 5.32314
95 2 8.06535 13.3991 1.01603
96 2 5.51939 15.5899 7.32704
97 2 6.38458 18.0692 3.44281
98 2 7.35113 11.2049 4.96175
99 2 0.4647 13.0274 0.711808
100 2 4.3463 16.1662 7.8075
101 2 7.12823 16.5319 1.83072
102 2 6.67545 12.607 6.60892
103 2 8.55054 11.6292 2.45814
104 2 5.01846 17.4228 6.10212
105 5 1.2001 10.4483 5.23343
106 5 3.65318 18.8211 3.23381
107 5 1.51873 15.2805 7.57326
108 5 3.25287 13.8744 0.9785
109 5 3.10406 10.0272 5.86895
110 5 1.5737 19.0508 2.73058
111 5 8.41441 14.8396 7.06449
112 5 5.22554 14.2765 1.4934
113 3 8.07462 17.4461 2.15785
114 3 5.70613 11.6628 6.33791
115 3 7.69332 12.5859 2.10345
116 3 5.89947 16.4105 6.34589
117 3 6.19785 16.8374 2.74588
118 3 7.72765 12.1954 5.83008
119 3 0.618564 11.976 1.57937
120 3 3.95433 17.0839 6.89745
121 6 2.29925 10.0971 4.97843
122 6 2.47953 19.1979 3.49896
123 6 0.433484 14.9778 7.81976
124 6 4.35212 14.289 0.708995
125 4 0.210163 17.1879 2.03478
126 4 4.71684 12.0444 6.45499
127 4 6.63411 12.5553 2.43189
128 4 6.84703 16.5009 5.91261
129 4 5.18765 16.4277 2.88557
130 4 8.58974 12.9281 5.56497
131 4 1.44923 11.2561 1.43257
132 4 3.24109 17.895 7.16003
133 1 4.45267 10.1973 12.2413
134 1 0.862637 18.8246 13.36
135 1 2.89534 14.9831 9.07916
136 1 2.41833 14.0281 16.5167
137 2 3.43811 18.3298 11.7262
138 2 1.90331 10.6973 13.9156
139 2 3.90087 13.4066 9.6281
140 2 1.48149 15.5585 15.9546
141 2 2.07524 18.0175 12.0699
142 2 3.19539 11.0853 13.5503
143 2 5.18662 13.0701 9.23381
144 2 9.17343 15.9529 16.3852
145 2 3.00544 16.4626 10.3834
146 2 2.42384 12.6101 15.1465
147 2 4.59937 11.7093 11.0053
148 2 0.804896 17.4688 14.7501
149 5 5.98406 10.3259 13.7581
150 5 8.47274 18.7669 11.8114
151 5 6.29481 15.3755 16.1435
152 5 8.1395 13.8381 9.4347
153 5 7.98071 10.0463 14.2101
154 5 6.37139 18.9841 11.3445
155 5 4.40431 14.976 15.638
156 5 1.21162 14.1137 9.99036
157 3 3.9835 17.3102 10.8381
158 3 1.572 11.6003 14.9262
159 3 3.60652 12.5222 10.6206
160 3 1.71769 16.5376 14.975
161 3 1.93022 16.9464 11.1957
162 3 3.43809 12.14 14.3507
163 3 5.46737 12.0247 10.0279
164 3 8.83322 17.0549 15.6426
165 6 7.02728 9.86781 13.5271
166 6 7.30313 18.9787 12.0939
167 6 5.29738 14.7589 16.3668
168 6 9.15552 14.3163 9.28046
169 4 4.96036 17.375 10.3878
170 4 0.594004 11.5879 15.4161
171 4 2.98804 12.8945 11.4784
172 4 2.72891 16.6827 14.6907
173 4 1.14138 16.2436 11.3669
174 4 4.22372 12.9189 14.1643
175 4 6.39532 11.5596 9.90638
176 4 7.79105 17.4775 15.7237
177 7 7.40912 13.3395 14.3605
178 8 6.95472 13.1344 15.1936
179 8 6.6624 13.4321 13.7585
180 7 6.91048 15.569 12.5041
181 8 6.89906 16.5102 12.7389
182 8 7.83317 15.5228 12.2788
183 7 5.2962 4.88894 12.8729
184 8 4.38231 4.90545 13.1142
185 8 5.56935 5.78315 12.6025
186 7 7.16363 5.76033 11.3538
187 8 7.6593 5.72614 12.1816
188 8 7.84752 6.13562 10.7973
189 7 2.88431 4.98873 4.418
190 8 2.63733 5.88321 4.57897
191 8 2.44133 4.48661 3.74842
192 7 4.63939 2.88002 4.10994
193 8 4.76679 2.73031 3.17289
194 8 5.26488 3.58569 4.15753
ITEM: TIMESTEP
62
ITEM: NUMBER OF ATOMS
194
ITEM: BOX BOUNDS xy xz yz pp pp pp
-3.9255287453139331e-03 9.5486645552226612e+00 0.0000000000000000e+00
-8.5377976334246597e-03 1.9395536897633420e+01 6.3093882647734045e-01
-7.5142553847022953e-03 1.7070329355384683e+01 0.0000000000000000e+00
ITEM: ATOMS id type x y z
1 1 8.71502 0.511668 3.70893
2 1 4.97086 9.20256 4.78419
3 1 7.04449 5.40211 0.451507
4 1 6.61515 4.30527 8.05296
5 2 7.73875 8.66637 3.16676
6 2 6.18088 1.0216 5.44392
7 2 8.07631 3.73939 1.0924
8 2 5.63725 5.9533 7.41183
9 2 6.48279 8.21642 3.61889
10 2 7.3633 1.48208 4.90095
11 2 0.476129 3.43268 0.734512
12 2 4.34234 6.34911 7.8643
13 2 7.11612 6.7716 1.97351
14 2 6.56755 2.81146 6.72803
15 2 8.71782 1.92075 2.38865
16 2 4.92257 7.84497 6.08891
17 5 1.13875 0.778297 5.26315
18 5 3.67715 8.98009 3.28582
19 5 1.48929 5.69477 7.52956
20 5 3.17517 4.13657 1.10153
21 5 3.17837 0.311335 5.75472
22 5 1.60106 9.41607 2.79671
23 5 8.51746 5.03565 7.12568
24 5 5.18339 4.58303 1.49159
25 3 8.07028 7.71502 2.24547
26 3 5.65275 1.86319 6.48375
27 3 7.7557 2.86499 2.10883
28 3 5.91637 6.89128 6.38553
29 3 6.1917 7.09916 2.93836
30 3 7.56489 2.47534 5.7568
31 3 0.778631 2.37216 1.52277
32 3 3.97428 7.41004 7.06378
33 6 2.19556 0.374424 4.94384
34 6 2.56717 9.32468 3.57038
35 6 0.515233 5.23498 7.93149
36 6 4.24953 4.49287 0.707184
37 4 0.196927 7.43985 1.93865
38 4 4.63588 1.92887 6.90762
39 4 6.76679 2.64175 2.46459
40 4 6.90935 7.2511 6.27548
41 4 5.18654 6.75173 2.80475
42 4 8.54875 2.81623 6.06521
43 4 1.73042 1.91033 1.42554
44 4 3.10036 8.06901 7.27849
45 1 4.55658 0.53791 12.2942
46 1 0.897657 9.16422 13.2717
47 1 2.98738 5.2911 9.00666
48 1 2.46071 4.30317 16.5523
49 2 3.49405 8.6081 11.7196
50 2 1.74474 1.06097 13.7349
51 2 4.04443 3.8582 9.72132
52 2 1.49454 5.98106 15.9896
53 2 2.12771 8.27732 11.9056
54 2 3.11984 1.25208 13.6428
55 2 5.28525 3.45117 9.24961
56 2 9.13739 6.38403 16.4049
57 2 2.90838 6.84325 10.3132
58 2 2.43336 2.92333 15.2404
59 2 4.49413 1.83707 10.7985
60 2 0.801678 7.65272 14.554
61 5 5.7694 0.63746 13.7573
62 5 8.45115 9.20545 11.9426
63 5 6.28885 5.66336 16.1589
64 5 8.07601 4.03095 9.48214
65 5 7.80734 0.336832 14.2305
66 5 6.38633 9.42153 11.2931
67 5 4.25399 5.10191 15.6554
68 5 1.10262 4.60237 10.0387
69 3 3.92809 7.64232 10.794
70 3 1.49574 1.99213 14.8178
71 3 3.56146 2.81854 10.5805
72 3 1.87441 6.94081 15.0234
73 3 1.88432 7.1189 11.1694
74 3 3.36244 2.48619 14.3066
75 3 5.52781 2.27642 10.0441
76 3 8.77077 7.34494 15.5177
77 6 6.92116 0.3381 13.4637
78 6 7.26499 9.26581 12.1268
79 6 5.17675 5.26523 16.4672
80 6 9.11202 4.54377 9.2452
81 4 4.7553 7.88 10.2221
82 4 9.42164 1.99528 15.2384
83 4 2.75134 3.05021 11.3195
84 4 2.61043 6.6089 14.2906
85 4 0.859478 6.81775 11.0109
86 4 4.35768 2.70691 14.4939
87 4 6.51929 1.81707 9.79505
88 4 7.86246 7.83465 15.4889
89 1 8.64657 10.2107 3.76486
90 1 5.03802 18.8577 4.73501
91 1 7.09101 15.0398 0.535069
92 1 6.62129 13.9939 8.03846
93 2 7.74376 18.3684 3.18973
94 2 6.05348 10.8273 5.32121
95 2 8.06437 13.3989 1.01581
96 2 5.51678 15.5872 7.32785
97 2 6.38486 18.0702 3.44125
98 2 7.35231 11.2051 4.9614
99 2 0.464827 13.0264 0.711458
100 2 4.34591 16.1671 7.80779
101 2 7.12868 16.5307 1.83034
102 2 6.67645 12.6099 6.60947
103 2 8.54926 11.6263 2.45999
104 2 5.01941 17.4253 6.0991
105 5 1.20101 10.4488 5.23396
106 5 3.6533 18.8238 3.23157
107 5 1.51705 15.2805 7.5727
108 5 3.25329 13.8754 0.979273
109 5 3.10229 10.0272 5.86971
110 5 1.57519 19.0506 2.73068
111 5 8.41593 14.8392 7.06603
112 5 5.22474 14.2774 1.49356
113 3 8.07474 17.446 2.15677
114 3 5.7072 11.6643 6.33839
115 3 7.69341 12.5862 2.10328
116 3 5.8988 16.4113 6.34226
117 3 6.20013 16.838 2.74513
118 3 7.72826 12.1944 5.83056
119 3 0.616954 11.9757 1.57959
120 3 3.95324 17.0843 6.8967
121 6 2.30059 10.0974 4.9769
122 6 2.47671 19.2013 3.50081
123 6 0.433237 14.9798 7.8197
124 6 4.35356 14.2907 0.707182
125 4 0.21297 17.1869 2.04234
126 4 4.72428 12.053 6.45031
127 4 6.62712 12.5604 2.42347
128 4 6.83921 16.5072 5.90959
129 4 5.18718 16.4355 2.88999
130 4 8.59653 12.9362 5.55843
131 4 1.44935 11.2502 1.43044
132 4 3.24374 17.9027 7.16385
133 1 4.45187 10.1966 12.2409
134 1 0.861882 18.8245 13.3605
135 1 2.8943 14.9815 9.07949
136 1 2.41814 14.0286 16.5163
137 2 3.43834 18.3296 11.7255
138 2 1.90367 10.6954 13.9165
139 2 3.89956 13.4081 9.6281
140 2 1.47982 15.5558 15.957
141 2 2.07362 18.0174 12.0691
142 2 3.19626 11.0843 13.5503
143 2 5.18787 13.0701 9.23224
144 2 9.17455 15.9517 16.3859
145 2 3.00521 16.4609 10.3838
146 2 2.42418 12.6132 15.1477
147 2 4.601 11.7072 11.008
148 2 0.805141 17.4709 14.75
149 5 5.98483 10.3245 13.7587
150 5 8.47189 18.7693 11.8109
151 5 6.29496 15.3778 16.1442
152 5 8.14264 13.8384 9.43456
153 5 7.9807 10.0468 14.2086
154 5 6.37297 18.9825 11.3456
155 5 4.40554 14.9777 15.6387
156 5 1.21207 14.1123 9.98881
157 3 3.98134 17.3097 10.8411
158 3 1.57293 11.5992 14.9266
159 3 3.60623 12.5212 10.6211
160 3 1.71723 16.54 14.9727
161 3 1.93082 16.9476 11.1945
162 3 3.43827 12.1386 14.3503
163 3 5.46752 12.0235 10.0277
164 3 8.83267 17.0552 15.6447
165 6 7.02772 9.86525 13.5274
166 6 7.30297 18.978 12.0947
167 6 5.29769 14.7565 16.3687
168 6 9.15617 14.3176 9.28098
169 4 4.95887 17.3802 10.3981
170 4 0.588312 11.5811 15.4103
171 4 2.98884 12.9019 11.4846
172 4 2.72651 16.6879 14.6926
173 4 1.14547 16.2422 11.3636
174 4 4.22306 12.9261 14.162
175 4 6.39189 11.5627 9.90615
176 4 7.78305 17.4779 15.7308
177 7 7.41077 13.3385 14.361
178 8 6.96353 13.1386 15.1935
179 8 6.66407 13.4446 13.7608
180 7 6.91043 15.5689 12.5047
181 8 6.89854 16.5049 12.7375
182 8 7.83586 15.5275 12.2732
183 7 5.29507 4.88837 12.8722
184 8 4.38323 4.90007 13.1201
185 8 5.56727 5.77715 12.5847
186 7 7.16448 5.76234 11.3555
187 8 7.65714 5.72627 12.1803
188 8 7.85296 6.13109 10.8011
189 7 2.88167 4.99167 4.41606
190 8 2.63318 5.8858 4.58656
191 8 2.45134 4.47878 3.74339
192 7 4.63871 2.88041 4.10714
193 8 4.77482 2.72974 3.17119
194 8 5.26498 3.58867 4.15026
ITEM: TIMESTEP
63
ITEM: NUMBER OF ATOMS
194
ITEM: BOX BOUNDS xy xz yz pp pp pp
-4.0076022658723787e-03 9.5487582372155195e+00 0.0000000000000000e+00
-8.7163027865013731e-03 1.9395715402786493e+01 6.3095043494964032e-01
-7.6713606904608156e-03 1.7070486460690439e+01 0.0000000000000000e+00
ITEM: ATOMS id type x y z
1 1 8.71611 0.511168 3.70834
2 1 4.96993 9.20352 4.78416
3 1 7.04358 5.40217 0.450499
4 1 6.61584 4.30534 8.05376
5 2 7.74006 8.66778 3.16775
6 2 6.1846 1.01849 5.44404
7 2 8.07547 3.74081 1.09171
8 2 5.63707 5.95347 7.41184
9 2 6.48272 8.21649 3.62047
10 2 7.36163 1.48048 4.90084
11 2 0.477499 3.43322 0.734299
12 2 4.34157 6.35193 7.86305
13 2 7.11737 6.76852 1.97334
14 2 6.56614 2.8117 6.73061
15 2 8.71706 1.91928 2.38949
16 2 4.92147 7.84756 6.08893
17 5 1.13985 0.778682 5.26419
18 5 3.67618 8.98072 3.28506
19 5 1.48862 5.69688 7.52883
20 5 3.17576 4.1374 1.10334
21 5 3.17758 0.311294 5.75483
22 5 1.60298 9.41633 2.7976
23 5 8.51799 5.03351 7.12544
24 5 5.18153 4.5839 1.49127
25 3 8.06989 7.71432 2.24602
26 3 5.65599 1.86198 6.48559
27 3 7.75809 2.86334 2.1092
28 3 5.91438 6.89321 6.38488
29 3 6.1929 7.09842 2.94144
30 3 7.56655 2.47655 5.75695
31 3 0.779513 2.37203 1.523
32 3 3.97568 7.40859 7.0651
33 6 2.19448 0.374224 4.9397
34 6 2.56757 9.32501 3.5723
35 6 0.515741 5.23493 7.9359
36 6 4.24876 4.49324 0.705994
37 4 0.201051 7.43567 1.94192
38 4 4.63822 1.93035 6.90918
39 4 6.77336 2.63169 2.46358
40 4 6.90316 7.25808 6.27894
41 4 5.18815 6.75164 2.80708
42 4 8.54858 2.81993 6.07214
43 4 1.72958 1.91173 1.42392
44 4 3.10087 8.07091 7.28446
45 1 4.55722 0.537603 12.2946
46 1 0.89757 9.16443 13.2709
47 1 2.98781 5.28951 9.00595
48 1 2.46107 4.30332 16.5527
49 2 3.49283 8.60722 11.7185
50 2 1.74494 1.06086 13.7338
51 2 4.04779 3.85921 9.72153
52 2 1.49373 5.9811 15.9904
53 2 2.12633 8.27902 11.9046
54 2 3.1183 1.2502 13.6443
55 2 5.28414 3.45284 9.24962
56 2 9.13814 6.3847 16.4053
57 2 2.90933 6.84224 10.3107
58 2 2.43254 2.92291 15.2398
59 2 4.49429 1.83533 10.7967
60 2 0.800189 7.6538 14.5516
61 5 5.76792 0.635534 13.7576
62 5 8.45075 9.20964 11.9426
63 5 6.28777 5.66513 16.1586
64 5 8.07826 4.02908 9.48189
65 5 7.80434 0.337358 14.2299
66 5 6.3883 9.42211 11.2937
67 5 4.25397 5.10137 15.6557
68 5 1.10185 4.60354 10.0389
69 3 3.92614 7.64042 10.7946
70 3 1.4959 1.99341 14.8177
71 3 3.56309 2.81667 10.5801
72 3 1.87429 6.94298 15.0235
73 3 1.88342 7.11822 11.1679
74 3 3.36184 2.48523 14.3071
75 3 5.52686 2.27435 10.0454
76 3 8.7708 7.34502 15.5176
77 6 6.92083 0.337327 13.4616
78 6 7.26479 9.2641 12.1278
79 6 5.17458 5.26441 16.4735
80 6 9.11344 4.5447 9.24409
81 4 4.75011 7.88392 10.2308
82 4 9.4201 1.99832 15.2334
83 4 2.75153 3.05028 11.3237
84 4 2.61073 6.6025 14.2919
85 4 0.857768 6.82277 11.0045
86 4 4.35165 2.70329 14.4995
87 4 6.51908 1.81487 9.78988
88 4 7.86894 7.83323 15.4848
89 1 8.64654 10.2103 3.76525
90 1 5.03808 18.8581 4.73414
91 1 7.09088 15.0391 0.535124
92 1 6.62188 13.994 8.03889
93 2 7.74364 18.3697 3.19018
94 2 6.05541 10.8268 5.31929
95 2 8.06341 13.3987 1.01565
96 2 5.51417 15.5846 7.32867
97 2 6.38521 18.0711 3.43966
98 2 7.35347 11.2053 4.96107
99 2 0.464885 13.0254 0.711137
100 2 4.34548 16.1679 7.80808
101 2 7.12913 16.5294 1.82998
102 2 6.67745 12.6127 6.61002
103 2 8.54799 11.6233 2.4618
104 2 5.02034 17.4278 6.09607
105 5 1.20188 10.4494 5.23451
106 5 3.65337 18.8265 3.22932
107 5 1.51546 15.2804 7.5721
108 5 3.25369 13.8764 0.980052
109 5 3.10056 10.0271 5.87045
110 5 1.57664 19.0504 2.73078
111 5 8.41744 14.8389 7.06756
112 5 5.224 14.2784 1.49376
113 3 8.07487 17.446 2.15574
114 3 5.70833 11.6659 6.33888
115 3 7.69345 12.5865 2.10307
116 3 5.89807 16.4121 6.33861
117 3 6.20235 16.8387 2.74445
118 3 7.72889 12.1934 5.83101
119 3 0.615408 11.9754 1.5798
120 3 3.95219 17.0848 6.89594
121 6 2.30196 10.0977 4.97533
122 6 2.47401 19.2048 3.50267
123 6 0.432891 14.9818 7.81976
124 6 4.35496 14.2923 0.705358
125 4 0.215632 17.1859 2.04981
126 4 4.73135 12.0614 6.44557
127 4 6.62045 12.5653 2.415
128 4 6.83199 16.5133 5.90652
129 4 5.1869 16.443 2.89403
130 4 8.60259 12.9436 5.55207
131 4 1.44928 11.2446 1.42824
132 4 3.24655 17.91 7.16778
133 1 4.45108 10.1959 12.2406
134 1 0.861116 18.8244 13.361
135 1 2.89327 14.9799 9.07982
136 1 2.41796 14.0291 16.516
137 2 3.43857 18.3294 11.7247
138 2 1.90408 10.6935 13.9174
139 2 3.8983 13.4096 9.6281
140 2 1.47814 15.5531 15.9594
141 2 2.07212 18.0173 12.0682
142 2 3.19709 11.0832 13.5502
143 2 5.1891 13.0702 9.23069
144 2 9.17562 15.9505 16.3867
145 2 3.00495 16.4593 10.3842
146 2 2.42454 12.6163 15.1488
147 2 4.60262 11.7052 11.0106
148 2 0.805391 17.4731 14.75
149 5 5.98552 10.3232 13.7592
150 5 8.47104 18.7717 11.8104
151 5 6.29515 15.38 16.145
152 5 8.14568 13.8387 9.43447
153 5 7.98075 10.0473 14.2071
154 5 6.37454 18.9808 11.3466
155 5 4.40669 14.9795 15.6393
156 5 1.21252 14.1109 9.98725
157 3 3.97909 17.3092 10.8441
158 3 1.57382 11.598 14.927
159 3 3.60589 12.5202 10.6217
160 3 1.7168 16.5424 14.9703
161 3 1.93144 16.9488 11.1933
162 3 3.43849 12.1374 14.35
163 3 5.46769 12.0222 10.0276
164 3 8.83204 17.0554 15.6467
165 6 7.02818 9.86265 13.5276
166 6 7.30279 18.9774 12.0956
167 6 5.29803 14.7542 16.3707
168 6 9.15695 14.319 9.28141
169 4 4.95744 17.3853 10.4083
170 4 0.582689 11.5743 15.4045
171 4 2.98971 12.9093 11.4902
172 4 2.7244 16.6932 14.6942
173 4 1.14932 16.2409 11.3603
174 4 4.22223 12.9327 14.1595
175 4 6.38895 11.5655 9.906
176 4 7.7756 17.4781 15.7378
177 7 7.41242 13.3375 14.3614
178 8 6.97246 13.1429 15.1933
179 8 6.6659 13.4572 13.7631
180 7 6.91038 15.5689 12.5054
181 8 6.89777 16.4995 12.7362
182 8 7.83865 15.5319 12.2674
183 7 5.29395 4.8878 12.8715
184 8 4.38397 4.89486 13.1262
185 8 5.56497 5.77086 12.567
186 7 7.16535 5.76438 11.3571
187 8 7.65485 5.72626 12.1792
188 8 7.85831 6.12655 10.8048
189 7 2.87906 4.9946 4.41415
190 8 2.62865 5.88848 4.59391
191 8 2.46116 4.47121 3.73823
192 7 4.63801 2.8808 4.1043
193 8 4.7826 2.72894 3.16933
194 8 5.26518 3.59201 4.14337
ITEM: TIMESTEP
64
ITEM: NUMBER OF ATOMS
194
ITEM: BOX BOUNDS xy xz yz pp pp pp
-4.0871514041826984e-03 9.5488490377777033e+00 0.0000000000000000e+00
-8.8893175544146885e-03 1.9395888417554410e+01 6.3096168637351335e-01
-7.8236338184076715e-03 1.7070638733818384e+01 0.0000000000000000e+00
ITEM: ATOMS id type x y z
1 1 8.71719 0.510678 3.70775
2 1 4.96899 9.20447 4.78413
3 1 7.04268 5.40224 0.449503
4 1 6.61653 4.30543 8.05457
5 2 7.74134 8.66915 3.16876
6 2 6.18824 1.01537 5.4442
7 2 8.07465 3.74224 1.09103
8 2 5.63683 5.95371 7.41183
9 2 6.48265 8.2166 3.62205
10 2 7.35996 1.47885 4.90079
11 2 0.478838 3.43377 0.734119
12 2 4.34083 6.35473 7.86175
13 2 7.11863 6.76543 1.97321
14 2 6.56479 2.81194 6.73314
15 2 8.71631 1.91783 2.39029
16 2 4.92037 7.85009 6.08905
17 5 1.1409 0.77908 5.26523
18 5 3.67523 8.98135 3.28428
19 5 1.48805 5.69902 7.52813
20 5 3.17631 4.13824 1.10513
21 5 3.17674 0.311263 5.75488
22 5 1.60493 9.41658 2.7985
23 5 8.51853 5.03138 7.12522
24 5 5.17967 4.58477 1.49095
25 3 8.06953 7.7136 2.24654
26 3 5.65929 1.86074 6.48736
27 3 7.76052 2.86165 2.10958
28 3 5.91234 6.89515 6.38425
29 3 6.19411 7.09767 2.94446
30 3 7.56818 2.47786 5.75722
31 3 0.780372 2.37189 1.52325
32 3 3.97711 7.40719 7.06635
33 6 2.19356 0.373995 4.93561
34 6 2.56788 9.3254 3.57426
35 6 0.516028 5.23484 7.94021
36 6 4.24809 4.49363 0.704875
37 4 0.204798 7.43186 1.9454
38 4 4.6407 1.93161 6.91054
39 4 6.77968 2.62182 2.46244
40 4 6.89733 7.26497 6.28235
41 4 5.18956 6.75152 2.8096
42 4 8.54857 2.82352 6.07867
43 4 1.72897 1.9129 1.42234
44 4 3.10162 8.07245 7.29051
45 1 4.55786 0.537296 12.2949
46 1 0.897476 9.16464 13.2701
47 1 2.98823 5.28793 9.00524
48 1 2.46143 4.30347 16.5532
49 2 3.49157 8.60629 11.7174
50 2 1.74519 1.06081 13.7327
51 2 4.05111 3.86017 9.72175
52 2 1.49289 5.98117 15.9911
53 2 2.12501 8.28071 11.9036
54 2 3.11673 1.24841 13.6457
55 2 5.28301 3.45443 9.24969
56 2 9.13888 6.38534 16.4058
57 2 2.9103 6.8412 10.3082
58 2 2.43172 2.92243 15.2391
59 2 4.49446 1.83358 10.7948
60 2 0.798711 7.65491 14.5493
61 5 5.76645 0.633601 13.7579
62 5 8.45036 9.21382 11.9425
63 5 6.28667 5.6669 16.1584
64 5 8.08047 4.02719 9.48163
65 5 7.80139 0.337895 14.2293
66 5 6.39025 9.42269 11.2943
67 5 4.25396 5.10084 15.656
68 5 1.10109 4.60471 10.0392
69 3 3.9241 7.63856 10.7953
70 3 1.49602 1.99464 14.8175
71 3 3.56476 2.81487 10.5797
72 3 1.87414 6.94507 15.0236
73 3 1.88253 7.1176 11.1665
74 3 3.3612 2.48421 14.3076
75 3 5.52596 2.2724 10.0467
76 3 8.77091 7.34512 15.5174
77 6 6.92048 0.336524 13.4593
78 6 7.26458 9.2624 12.1289
79 6 5.17232 5.26355 16.4799
80 6 9.11498 4.54567 9.24301
81 4 4.74547 7.88784 10.2391
82 4 9.4185 2.00154 15.2285
83 4 2.752 3.05012 11.3275
84 4 2.61107 6.59622 14.2933
85 4 0.856047 6.8278 10.9979
86 4 4.34625 2.69987 14.5052
87 4 6.51835 1.81237 9.78507
88 4 7.87471 7.832 15.4809
89 1 8.64652 10.2099 3.76565
90 1 5.03813 18.8585 4.73326
91 1 7.09075 15.0383 0.53518
92 1 6.62247 13.994 8.03932
93 2 7.74346 18.3709 3.19059
94 2 6.05735 10.8263 5.31738
95 2 8.06249 13.3985 1.01555
96 2 5.51156 15.582 7.3295
97 2 6.38561 18.0719 3.43804
98 2 7.35464 11.2055 4.96077
99 2 0.464872 13.0244 0.710846
100 2 4.34502 16.1686 7.80836
101 2 7.12961 16.5281 1.82964
102 2 6.67844 12.6156 6.61055
103 2 8.54675 11.6203 2.46357
104 2 5.02125 17.4303 6.09305
105 5 1.2027 10.45 5.23507
106 5 3.65337 18.8292 3.22709
107 5 1.51394 15.2803 7.57146
108 5 3.25407 13.8774 0.980835
109 5 3.09888 10.027 5.87117
110 5 1.57806 19.0503 2.73089
111 5 8.41895 14.8385 7.06906
112 5 5.22331 14.2793 1.49399
113 3 8.07502 17.446 2.15476
114 3 5.70951 11.6675 6.33937
115 3 7.69342 12.5869 2.10284
116 3 5.8973 16.4129 6.33496
117 3 6.2045 16.8396 2.74385
118 3 7.72956 12.1925 5.83145
119 3 0.61393 11.975 1.58003
120 3 3.95118 17.0854 6.89518
121 6 2.30335 10.0979 4.97373
122 6 2.47143 19.2082 3.50455
123 6 0.432447 14.9837 7.81995
124 6 4.35631 14.2938 0.703527
125 4 0.218124 17.1849 2.05717
126 4 4.738 12.0696 6.44078
127 4 6.61416 12.5702 2.40649
128 4 6.82544 16.5192 5.90337
129 4 5.18681 16.4503 2.89765
130 4 8.60783 12.9503 5.54593
131 4 1.44898 11.2394 1.42597
132 4 3.24954 17.9168 7.17181
133 1 4.4503 10.1952 12.2403
134 1 0.86034 18.8243 13.3615
135 1 2.89223 14.9783 9.08014
136 1 2.41779 14.0296 16.5157
137 2 3.43877 18.3291 11.7239
138 2 1.90452 10.6916 13.9183
139 2 3.89709 13.4111 9.62811
140 2 1.47646 15.5506 15.9617
141 2 2.07075 18.0171 12.0673
142 2 3.19787 11.0821 13.5502
143 2 5.19032 13.0702 9.22916
144 2 9.17664 15.9493 16.3874
145 2 3.00465 16.4577 10.3847
146 2 2.42492 12.6193 15.1499
147 2 4.60422 11.7031 11.0132
148 2 0.805644 17.4753 14.7499
149 5 5.98614 10.3218 13.7598
150 5 8.47017 18.774 11.81
151 5 6.29536 15.3822 16.1457
152 5 8.14861 13.8389 9.43443
153 5 7.98084 10.0479 14.2056
154 5 6.37609 18.9792 11.3476
155 5 4.40776 14.9813 15.6399
156 5 1.21297 14.1095 9.98568
157 3 3.97675 17.3087 10.8472
158 3 1.57466 11.5968 14.9274
159 3 3.6055 12.5193 10.6223
160 3 1.71643 16.5446 14.9681
161 3 1.93209 16.9499 11.1921
162 3 3.43874 12.1362 14.3497
163 3 5.46786 12.021 10.0274
164 3 8.83132 17.0557 15.6488
165 6 7.02864 9.86 13.5277
166 6 7.30259 18.9769 12.0965
167 6 5.29841 14.7519 16.3725
168 6 9.15785 14.3204 9.28175
169 4 4.95609 17.3903 10.4183
170 4 0.577177 11.5675 15.3984
171 4 2.99071 12.9164 11.4953
172 4 2.72259 16.6986 14.6957
173 4 1.15289 16.2395 11.3572
174 4 4.2212 12.9387 14.1568
175 4 6.38654 11.568 9.90595
176 4 7.76877 17.4783 15.7447
177 7 7.41406 13.3365 14.3619
178 8 6.98145 13.1472 15.1931
179 8 6.66791 13.4699 13.7654
180 7 6.91034 15.5688 12.506
181 8 6.89674 16.4941 12.7349
182 8 7.84146 15.5359 12.2616
183 7 5.29285 4.88724 12.8708
184 8 4.38454 4.88983 13.1324
185 8 5.56242 5.76427 12.5492
186 7 7.16622 5.76644 11.3588
187 8 7.65246 5.7261 12.1782
188 8 7.86357 6.12202 10.8082
189 7 2.87648 4.99751 4.41226
190 8 2.62372 5.89122 4.60099
191 8 2.47082 4.46396 3.73298
192 7 4.63731 2.88121 4.10143
193 8 4.79011 2.72791 3.16733
194 8 5.26542 3.59566 4.13687
ITEM: TIMESTEP
65
ITEM: NUMBER OF ATOMS
194
ITEM: BOX BOUNDS xy xz yz pp pp pp
-4.1638224423392600e-03 9.5489365531614734e+00 0.0000000000000000e+00
-9.0560726212096654e-03 1.9396055172621203e+01 6.3097253071912673e-01
-7.9703976809852861e-03 1.7070785497680962e+01 0.0000000000000000e+00
ITEM: ATOMS id type x y z
1 1 8.71828 0.510198 3.70716
2 1 4.96806 9.20543 4.7841
3 1 7.04177 5.4023 0.448518
4 1 6.61722 4.30551 8.05538
5 2 7.74258 8.67047 3.16981
6 2 6.19179 1.01223 5.44439
7 2 8.07386 3.74367 1.09034
8 2 5.63653 5.95402 7.41181
9 2 6.48259 8.21677 3.62361
10 2 7.35829 1.4772 4.9008
11 2 0.480142 3.43433 0.733972
12 2 4.34015 6.3575 7.86041
13 2 7.11988 6.76235 1.97312
14 2 6.56348 2.81219 6.73562
15 2 8.71556 1.91641 2.39106
16 2 4.91929 7.85257 6.08928
17 5 1.14189 0.779493 5.26627
18 5 3.67431 8.98196 3.28348
19 5 1.48758 5.70118 7.52745
20 5 3.17682 4.13908 1.10689
21 5 3.17585 0.311243 5.75487
22 5 1.6069 9.41681 2.79942
23 5 8.51908 5.02925 7.12502
24 5 5.17782 4.58565 1.49062
25 3 8.06921 7.71284 2.24701
26 3 5.66266 1.85947 6.48907
27 3 7.76297 2.85994 2.10996
28 3 5.91024 6.8971 6.38364
29 3 6.19534 7.0969 2.94741
30 3 7.56977 2.47925 5.75761
31 3 0.781206 2.37174 1.52353
32 3 3.97855 7.40585 7.06753
33 6 2.19282 0.373742 4.93161
34 6 2.5681 9.32585 3.57628
35 6 0.516091 5.23469 7.94439
36 6 4.24754 4.49405 0.703832
37 4 0.208122 7.42844 1.94912
38 4 4.64333 1.93262 6.91172
39 4 6.78572 2.61215 2.46118
40 4 6.89191 7.27176 6.2857
41 4 5.19074 6.75137 2.81231
42 4 8.54871 2.827 6.08479
43 4 1.72862 1.91383 1.4208
44 4 3.10266 8.07363 7.29663
45 1 4.55849 0.536988 12.2952
46 1 0.897376 9.16484 13.2693
47 1 2.98865 5.28637 9.00453
48 1 2.46179 4.30364 16.5536
49 2 3.49026 8.60529 11.7162
50 2 1.74549 1.06083 13.7318
51 2 4.0544 3.86107 9.72198
52 2 1.49202 5.98129 15.9918
53 2 2.12373 8.28239 11.9026
54 2 3.11516 1.24671 13.6471
55 2 5.28186 3.45593 9.24984
56 2 9.13961 6.38596 16.4061
57 2 2.91128 6.84014 10.3058
58 2 2.43091 2.92191 15.2383
59 2 4.49461 1.83182 10.793
60 2 0.797245 7.65604 14.547
61 5 5.765 0.63166 13.7583
62 5 8.44998 9.21801 11.9424
63 5 6.28556 5.66867 16.1581
64 5 8.08265 4.02527 9.48136
65 5 7.7985 0.338446 14.2288
66 5 6.3922 9.42326 11.295
67 5 4.25398 5.10032 15.6563
68 5 1.10035 4.60589 10.0395
69 3 3.92198 7.63675 10.7959
70 3 1.49611 1.99581 14.8173
71 3 3.56645 2.81315 10.5793
72 3 1.87397 6.94708 15.0237
73 3 1.88168 7.11705 11.165
74 3 3.36054 2.48315 14.3081
75 3 5.52512 2.27058 10.0478
76 3 8.77112 7.34523 15.5172
77 6 6.9201 0.335694 13.457
78 6 7.26436 9.26071 12.1301
79 6 5.16999 5.26268 16.4861
80 6 9.11663 4.54666 9.24197
81 4 4.74142 7.89176 10.2469
82 4 9.41682 2.00492 15.2237
83 4 2.75279 3.04973 11.331
84 4 2.61142 6.59008 14.2948
85 4 0.854318 6.83283 10.9912
86 4 4.34151 2.69664 14.511
87 4 6.51709 1.80958 9.78063
88 4 7.87971 7.83099 15.4771
89 1 8.6465 10.2096 3.76606
90 1 5.03819 18.8588 4.73239
91 1 7.09062 15.0376 0.535237
92 1 6.62306 13.9941 8.03975
93 2 7.74324 18.372 3.19094
94 2 6.0593 10.8257 5.3155
95 2 8.0616 13.3982 1.01551
96 2 5.50896 15.5793 7.33032
97 2 6.38608 18.0727 3.43639
98 2 7.35579 11.2056 4.96049
99 2 0.464788 13.0234 0.710585
100 2 4.34453 16.1693 7.80866
101 2 7.1301 16.5267 1.82931
102 2 6.67942 12.6184 6.61108
103 2 8.54551 11.6174 2.46531
104 2 5.02213 17.4328 6.09002
105 5 1.20348 10.4507 5.23563
106 5 3.65332 18.8319 3.22486
107 5 1.5125 15.2803 7.57076
108 5 3.25444 13.8783 0.981622
109 5 3.09724 10.0269 5.87187
110 5 1.57944 19.0501 2.73099
111 5 8.42045 14.8381 7.07055
112 5 5.22269 14.2803 1.49425
113 3 8.0752 17.4461 2.15383
114 3 5.71076 11.6691 6.33986
115 3 7.69333 12.5873 2.10258
116 3 5.89645 16.4138 6.33131
117 3 6.20658 16.8406 2.74332
118 3 7.73025 12.1917 5.83185
119 3 0.612523 11.9745 1.58025
120 3 3.9502 17.086 6.89442
121 6 2.30477 10.0981 4.9721
122 6 2.46897 19.2116 3.50642
123 6 0.431904 14.9855 7.82027
124 6 4.35761 14.2954 0.701698
125 4 0.220424 17.1838 2.06441
126 4 4.74418 12.0777 6.43593
127 4 6.6083 12.5749 2.39796
128 4 6.81961 16.5248 5.90014
129 4 5.18692 16.4573 2.90084
130 4 8.61218 12.9561 5.54005
131 4 1.44841 11.2347 1.42364
132 4 3.25274 17.9231 7.17593
133 1 4.44953 10.1945 12.2399
134 1 0.859552 18.8242 13.3619
135 1 2.8912 14.9767 9.08046
136 1 2.41762 14.0301 16.5154
137 2 3.43897 18.3287 11.7231
138 2 1.905 10.6897 13.9193
139 2 3.89592 13.4126 9.62814
140 2 1.47478 15.5481 15.964
141 2 2.06953 18.0168 12.0663
142 2 3.1986 11.0809 13.5501
143 2 5.1915 13.0703 9.22767
144 2 9.1776 15.9481 16.3881
145 2 3.00432 16.4561 10.3853
146 2 2.42533 12.6224 15.151
147 2 4.60579 11.701 11.0158
148 2 0.805897 17.4775 14.7498
149 5 5.98668 10.3205 13.7604
150 5 8.4693 18.7764 11.8095
151 5 6.2956 15.3844 16.1465
152 5 8.15145 13.8391 9.43444
153 5 7.98098 10.0484 14.2042
154 5 6.37762 18.9775 11.3486
155 5 4.40875 14.983 15.6404
156 5 1.21342 14.108 9.9841
157 3 3.97431 17.3084 10.8502
158 3 1.57545 11.5955 14.9277
159 3 3.60506 12.5184 10.623
160 3 1.7161 16.5467 14.9658
161 3 1.93276 16.951 11.1909
162 3 3.43902 12.1352 14.3494
163 3 5.46804 12.0197 10.0272
164 3 8.83052 17.056 15.6509
165 6 7.02912 9.85731 13.5278
166 6 7.30236 18.9763 12.0975
167 6 5.29882 14.7496 16.3744
168 6 9.15888 14.322 9.282
169 4 4.95481 17.3952 10.4283
170 4 0.571819 11.5609 15.3923
171 4 2.99185 12.9234 11.4998
172 4 2.72113 16.7042 14.6969
173 4 1.15619 16.2382 11.354
174 4 4.21994 12.944 14.1539
175 4 6.38471 11.5702 9.90599
176 4 7.76263 17.4784 15.7516
177 7 7.4157 13.3355 14.3623
178 8 6.99045 13.1514 15.1929
179 8 6.67008 13.4827 13.7677
180 7 6.91031 15.5688 12.5066
181 8 6.89544 16.4889 12.7338
182 8 7.84422 15.5397 12.2557
183 7 5.29177 4.88669 12.8701
184 8 4.38494 4.885 13.1386
185 8 5.55963 5.7574 12.5315
186 7 7.1671 5.76853 11.3605
187 8 7.65001 5.72578 12.1774
188 8 7.86875 6.11749 10.8114
189 7 2.87394 5.00042 4.4104
190 8 2.6184 5.89397 4.60776
191 8 2.48032 4.45706 3.72767
192 7 4.6366 2.88163 4.09851
193 8 4.79736 2.72663 3.16519
194 8 5.26569 3.5996 4.13076
ITEM: TIMESTEP
66
ITEM: NUMBER OF ATOMS
194
ITEM: BOX BOUNDS xy xz yz pp pp pp
-4.2372641256713806e-03 9.5490203824307258e+00 0.0000000000000000e+00
-9.2158040283223386e-03 1.9396214904028319e+01 6.3098291830504749e-01
-8.1109799057621501e-03 1.7070926079905739e+01 0.0000000000000000e+00
ITEM: ATOMS id type x y z
1 1 8.71936 0.509729 3.70658
2 1 4.96713 9.20639 4.78408
3 1 7.04087 5.40236 0.447546
4 1 6.61791 4.30561 8.05619
5 2 7.74377 8.67174 3.17089
6 2 6.19524 1.00909 5.44462
7 2 8.07309 3.74511 1.08966
8 2 5.63616 5.95439 7.41176
9 2 6.48254 8.21697 3.62517
10 2 7.35664 1.47554 4.90086
11 2 0.48141 3.43489 0.733861
12 2 4.3395 6.36023 7.85903
13 2 7.12113 6.75927 1.97307
14 2 6.56223 2.81245 6.73806
15 2 8.71483 1.91501 2.39179
16 2 4.91821 7.85499 6.08961
17 5 1.14283 0.77992 5.26731
18 5 3.67341 8.98257 3.28268
19 5 1.48721 5.70336 7.5268
20 5 3.17731 4.13992 1.10864
21 5 3.1749 0.311233 5.75479
22 5 1.6089 9.41702 2.80035
23 5 8.51965 5.02714 7.12483
24 5 5.17597 4.58653 1.49028
25 3 8.06894 7.71205 2.24744
26 3 5.66609 1.85818 6.49073
27 3 7.76545 2.85821 2.11035
28 3 5.9081 6.89905 6.38307
29 3 6.19658 7.09612 2.95028
30 3 7.57133 2.48074 5.75812
31 3 0.782013 2.3716 1.52383
32 3 3.98001 7.40458 7.06864
33 6 2.19226 0.373467 4.92769
34 6 2.56822 9.32636 3.57833
35 6 0.515931 5.2345 7.94845
36 6 4.24709 4.49449 0.702873
37 4 0.210988 7.42542 1.95307
38 4 4.6461 1.93338 6.91268
39 4 6.79146 2.60268 2.4598
40 4 6.8869 7.27847 6.289
41 4 5.19171 6.75117 2.81522
42 4 8.54901 2.83034 6.09047
43 4 1.72854 1.9145 1.4193
44 4 3.104 8.07441 7.30281
45 1 4.55913 0.536681 12.2956
46 1 0.89727 9.16505 13.2685
47 1 2.98908 5.28481 9.00382
48 1 2.46216 4.30381 16.554
49 2 3.4889 8.60422 11.715
50 2 1.74584 1.06092 13.731
51 2 4.05764 3.86192 9.72223
52 2 1.49112 5.98144 15.9924
53 2 2.12251 8.28405 11.9016
54 2 3.11358 1.24511 13.6485
55 2 5.28071 3.45733 9.25007
56 2 9.14032 6.38656 16.4065
57 2 2.91227 6.83904 10.3033
58 2 2.43009 2.92135 15.2374
59 2 4.49477 1.83006 10.7913
60 2 0.795793 7.65719 14.5448
61 5 5.76356 0.629711 13.7586
62 5 8.44962 9.2222 11.9421
63 5 6.28444 5.67044 16.1578
64 5 8.08478 4.02333 9.48108
65 5 7.79567 0.339009 14.2283
66 5 6.39413 9.42383 11.2956
67 5 4.25401 5.09982 15.6566
68 5 1.09963 4.60706 10.0398
69 3 3.91978 7.63499 10.7967
70 3 1.49617 1.99691 14.817
71 3 3.56817 2.81153 10.5788
72 3 1.87378 6.94901 15.0238
73 3 1.88085 7.11657 11.1636
74 3 3.35983 2.48202 14.3086
75 3 5.52433 2.26889 10.0488
76 3 8.77144 7.34535 15.5169
77 6 6.9197 0.334842 13.4546
78 6 7.26413 9.25905 12.1313
79 6 5.16757 5.26179 16.4922
80 6 9.11838 4.54767 9.24099
81 4 4.73801 7.89568 10.2543
82 4 9.41507 2.00848 15.2188
83 4 2.75393 3.04911 11.3342
84 4 2.61177 6.58412 14.2964
85 4 0.852584 6.83786 10.9844
86 4 4.33748 2.6936 14.517
87 4 6.51528 1.80649 9.77656
88 4 7.8839 7.83021 15.4736
89 1 8.64648 10.2092 3.76647
90 1 5.03824 18.8592 4.73152
91 1 7.09049 15.0368 0.535295
92 1 6.62365 13.9941 8.04018
93 2 7.74296 18.373 3.19123
94 2 6.06125 10.8252 5.31365
95 2 8.06075 13.398 1.01553
96 2 5.50637 15.5767 7.33114
97 2 6.3866 18.0733 3.4347
98 2 7.35695 11.2057 4.96023
99 2 0.464629 13.0224 0.710355
100 2 4.344 16.1698 7.80895
101 2 7.13061 16.5253 1.829
102 2 6.6804 12.6213 6.6116
103 2 8.54429 11.6144 2.467
104 2 5.02298 17.4354 6.08701
105 5 1.20422 10.4513 5.23619
106 5 3.65319 18.8347 3.22264
107 5 1.51115 15.2803 7.57002
108 5 3.25479 13.8793 0.982413
109 5 3.09564 10.0267 5.87255
110 5 1.58077 19.0499 2.7311
111 5 8.42194 14.8378 7.07202
112 5 5.22211 14.2812 1.49455
113 3 8.07539 17.4462 2.15295
114 3 5.71206 11.6708 6.34035
115 3 7.69316 12.5878 2.10229
116 3 5.89554 16.4147 6.32766
117 3 6.2086 16.8417 2.74287
118 3 7.731 12.191 5.83223
119 3 0.611191 11.974 1.58049
120 3 3.94927 17.0867 6.89366
121 6 2.30621 10.0983 4.97045
122 6 2.46666 19.2149 3.50829
123 6 0.431265 14.9872 7.82072
124 6 4.35885 14.2969 0.699877
125 4 0.222508 17.1827 2.07154
126 4 4.74987 12.0856 6.43101
127 4 6.60291 12.5794 2.3894
128 4 6.81455 16.5301 5.8968
129 4 5.18723 16.4641 2.9036
130 4 8.61556 12.961 5.53445
131 4 1.44755 11.2305 1.42125
132 4 3.25615 17.9289 7.18013
133 1 4.44877 10.1938 12.2396
134 1 0.858755 18.8241 13.3624
135 1 2.89016 14.9751 9.08078
136 1 2.41747 14.0306 16.515
137 2 3.43914 18.3283 11.7223
138 2 1.90553 10.6879 13.9203
139 2 3.89481 13.4141 9.62818
140 2 1.47311 15.5456 15.9662
141 2 2.06844 18.0166 12.0652
142 2 3.19929 11.0798 13.5501
143 2 5.19266 13.0704 9.2262
144 2 9.1785 15.9469 16.3888
145 2 3.00395 16.4546 10.3859
146 2 2.42576 12.6254 15.1521
147 2 4.60735 11.6989 11.0184
148 2 0.806146 17.4797 14.7497
149 5 5.98715 10.3192 13.761
150 5 8.46841 18.7788 11.809
151 5 6.29587 15.3866 16.1473
152 5 8.15417 13.8392 9.43449
153 5 7.98118 10.0489 14.2027
154 5 6.37912 18.9758 11.3495
155 5 4.40967 14.9848 15.6409
156 5 1.21387 14.1066 9.98251
157 3 3.97179 17.3081 10.8533
158 3 1.5762 11.5943 14.928
159 3 3.60457 12.5176 10.6237
160 3 1.71581 16.5487 14.9637
161 3 1.93346 16.952 11.1896
162 3 3.43935 12.1343 14.3492
163 3 5.46822 12.0185 10.027
164 3 8.82962 17.0563 15.653
165 6 7.02961 9.85458 13.5279
166 6 7.30211 18.9758 12.0986
167 6 5.29926 14.7474 16.3762
168 6 9.16003 14.3236 9.28217
169 4 4.95363 17.3999 10.438
170 4 0.566654 11.5544 15.386
171 4 2.99318 12.9301 11.5036
172 4 2.72001 16.7098 14.698
173 4 1.1592 16.2369 11.351
174 4 4.21842 12.9486 14.1508
175 4 6.38348 11.572 9.90612
176 4 7.75725 17.4783 15.7583
177 7 7.41734 13.3345 14.3627
178 8 6.9994 13.1556 15.1927
179 8 6.67244 13.4955 13.7701
180 7 6.91031 15.5688 12.5072
181 8 6.89386 16.484 12.7328
182 8 7.84684 15.5432 12.2498
183 7 5.2907 4.88613 12.8694
184 8 4.38519 4.88038 13.145
185 8 5.55657 5.75027 12.5138
186 7 7.16799 5.77065 11.3622
187 8 7.64753 5.72529 12.177
188 8 7.87384 6.11297 10.8143
189 7 2.87143 5.00331 4.40857
190 8 2.61268 5.89667 4.61421
191 8 2.48967 4.45058 3.72235
192 7 4.6359 2.88207 4.09556
193 8 4.80433 2.72509 3.16292
194 8 5.26592 3.60378 4.12505
ITEM: TIMESTEP
67
ITEM: NUMBER OF ATOMS
194
ITEM: BOX BOUNDS xy xz yz pp pp pp
-4.3071325024577334e-03 9.5491001329852345e+00 0.0000000000000000e+00
-9.3677637006823744e-03 1.9396366863700681e+01 6.3099280048277107e-01
-8.2447220996293424e-03 1.7071059822099606e+01 0.0000000000000000e+00
ITEM: ATOMS id type x y z
1 1 8.72044 0.509272 3.706
2 1 4.9662 9.20735 4.78406
3 1 7.03996 5.40243 0.446587
4 1 6.61861 4.30571 8.05701
5 2 7.74491 8.67295 3.172
6 2 6.1986 1.00595 5.44488
7 2 8.07235 3.74654 1.08899
8 2 5.63572 5.95484 7.4117
9 2 6.48249 8.21723 3.62671
10 2 7.355 1.47386 4.90098
11 2 0.482639 3.43546 0.733785
12 2 4.33891 6.36293 7.85761
13 2 7.12238 6.7562 1.97307
14 2 6.56105 2.81272 6.74044
15 2 8.71412 1.91364 2.39249
16 2 4.91714 7.85735 6.09005
17 5 1.14372 0.780362 5.26834
18 5 3.67253 8.98317 3.28187
19 5 1.48692 5.70557 7.52618
20 5 3.17776 4.14078 1.11036
21 5 3.1739 0.311236 5.75465
22 5 1.61092 9.41722 2.80129
23 5 8.52024 5.02504 7.12468
24 5 5.17413 4.58742 1.48994
25 3 8.06872 7.71123 2.24783
26 3 5.66959 1.85687 6.49231
27 3 7.76796 2.85645 2.11075
28 3 5.9059 6.901 6.38252
29 3 6.19784 7.09531 2.95307
30 3 7.57284 2.48232 5.75875
31 3 0.782789 2.37145 1.52416
32 3 3.98146 7.40339 7.06968
33 6 2.19187 0.373174 4.92387
34 6 2.56825 9.32693 3.58043
35 6 0.51555 5.23426 7.95237
36 6 4.24674 4.49494 0.702004
37 4 0.213364 7.4228 1.95727
38 4 4.64903 1.93388 6.91344
39 4 6.79686 2.59344 2.45829
40 4 6.88234 7.28509 6.29224
41 4 5.19247 6.75093 2.81832
42 4 8.54945 2.83354 6.09571
43 4 1.72873 1.9149 1.41785
44 4 3.10566 8.07479 7.30904
45 1 4.55975 0.536374 12.2959
46 1 0.897158 9.16525 13.2677
47 1 2.98951 5.28327 9.00311
48 1 2.46253 4.304 16.5545
49 2 3.4875 8.6031 11.7137
50 2 1.74625 1.06108 13.7303
51 2 4.06083 3.8627 9.7225
52 2 1.4902 5.98165 15.993
53 2 2.12133 8.28569 11.9006
54 2 3.11199 1.2436 13.6498
55 2 5.27955 3.45864 9.25037
56 2 9.14102 6.38713 16.4068
57 2 2.91327 6.83792 10.3009
58 2 2.42928 2.92075 15.2365
59 2 4.49492 1.82829 10.7896
60 2 0.794357 7.65837 14.5426
61 5 5.76215 0.627755 13.7589
62 5 8.44928 9.2264 11.9419
63 5 6.28328 5.67221 16.1576
64 5 8.08687 4.02137 9.48079
65 5 7.7929 0.339587 14.2279
66 5 6.39606 9.42439 11.2962
67 5 4.25407 5.09934 15.6569
68 5 1.09893 4.60825 10.0401
69 3 3.9175 7.63328 10.7974
70 3 1.49619 1.99795 14.8167
71 3 3.56991 2.81 10.5783
72 3 1.87356 6.95085 15.0239
73 3 1.88005 7.11616 11.1622
74 3 3.35909 2.48085 14.3092
75 3 5.52361 2.26733 10.0497
76 3 8.77186 7.34548 15.5166
77 6 6.91926 0.333969 13.4522
78 6 7.26391 9.2574 12.1326
79 6 5.16507 5.26089 16.4983
80 6 9.12024 4.54871 9.24006
81 4 4.73525 7.89959 10.261
82 4 9.41325 2.01222 15.2139
83 4 2.75544 3.04825 11.3369
84 4 2.61211 6.57834 14.2981
85 4 0.850849 6.8429 10.9774
86 4 4.3342 2.69077 14.523
87 4 6.51292 1.80312 9.77288
88 4 7.88722 7.82967 15.4702
89 1 8.64646 10.2088 3.76688
90 1 5.0383 18.8596 4.73065
91 1 7.09036 15.0361 0.535356
92 1 6.62423 13.9942 8.04061
93 2 7.74264 18.374 3.19147
94 2 6.06322 10.8248 5.31182
95 2 8.05994 13.3977 1.01562
96 2 5.50379 15.5741 7.33194
97 2 6.38719 18.0739 3.43299
98 2 7.35809 11.2058 4.96
99 2 0.464394 13.0215 0.710156
100 2 4.34343 16.1702 7.80925
101 2 7.13113 16.5238 1.8287
102 2 6.68137 12.6241 6.6121
103 2 8.54309 11.6114 2.46864
104 2 5.02381 17.4379 6.084
105 5 1.20492 10.4519 5.23676
106 5 3.653 18.8375 3.22044
107 5 1.50988 15.2803 7.56923
108 5 3.25513 13.8803 0.983205
109 5 3.0941 10.0266 5.87321
110 5 1.58207 19.0498 2.73122
111 5 8.42341 14.8374 7.07347
112 5 5.2216 14.2822 1.49488
113 3 8.07561 17.4463 2.15214
114 3 5.71343 11.6725 6.34083
115 3 7.69292 12.5883 2.10198
116 3 5.89456 16.4157 6.32402
117 3 6.21054 16.8429 2.74251
118 3 7.73178 12.1903 5.83258
119 3 0.609935 11.9734 1.58073
120 3 3.94838 17.0875 6.8929
121 6 2.30767 10.0984 4.96878
122 6 2.4645 19.2182 3.51014
123 6 0.43053 14.9889 7.82131
124 6 4.36002 14.2984 0.698069
125 4 0.224359 17.1816 2.07854
126 4 4.75504 12.0933 6.42604
127 4 6.59802 12.5838 2.38083
128 4 6.81032 16.5351 5.89336
129 4 5.18775 16.4705 2.9059
130 4 8.61792 12.9649 5.52916
131 4 1.44637 11.2268 1.41881
132 4 3.25979 17.9341 7.18441
133 1 4.44802 10.1931 12.2393
134 1 0.857947 18.8239 13.3628
135 1 2.88913 14.9735 9.08109
136 1 2.41733 14.0311 16.5147
137 2 3.43928 18.3278 11.7215
138 2 1.90609 10.6861 13.9213
139 2 3.89376 13.4156 9.62822
140 2 1.47145 15.5432 15.9683
141 2 2.06749 18.0162 12.0641
142 2 3.19992 11.0786 13.55
143 2 5.19378 13.0704 9.22476
144 2 9.17935 15.9457 16.3895
145 2 3.00354 16.4531 10.3867
146 2 2.42621 12.6283 15.1532
147 2 4.60889 11.6967 11.0209
148 2 0.806391 17.482 14.7496
149 5 5.98755 10.3179 13.7616
150 5 8.46752 18.7811 11.8085
151 5 6.29616 15.3888 16.1482
152 5 8.15679 13.8392 9.43459
153 5 7.98142 10.0495 14.2013
154 5 6.38059 18.9741 11.3504
155 5 4.4105 14.9865 15.6414
156 5 1.21433 14.1052 9.98091
157 3 3.96918 17.3079 10.8564
158 3 1.57689 11.5929 14.9283
159 3 3.60403 12.5168 10.6246
160 3 1.71555 16.5506 14.9616
161 3 1.93419 16.953 11.1883
162 3 3.43972 12.1335 14.349
163 3 5.4684 12.0173 10.0268
164 3 8.82864 17.0565 15.6552
165 6 7.03011 9.8518 13.5279
166 6 7.30184 18.9754 12.0997
167 6 5.29975 14.7452 16.3779
168 6 9.16131 14.3253 9.28224
169 4 4.95253 17.4046 10.4476
170 4 0.561721 11.548 15.3796
171 4 2.9947 12.9365 11.5068
172 4 2.71926 16.7156 14.6988
173 4 1.16192 16.2357 11.348
174 4 4.21663 12.9525 14.1476
175 4 6.38289 11.5734 9.90634
176 4 7.75267 17.4781 15.7649
177 7 7.41897 13.3335 14.3632
178 8 7.00825 13.1597 15.1928
179 8 6.67498 13.5085 13.7725
180 7 6.91033 15.5688 12.5078
181 8 6.89199 16.4795 12.7319
182 8 7.84925 15.5463 12.2439
183 7 5.28965 4.88558 12.8687
184 8 4.3853 4.876 13.1514
185 8 5.55324 5.74287 12.4961
186 7 7.16887 5.77279 11.3639
187 8 7.64505 5.72465 12.1769
188 8 7.87884 6.10846 10.817
189 7 2.86896 5.0062 4.40676
190 8 2.60658 5.89926 4.62031
191 8 2.49888 4.44456 3.71705
192 7 4.6352 2.88253 4.09256
193 8 4.81101 2.72329 3.16053
194 8 5.26609 3.60817 4.11975
ITEM: TIMESTEP
68
ITEM: NUMBER OF ATOMS
194
ITEM: BOX BOUNDS xy xz yz pp pp pp
-4.3730953994707278e-03 9.5491754256692190e+00 0.0000000000000000e+00
-9.5112291807595284e-03 1.9396510329180757e+01 6.3100213026974228e-01
-8.3709884158960080e-03 1.7071186088415871e+01 0.0000000000000000e+00
ITEM: ATOMS id type x y z
1 1 8.72151 0.508827 3.70543
2 1 4.96527 9.20832 4.78404
3 1 7.03905 5.40249 0.445641
4 1 6.61931 4.30582 8.05783
5 2 7.74601 8.67412 3.17315
6 2 6.20186 1.0028 5.44519
7 2 8.07164 3.74797 1.08832
8 2 5.63522 5.95537 7.41161
9 2 6.48246 8.21753 3.62824
10 2 7.35338 1.47217 4.90116
11 2 0.483827 3.43604 0.733748
12 2 4.33837 6.36559 7.85615
13 2 7.12362 6.75315 1.97312
14 2 6.55992 2.813 6.74277
15 2 8.71342 1.91229 2.39314
16 2 4.91607 7.85966 6.0906
17 5 1.14455 0.780819 5.26938
18 5 3.67168 8.98376 3.28106
19 5 1.48674 5.7078 7.5256
20 5 3.17817 4.14164 1.11206
21 5 3.17284 0.31125 5.75443
22 5 1.61295 9.4174 2.80225
23 5 8.52084 5.02294 7.12455
24 5 5.1723 4.5883 1.48959
25 3 8.06855 7.71038 2.24819
26 3 5.67314 1.85552 6.49384
27 3 7.7705 2.85468 2.11115
28 3 5.90364 6.90296 6.382
29 3 6.19912 7.09448 2.95578
30 3 7.5743 2.48399 5.75952
31 3 0.783535 2.3713 1.52452
32 3 3.98291 7.40228 7.07063
33 6 2.19166 0.372868 4.92016
34 6 2.56819 9.32756 3.58256
35 6 0.514948 5.23399 7.95613
36 6 4.2465 4.49541 0.70123
37 4 0.215226 7.4206 1.96171
38 4 4.65211 1.93411 6.91399
39 4 6.80191 2.58442 2.45667
40 4 6.87822 7.29163 6.29544
41 4 5.19301 6.75065 2.82161
42 4 8.55005 2.83657 6.10048
43 4 1.72921 1.91504 1.41645
44 4 3.10766 8.07476 7.31531
45 1 4.56037 0.536069 12.2962
46 1 0.897041 9.16545 13.2669
47 1 2.98994 5.28174 9.0024
48 1 2.4629 4.30419 16.5549
49 2 3.48605 8.60192 11.7123
50 2 1.74669 1.06131 13.7297
51 2 4.06397 3.86343 9.72279
52 2 1.48925 5.9819 15.9936
53 2 2.12021 8.28732 11.8997
54 2 3.1104 1.24218 13.6512
55 2 5.27839 3.45985 9.25074
56 2 9.14169 6.38769 16.407
57 2 2.91427 6.83677 10.2984
58 2 2.42848 2.9201 15.2355
59 2 4.49507 1.82651 10.7879
60 2 0.792939 7.65956 14.5404
61 5 5.76075 0.62579 13.7592
62 5 8.44895 9.2306 11.9415
63 5 6.28211 5.67397 16.1574
64 5 8.08893 4.01939 9.4805
65 5 7.79019 0.340178 14.2276
66 5 6.39797 9.42495 11.2968
67 5 4.25416 5.09887 15.6572
68 5 1.09825 4.60944 10.0404
69 3 3.91515 7.63162 10.7983
70 3 1.49617 1.99893 14.8164
71 3 3.57168 2.80856 10.5778
72 3 1.87332 6.95261 15.024
73 3 1.87928 7.11582 11.1609
74 3 3.35831 2.47961 14.3097
75 3 5.52294 2.26592 10.0505
76 3 8.77238 7.34562 15.5162
77 6 6.91878 0.333079 13.4496
78 6 7.26368 9.25576 12.1339
79 6 5.16251 5.25998 16.5042
80 6 9.1222 4.54977 9.23919
81 4 4.73316 7.90349 10.2672
82 4 9.41137 2.01614 15.2091
83 4 2.75735 3.04713 11.3393
84 4 2.61241 6.57278 14.2998
85 4 0.849121 6.84794 10.9703
86 4 4.33167 2.68813 14.5292
87 4 6.50999 1.79946 9.76958
88 4 7.88965 7.82939 15.4671
89 1 8.64645 10.2084 3.76731
90 1 5.03835 18.8599 4.72978
91 1 7.09023 15.0354 0.535421
92 1 6.62482 13.9943 8.04104
93 2 7.74227 18.3749 3.19166
94 2 6.06519 10.8243 5.31003
95 2 8.05917 13.3974 1.01576
96 2 5.50122 15.5715 7.33273
97 2 6.38783 18.0745 3.43125
98 2 7.35924 11.2058 4.95978
99 2 0.464083 13.0205 0.709991
100 2 4.34283 16.1706 7.80955
101 2 7.13167 16.5223 1.82842
102 2 6.68234 12.627 6.6126
103 2 8.54189 11.6084 2.47024
104 2 5.0246 17.4404 6.08101
105 5 1.20559 10.4526 5.23734
106 5 3.65273 18.8403 3.21825
107 5 1.5087 15.2803 7.56839
108 5 3.25546 13.8813 0.983999
109 5 3.0926 10.0264 5.87385
110 5 1.58332 19.0496 2.73134
111 5 8.42487 14.837 7.07489
112 5 5.22114 14.2832 1.49524
113 3 8.07585 17.4466 2.15139
114 3 5.71487 11.6743 6.34131
115 3 7.6926 12.5888 2.10165
116 3 5.8935 16.4167 6.3204
117 3 6.21241 16.8443 2.74222
118 3 7.73262 12.1898 5.8329
119 3 0.608759 11.9728 1.58098
120 3 3.94753 17.0883 6.89214
121 6 2.30914 10.0985 4.96709
122 6 2.4625 19.2214 3.51197
123 6 0.429703 14.9905 7.82204
124 6 4.36114 14.2999 0.696281
125 4 0.225957 17.1804 2.0854
126 4 4.75965 12.1009 6.421
127 4 6.59368 12.588 2.37226
128 4 6.80695 16.5398 5.88981
129 4 5.18846 16.4767 2.90775
130 4 8.61922 12.9679 5.5242
131 4 1.44485 11.2237 1.41631
132 4 3.26367 17.9388 7.18875
133 1 4.44728 10.1923 12.239
134 1 0.857129 18.8238 13.3633
135 1 2.88811 14.9719 9.08139
136 1 2.41719 14.0315 16.5144
137 2 3.4394 18.3273 11.7207
138 2 1.90671 10.6844 13.9223
139 2 3.89278 13.4172 9.62828
140 2 1.46981 15.541 15.9704
141 2 2.06669 18.0159 12.063
142 2 3.20051 11.0774 13.5499
143 2 5.19487 13.0705 9.22336
144 2 9.18012 15.9445 16.3902
145 2 3.00311 16.4516 10.3874
146 2 2.42669 12.6313 15.1542
147 2 4.6104 11.6946 11.0234
148 2 0.806628 17.4844 14.7495
149 5 5.98787 10.3166 13.7623
150 5 8.46662 18.7834 11.808
151 5 6.29647 15.391 16.149
152 5 8.1593 13.8392 9.43474
153 5 7.98172 10.05 14.1999
154 5 6.38203 18.9724 11.3512
155 5 4.41127 14.9881 15.6419
156 5 1.21479 14.1038 9.97931
157 3 3.9665 17.3078 10.8596
158 3 1.57753 11.5916 14.9286
159 3 3.60343 12.516 10.6255
160 3 1.71534 16.5524 14.9596
161 3 1.93493 16.9539 11.187
162 3 3.44013 12.1328 14.3488
163 3 5.46858 12.0161 10.0266
164 3 8.82756 17.0568 15.6573
165 6 7.03061 9.84899 13.5278
166 6 7.30155 18.975 12.1009
167 6 5.30028 14.743 16.3796
168 6 9.16271 14.327 9.28223
169 4 4.95153 17.409 10.457
170 4 0.557056 11.5417 15.373
171 4 2.99645 12.9427 11.5093
172 4 2.71888 16.7215 14.6994
173 4 1.16433 16.2344 11.3451
174 4 4.21456 12.9556 14.1442
175 4 6.38296 11.5745 9.90665
176 4 7.74893 17.4777 15.7714
177 7 7.42061 13.3324 14.3635
178 8 7.01696 13.1637 15.1932
179 8 6.67771 13.5216 13.775
180 7 6.91037 15.5687 12.5084
181 8 6.88984 16.4754 12.7312
182 8 7.85139 15.5492 12.238
183 7 5.28862 4.88502 12.8679
184 8 4.38531 4.87185 13.1578
185 8 5.54964 5.73522 12.4785
186 7 7.16976 5.77495 11.3656
187 8 7.64259 5.72384 12.1773
188 8 7.88374 6.10395 10.8194
189 7 2.86651 5.00908 4.40498
190 8 2.60009 5.90171 4.62603
191 8 2.50796 4.43904 3.71181
192 7 4.6345 2.88301 4.08953
193 8 4.81741 2.72123 3.15803
194 8 5.26614 3.61271 4.11486
ITEM: TIMESTEP
69
ITEM: NUMBER OF ATOMS
194
ITEM: BOX BOUNDS xy xz yz pp pp pp
-4.4348363900219567e-03 9.5492458993006242e+00 0.0000000000000000e+00
-9.6455122588405828e-03 1.9396644612258839e+01 6.3101086291059538e-01
-8.4891731499308065e-03 1.7071304273149906e+01 0.0000000000000000e+00
ITEM: ATOMS id type x y z
1 1 8.72258 0.508396 3.70486
2 1 4.96434 9.20928 4.78403
3 1 7.03815 5.40256 0.44471
4 1 6.62001 4.30593 8.05865
5 2 7.74706 8.67522 3.17433
6 2 6.20501 0.999644 5.44555
7 2 8.07096 3.7494 1.08766
8 2 5.63464 5.95597 7.4115
9 2 6.48244 8.21789 3.62976
10 2 7.35179 1.47048 4.90139
11 2 0.484972 3.43664 0.733749
12 2 4.33788 6.36819 7.85466
13 2 7.12485 6.7501 1.97323
14 2 6.55887 2.8133 6.74504
15 2 8.71275 1.91097 2.39375
16 2 4.91502 7.8619 6.09126
17 5 1.14533 0.781291 5.2704
18 5 3.67085 8.98435 3.28023
19 5 1.48664 5.71004 7.52505
20 5 3.17855 4.14251 1.11373
21 5 3.17172 0.311277 5.75414
22 5 1.61501 9.41756 2.80322
23 5 8.52147 5.02086 7.12446
24 5 5.17047 4.5892 1.48924
25 3 8.06843 7.7095 2.24851
26 3 5.67674 1.85414 6.49529
27 3 7.77305 2.8529 2.11155
28 3 5.90134 6.90492 6.38151
29 3 6.20042 7.09363 2.95841
30 3 7.57571 2.48575 5.76041
31 3 0.784247 2.37116 1.52491
32 3 3.98436 7.40127 7.07151
33 6 2.19163 0.372552 4.91656
34 6 2.56804 9.32824 3.58473
35 6 0.514129 5.23368 7.95973
36 6 4.24637 4.49589 0.700558
37 4 0.216558 7.41882 1.9664
38 4 4.65534 1.93407 6.91433
39 4 6.80657 2.57564 2.45492
40 4 6.87456 7.29807 6.29857
41 4 5.19334 6.75033 2.82511
42 4 8.5508 2.83943 6.10478
43 4 1.72997 1.91491 1.4151
44 4 3.11003 8.07431 7.32161
45 1 4.56099 0.535767 12.2965
46 1 0.896919 9.16564 13.2661
47 1 2.99037 5.28022 9.00169
48 1 2.46327 4.30439 16.5553
49 2 3.48454 8.60067 11.7109
50 2 1.74718 1.06161 13.7292
51 2 4.06706 3.8641 9.72311
52 2 1.48829 5.9822 15.994
53 2 2.11913 8.28892 11.8987
54 2 3.10881 1.24086 13.6526
55 2 5.27724 3.46095 9.25119
56 2 9.14235 6.38822 16.4072
57 2 2.91527 6.8356 10.296
58 2 2.42767 2.91942 15.2344
59 2 4.49521 1.82472 10.7863
60 2 0.791541 7.66076 14.5383
61 5 5.75938 0.623818 13.7594
62 5 8.44863 9.23481 11.941
63 5 6.2809 5.67573 16.1571
64 5 8.09095 4.01738 9.48019
65 5 7.78755 0.340784 14.2272
66 5 6.39986 9.42551 11.2973
67 5 4.25427 5.09842 15.6576
68 5 1.0976 4.61063 10.0407
69 3 3.91272 7.63001 10.7992
70 3 1.49612 1.99984 14.8159
71 3 3.57346 2.80723 10.5773
72 3 1.87305 6.95428 15.0241
73 3 1.87854 7.11555 11.1595
74 3 3.35748 2.47833 14.3102
75 3 5.52234 2.26466 10.0511
76 3 8.77301 7.34578 15.5158
77 6 6.91827 0.332175 13.4471
78 6 7.26345 9.25413 12.1353
79 6 5.15988 5.25908 16.51
80 6 9.12425 4.55085 9.23838
81 4 4.73176 7.90738 10.2729
82 4 9.40943 2.02025 15.2043
83 4 2.75965 3.04576 11.3412
84 4 2.61266 6.56744 14.3017
85 4 0.847405 6.85299 10.963
86 4 4.32992 2.68568 14.5355
87 4 6.5065 1.79551 9.76667
88 4 7.89115 7.82937 15.4642
89 1 8.64643 10.2081 3.76775
90 1 5.03841 18.8603 4.72892
91 1 7.0901 15.0346 0.535489
92 1 6.6254 13.9943 8.04146
93 2 7.74186 18.3758 3.19178
94 2 6.06716 10.8238 5.30827
95 2 8.05845 13.397 1.01597
96 2 5.49867 15.569 7.33349
97 2 6.38853 18.0749 3.42948
98 2 7.36038 11.2058 4.95958
99 2 0.463693 13.0196 0.709859
100 2 4.34219 16.1708 7.80985
101 2 7.13223 16.5208 1.82816
102 2 6.6833 12.6298 6.61307
103 2 8.54071 11.6054 2.47178
104 2 5.02535 17.4428 6.07803
105 5 1.20621 10.4533 5.23791
106 5 3.65239 18.8432 3.21608
107 5 1.5076 15.2804 7.56751
108 5 3.25578 13.8822 0.984794
109 5 3.09116 10.0262 5.87447
110 5 1.58452 19.0495 2.73146
111 5 8.42632 14.8367 7.07629
112 5 5.22074 14.2842 1.49564
113 3 8.07612 17.4468 2.1507
114 3 5.71638 11.6761 6.34177
115 3 7.6922 12.5894 2.1013
116 3 5.89235 16.4178 6.3168
117 3 6.2142 16.8457 2.74202
118 3 7.73351 12.1893 5.83319
119 3 0.607662 11.9721 1.58125
120 3 3.94673 17.0892 6.89137
121 6 2.31062 10.0986 4.9654
122 6 2.46066 19.2245 3.51377
123 6 0.428784 14.992 7.8229
124 6 4.36218 14.3013 0.694521
125 4 0.227287 17.1793 2.09213
126 4 4.76371 12.1083 6.4159
127 4 6.58991 12.592 2.36371
128 4 6.80445 16.5442 5.88614
129 4 5.18938 16.4825 2.90912
130 4 8.61942 12.9698 5.51961
131 4 1.44298 11.2211 1.41378
132 4 3.26778 17.9429 7.19314
133 1 4.44655 10.1916 12.2387
134 1 0.856302 18.8237 13.3637
135 1 2.88708 14.9704 9.08169
136 1 2.41707 14.032 16.514
137 2 3.43948 18.3267 11.7199
138 2 1.90737 10.6826 13.9234
139 2 3.89186 13.4187 9.62835
140 2 1.46819 15.5387 15.9723
141 2 2.06603 18.0155 12.0617
142 2 3.20104 11.0762 13.5498
143 2 5.19592 13.0706 9.22199
144 2 9.18083 15.9433 16.3908
145 2 3.00265 16.4502 10.3883
146 2 2.42718 12.6341 15.1552
147 2 4.61188 11.6924 11.0259
148 2 0.806854 17.4867 14.7493
149 5 5.98813 10.3154 13.763
150 5 8.46572 18.7858 11.8074
151 5 6.2968 15.3932 16.1499
152 5 8.1617 13.8391 9.43494
153 5 7.98207 10.0506 14.1985
154 5 6.38345 18.9707 11.352
155 5 4.41195 14.9898 15.6424
156 5 1.21526 14.1024 9.9777
157 3 3.96373 17.3077 10.8627
158 3 1.57812 11.5903 14.9289
159 3 3.60279 12.5153 10.6265
160 3 1.71516 16.554 14.9576
161 3 1.9357 16.9547 11.1856
162 3 3.44058 12.1323 14.3487
163 3 5.46875 12.0149 10.0264
164 3 8.8264 17.057 15.6595
165 6 7.03111 9.84613 13.5277
166 6 7.30125 18.9746 12.1022
167 6 5.30086 14.7409 16.3813
168 6 9.16423 14.3289 9.28212
169 4 4.95062 17.4133 10.4662
170 4 0.552691 11.5356 15.3663
171 4 2.99843 12.9485 11.5111
172 4 2.71888 16.7276 14.6998
173 4 1.16644 16.2332 11.3423
174 4 4.2122 12.9579 14.1406
175 4 6.38369 11.5752 9.90704
176 4 7.74606 17.4772 15.7778
177 7 7.42226 13.3314 14.3639
178 8 7.02547 13.1677 15.1939
179 8 6.68063 13.5347 13.7775
180 7 6.91045 15.5686 12.5089
181 8 6.88739 16.4719 12.7308
182 8 7.85319 15.5518 12.2321
183 7 5.2876 4.88447 12.8672
184 8 4.38524 4.86795 13.1644
185 8 5.54574 5.72733 12.4609
186 7 7.17065 5.77714 11.3673
187 8 7.6402 5.72285 12.1781
188 8 7.88854 6.09945 10.8216
189 7 2.8641 5.01194 4.40322
190 8 2.59323 5.90395 4.63135
191 8 2.51693 4.43408 3.70668
192 7 4.63382 2.88351 4.08646
193 8 4.82351 2.7189 3.15546
194 8 5.26602 3.61736 4.11039
ITEM: TIMESTEP
70
ITEM: NUMBER OF ATOMS
194
ITEM: BOX BOUNDS xy xz yz pp pp pp
-4.4920581776084489e-03 9.5493112145333523e+00 0.0000000000000000e+00
-9.7699663322501351e-03 1.9396769066332247e+01 6.3101895635573624e-01
-8.5987072161408662e-03 1.7071413807216118e+01 0.0000000000000000e+00
ITEM: ATOMS id type x y z
1 1 8.72365 0.507978 3.7043
2 1 4.96342 9.21025 4.78403
3 1 7.03724 5.40264 0.443793
4 1 6.62071 4.30605 8.05948
5 2 7.74805 8.67627 3.17554
6 2 6.20805 0.996493 5.44596
7 2 8.07032 3.75082 1.08701
8 2 5.634 5.95665 7.41136
9 2 6.48244 8.21829 3.63127
10 2 7.35023 1.46879 4.90168
11 2 0.486071 3.43724 0.733789
12 2 4.33745 6.37075 7.85315
13 2 7.12607 6.74707 1.97339
14 2 6.55789 2.81362 6.74726
15 2 8.71211 1.90968 2.39433
16 2 4.91397 7.86409 6.09203
17 5 1.14606 0.781778 5.27142
18 5 3.67005 8.98492 3.27941
19 5 1.48662 5.71231 7.52453
20 5 3.17889 4.14339 1.11538
21 5 3.17055 0.311316 5.75378
22 5 1.61708 9.41771 2.80421
23 5 8.52211 5.0188 7.1244
24 5 5.16866 4.59009 1.48889
25 3 8.06836 7.7086 2.24879
26 3 5.6804 1.85273 6.49668
27 3 7.77563 2.85111 2.11195
28 3 5.89899 6.90687 6.38104
29 3 6.20174 7.09276 2.96096
30 3 7.57707 2.48759 5.76143
31 3 0.784926 2.37101 1.52533
32 3 3.9858 7.40035 7.0723
33 6 2.19177 0.372229 4.9131
34 6 2.5678 9.32898 3.58692
35 6 0.513095 5.23334 7.96315
36 6 4.24633 4.49638 0.699991
37 4 0.21735 7.41745 1.97133
38 4 4.65873 1.93375 6.91445
39 4 6.81085 2.56709 2.45304
40 4 6.87136 7.30442 6.30166
41 4 5.19347 6.74997 2.82881
42 4 8.55169 2.8421 6.10858
43 4 1.73101 1.91449 1.41381
44 4 3.11275 8.07344 7.32792
45 1 4.56161 0.535467 12.2969
46 1 0.896792 9.16584 13.2652
47 1 2.9908 5.27872 9.00098
48 1 2.46365 4.30461 16.5558
49 2 3.48299 8.59937 11.7095
50 2 1.74771 1.06198 13.7288
51 2 4.07007 3.86471 9.72345
52 2 1.4873 5.98255 15.9945
53 2 2.1181 8.2905 11.8977
54 2 3.10722 1.23964 13.6539
55 2 5.27609 3.46195 9.2517
56 2 9.14298 6.38873 16.4074
57 2 2.91626 6.8344 10.2936
58 2 2.42688 2.91869 15.2332
59 2 4.49535 1.82292 10.7847
60 2 0.790165 7.66198 14.5363
61 5 5.75803 0.621839 13.7597
62 5 8.44833 9.23902 11.9405
63 5 6.27965 5.67748 16.1569
64 5 8.09294 4.01536 9.47987
65 5 7.78496 0.341406 14.227
66 5 6.40174 9.42607 11.2979
67 5 4.25441 5.09798 15.658
68 5 1.09698 4.61183 10.041
69 3 3.91021 7.62846 10.8001
70 3 1.49603 2.00068 14.8155
71 3 3.57527 2.80599 10.5767
72 3 1.87276 6.95587 15.0242
73 3 1.87783 7.11535 11.1582
74 3 3.35661 2.47699 14.3108
75 3 5.52179 2.26355 10.0516
76 3 8.77375 7.34595 15.5153
77 6 6.91771 0.331259 13.4445
78 6 7.26322 9.25251 12.1368
79 6 5.15719 5.25819 16.5156
80 6 9.12639 4.55193 9.23764
81 4 4.73105 7.91124 10.2779
82 4 9.40743 2.02454 15.1995
83 4 2.76238 3.04415 11.3426
84 4 2.61284 6.56236 14.3037
85 4 0.845711 6.85804 10.9557
86 4 4.32895 2.68342 14.5419
87 4 6.50245 1.79127 9.76414
88 4 7.89173 7.82962 15.4615
89 1 8.64642 10.2077 3.76819
90 1 5.03846 18.8606 4.72806
91 1 7.08997 15.0338 0.535561
92 1 6.62597 13.9943 8.04189
93 2 7.74141 18.3766 3.19185
94 2 6.06913 10.8234 5.30656
95 2 8.05777 13.3967 1.01624
96 2 5.49614 15.5665 7.33423
97 2 6.38929 18.0753 3.4277
98 2 7.36151 11.2057 4.95941
99 2 0.463224 13.0187 0.709761
100 2 4.34151 16.171 7.81016
101 2 7.13281 16.5191 1.82792
102 2 6.68425 12.6326 6.61354
103 2 8.53954 11.6024 2.47327
104 2 5.02606 17.4453 6.07507
105 5 1.20681 10.454 5.23849
106 5 3.65196 18.8461 3.21393
107 5 1.5066 15.2805 7.56657
108 5 3.25609 13.8832 0.985588
109 5 3.08976 10.026 5.87506
110 5 1.58568 19.0493 2.73159
111 5 8.42774 14.8363 7.07766
112 5 5.2204 14.2852 1.49606
113 3 8.07641 17.4472 2.15007
114 3 5.71795 11.678 6.34222
115 3 7.69172 12.59 2.10092
116 3 5.89113 16.4188 6.31322
117 3 6.21591 16.8473 2.7419
118 3 7.73446 12.189 5.83344
119 3 0.606646 11.9713 1.58152
120 3 3.94598 17.0902 6.8906
121 6 2.3121 10.0986 4.9637
122 6 2.45899 19.2276 3.51553
123 6 0.427779 14.9935 7.82391
124 6 4.36315 14.3027 0.692795
125 4 0.228338 17.178 2.09871
126 4 4.76719 12.1156 6.41074
127 4 6.58673 12.5957 2.3552
128 4 6.80285 16.5483 5.88235
129 4 5.19049 16.4879 2.91003
130 4 8.61851 12.9706 5.51538
131 4 1.44074 11.219 1.41121
132 4 3.27213 17.9463 7.19759
133 1 4.44583 10.1909 12.2384
134 1 0.855464 18.8235 13.3641
135 1 2.88606 14.9688 9.08199
136 1 2.41696 14.0324 16.5137
137 2 3.43953 18.3261 11.7191
138 2 1.90808 10.6809 13.9245
139 2 3.891 13.4202 9.62842
140 2 1.4666 15.5366 15.9742
141 2 2.06552 18.015 12.0604
142 2 3.20153 11.0749 13.5497
143 2 5.19692 13.0706 9.22066
144 2 9.18146 15.9421 16.3915
145 2 3.00215 16.4488 10.3892
146 2 2.42768 12.637 15.1562
147 2 4.61333 11.6902 11.0283
148 2 0.807068 17.4891 14.7492
149 5 5.98831 10.3142 13.7637
150 5 8.46481 18.7881 11.8069
151 5 6.29715 15.3953 16.1508
152 5 8.16399 13.8389 9.43518
153 5 7.98247 10.0511 14.1972
154 5 6.38484 18.9689 11.3528
155 5 4.41256 14.9914 15.6428
156 5 1.21574 14.1009 9.97608
157 3 3.96089 17.3078 10.8659
158 3 1.57865 11.5889 14.9291
159 3 3.6021 12.5146 10.6275
160 3 1.71502 16.5555 14.9558
161 3 1.93649 16.9555 11.1842
162 3 3.44106 12.132 14.3486
163 3 5.46892 12.0136 10.0262
164 3 8.82514 17.0573 15.6617
165 6 7.03161 9.84324 13.5276
166 6 7.30092 18.9743 12.1035
167 6 5.30148 14.7388 16.3828
168 6 9.16587 14.3308 9.28192
169 4 4.9498 17.4173 10.4751
170 4 9.47144 11.5297 15.3595
171 4 3.00065 12.954 11.5122
172 4 2.71927 16.7337 14.7
173 4 1.16823 16.2321 11.3396
174 4 4.20955 12.9594 14.1369
175 4 6.3851 11.5755 9.90752
176 4 7.74408 17.4766 15.784
177 7 7.42392 13.3304 14.3642
178 8 7.03375 13.1715 15.195
179 8 6.68376 13.548 13.7802
180 7 6.91057 15.5685 12.5095
181 8 6.88465 16.469 12.7306
182 8 7.85459 15.554 12.2263
183 7 5.28659 4.88391 12.8664
184 8 4.38511 4.86431 13.1709
185 8 5.54155 5.7192 12.4434
186 7 7.17154 5.77936 11.3689
187 8 7.63787 5.72169 12.1795
188 8 7.89322 6.09494 10.8235
189 7 2.86173 5.01481 4.40148
190 8 2.586 5.90594 4.63624
191 8 2.52577 4.42972 3.70168
192 7 4.63315 2.88405 4.08335
193 8 4.82931 2.7163 3.15282
194 8 5.2657 3.62208 4.10633
ITEM: TIMESTEP
71
ITEM: NUMBER OF ATOMS
194
ITEM: BOX BOUNDS xy xz yz pp pp pp
-4.5444854620519948e-03 9.5493710571287878e+00 0.0000000000000000e+00
-9.8839926390432709e-03 1.9396883092639040e+01 6.3102637166672904e-01
-8.6990636343422523e-03 1.7071514163634319e+01 0.0000000000000000e+00
ITEM: ATOMS id type x y z
1 1 8.72471 0.507575 3.70374
2 1 4.96249 9.21123 4.78403
3 1 7.03634 5.40271 0.442892
4 1 6.62141 4.30618 8.06032
5 2 7.74899 8.67726 3.17679
6 2 6.21098 0.993344 5.44642
7 2 8.06972 3.75223 1.08637
8 2 5.63329 5.95742 7.4112
9 2 6.48246 8.21875 3.63276
10 2 7.34871 1.4671 4.90202
11 2 0.487123 3.43786 0.73387
12 2 4.33708 6.37324 7.85161
13 2 7.12729 6.74405 1.9736
14 2 6.55699 2.81394 6.74942
15 2 8.71151 1.90841 2.39486
16 2 4.91292 7.86621 6.0929
17 5 1.14674 0.782278 5.27243
18 5 3.66927 8.98549 3.27858
19 5 1.4867 5.71459 7.52406
20 5 3.1792 4.14428 1.11701
21 5 3.16931 0.311368 5.75334
22 5 1.61917 9.41785 2.80521
23 5 8.52278 5.01674 7.12439
24 5 5.16685 4.591 1.48854
25 3 8.06835 7.70766 2.24904
26 3 5.68411 1.85129 6.49801
27 3 7.77822 2.84932 2.11236
28 3 5.89659 6.90883 6.38061
29 3 6.20308 7.09187 2.96342
30 3 7.57836 2.48952 5.76258
31 3 0.785571 2.37087 1.52578
32 3 3.98723 7.39953 7.07301
33 6 2.19209 0.371905 4.90978
34 6 2.56748 9.32976 3.58914
35 6 0.511852 5.23298 7.9664
36 6 4.24639 4.49687 0.699536
37 4 0.217602 7.41649 1.97649
38 4 4.66226 1.93315 6.91435
39 4 6.81471 2.5588 2.45104
40 4 6.86862 7.31067 6.3047
41 4 5.1934 6.74957 2.8327
42 4 8.55272 2.84457 6.1119
43 4 1.73233 1.91381 1.41258
44 4 3.11584 8.07214 7.33424
45 1 4.56222 0.53517 12.2972
46 1 0.89666 9.16603 13.2644
47 1 2.99124 5.27723 9.00027
48 1 2.46404 4.30483 16.5562
49 2 3.48139 8.59802 11.708
50 2 1.74827 1.06243 13.7286
51 2 4.07302 3.86527 9.72382
52 2 1.4863 5.98295 15.9948
53 2 2.11712 8.29205 11.8967
54 2 3.10565 1.23852 13.6552
55 2 5.27496 3.46283 9.2523
56 2 9.14359 6.38922 16.4076
57 2 2.91726 6.83318 10.2912
58 2 2.42608 2.91794 15.232
59 2 4.49548 1.82111 10.7831
60 2 0.788813 7.66322 14.5343
61 5 5.7567 0.619851 13.76
62 5 8.44805 9.24325 11.9399
63 5 6.27837 5.67922 16.1567
64 5 8.09489 4.01332 9.47954
65 5 7.78244 0.342042 14.2267
66 5 6.40361 9.42662 11.2985
67 5 4.25457 5.09756 15.6584
68 5 1.09638 4.61304 10.0414
69 3 3.90764 7.62696 10.8011
70 3 1.49589 2.00145 14.8149
71 3 3.57709 2.80486 10.5761
72 3 1.87245 6.95735 15.0243
73 3 1.87716 7.11522 11.1569
74 3 3.35571 2.4756 14.3113
75 3 5.52132 2.26258 10.052
76 3 8.7746 7.34613 15.5147
77 6 6.91711 0.330336 13.4418
78 6 7.26299 9.25091 12.1383
79 6 5.15445 5.25732 16.5211
80 6 9.12862 4.55303 9.23696
81 4 4.73102 7.91506 10.2824
82 4 9.40538 2.02903 15.1947
83 4 2.76552 3.04227 11.3436
84 4 2.61295 6.55755 14.3058
85 4 0.844047 6.8631 10.9482
86 4 4.32874 2.68134 14.5484
87 4 6.49786 1.78675 9.762
88 4 7.89136 7.83011 15.459
89 1 8.6464 10.2074 3.76864
90 1 5.03851 18.8609 4.7272
91 1 7.08984 15.0331 0.535638
92 1 6.62655 13.9944 8.04232
93 2 7.74091 18.3773 3.19185
94 2 6.07111 10.823 5.30488
95 2 8.05714 13.3963 1.01656
96 2 5.49363 15.564 7.33494
97 2 6.39011 18.0756 3.42589
98 2 7.36264 11.2057 4.95926
99 2 0.462674 13.0178 0.709699
100 2 4.34079 16.1711 7.81047
101 2 7.13341 16.5175 1.8277
102 2 6.6852 12.6354 6.61398
103 2 8.53837 11.5994 2.47471
104 2 5.02674 17.4478 6.07212
105 5 1.20737 10.4547 5.23906
106 5 3.65146 18.849 3.21181
107 5 1.50568 15.2806 7.5656
108 5 3.2564 13.8842 0.986382
109 5 3.08842 10.0258 5.87564
110 5 1.58678 19.0492 2.73173
111 5 8.42914 14.8359 7.079
112 5 5.22012 14.2863 1.49652
113 3 8.07673 17.4475 2.14951
114 3 5.7196 11.6799 6.34266
115 3 7.69116 12.5906 2.10053
116 3 5.88982 16.4199 6.30968
117 3 6.21755 16.849 2.74186
118 3 7.73546 12.1888 5.83367
119 3 0.605712 11.9704 1.58182
120 3 3.94529 17.0913 6.88983
121 6 2.31359 10.0987 4.962
122 6 2.4575 19.2307 3.51725
123 6 0.42669 14.9949 7.82505
124 6 4.36405 14.3041 0.691108
125 4 0.229098 17.1767 2.10514
126 4 4.7701 12.1227 6.4055
127 4 6.58417 12.5992 2.34673
128 4 6.80215 16.5521 5.87845
129 4 5.19179 16.4931 2.91046
130 4 8.61649 12.9704 5.51154
131 4 1.43813 11.2175 1.4086
132 4 3.27671 17.9492 7.20207
133 1 4.44512 10.1902 12.2381
134 1 0.854618 18.8234 13.3645
135 1 2.88504 14.9672 9.08228
136 1 2.41685 14.0329 16.5133
137 2 3.43954 18.3254 11.7182
138 2 1.90884 10.6793 13.9256
139 2 3.89022 13.4217 9.62851
140 2 1.46503 15.5346 15.976
141 2 2.06516 18.0146 12.0591
142 2 3.20195 11.0737 13.5496
143 2 5.19787 13.0707 9.21937
144 2 9.18202 15.941 16.3921
145 2 3.00163 16.4474 10.3902
146 2 2.42821 12.6397 15.1571
147 2 4.61475 11.688 11.0307
148 2 0.807267 17.4915 14.7491
149 5 5.98842 10.313 13.7644
150 5 8.4639 18.7904 11.8063
151 5 6.29751 15.3975 16.1517
152 5 8.16617 13.8387 9.43547
153 5 7.98293 10.0517 14.1959
154 5 6.38619 18.9672 11.3536
155 5 4.4131 14.9931 15.6432
156 5 1.21622 14.0995 9.97446
157 3 3.95798 17.3078 10.8691
158 3 1.57913 11.5874 14.9293
159 3 3.60137 12.514 10.6287
160 3 1.71491 16.5569 14.954
161 3 1.93729 16.9563 11.1828
162 3 3.44159 12.1317 14.3485
163 3 5.46909 12.0124 10.026
164 3 8.8238 17.0575 15.6639
165 6 7.0321 9.84032 13.5274
166 6 7.30058 18.974 12.1049
167 6 5.30216 14.7368 16.3843
168 6 9.16762 14.3329 9.28163
169 4 4.94906 17.4211 10.4838
170 4 9.46787 11.524 15.3526
171 4 3.00312 12.9591 11.5125
172 4 2.72002 16.7399 14.6999
173 4 1.16972 16.2309 11.337
174 4 4.20661 12.9602 14.133
175 4 6.38718 11.5754 9.90809
176 4 7.74301 17.4757 15.79
177 7 7.42558 13.3293 14.3644
178 8 7.04177 13.1752 15.1965
179 8 6.68709 13.5612 13.7829
180 7 6.91073 15.5684 12.51
181 8 6.88162 16.4669 12.7306
182 8 7.85554 15.556 12.2206
183 7 5.28559 4.88335 12.8656
184 8 4.38496 4.86095 13.1774
185 8 5.53706 5.71085 12.4259
186 7 7.17243 5.78161 11.3706
187 8 7.63564 5.72036 12.1814
188 8 7.89779 6.09043 10.8252
189 7 2.85938 5.01766 4.39976
190 8 2.57841 5.90765 4.64068
191 8 2.53451 4.42599 3.69686
192 7 4.6325 2.88461 4.0802
193 8 4.83481 2.71344 3.15015
194 8 5.26513 3.62682 4.10267
ITEM: TIMESTEP
72
ITEM: NUMBER OF ATOMS
194
ITEM: BOX BOUNDS xy xz yz pp pp pp
-4.5918672859208698e-03 9.5494251406341011e+00 0.0000000000000000e+00
-9.9870453613473131e-03 1.9396986145361346e+01 6.3103307334817460e-01
-8.7897620212959993e-03 1.7071604862021275e+01 0.0000000000000000e+00
ITEM: ATOMS id type x y z
1 1 8.72576 0.507186 3.70319
2 1 4.96157 9.2122 4.78403
3 1 7.03543 5.40279 0.442006
4 1 6.62211 4.30632 8.06115
5 2 7.74987 8.67818 3.17807
6 2 6.21378 0.990199 5.44694
7 2 8.06915 3.75362 1.08574
8 2 5.63251 5.95827 7.41101
9 2 6.48249 8.21925 3.63424
10 2 7.34724 1.46542 4.90243
11 2 0.488127 3.43849 0.733993
12 2 4.33676 6.37567 7.85005
13 2 7.12849 6.74106 1.97389
14 2 6.55617 2.81429 6.75151
15 2 8.71094 1.90717 2.39534
16 2 4.91189 7.86827 6.09389
17 5 1.14737 0.782793 5.27343
18 5 3.66852 8.98606 3.27774
19 5 1.48685 5.71689 7.52363
20 5 3.17947 4.14517 1.11861
21 5 3.16802 0.311433 5.75282
22 5 1.62128 9.41797 2.80623
23 5 8.52346 5.0147 7.12441
24 5 5.16507 4.59191 1.48818
25 3 8.0684 7.7067 2.24925
26 3 5.68786 1.84981 6.49926
27 3 7.78082 2.84752 2.11276
28 3 5.89415 6.91079 6.38021
29 3 6.20443 7.09095 2.9658
30 3 7.57958 2.49153 5.76385
31 3 0.786182 2.37072 1.52627
32 3 3.98864 7.39882 7.07364
33 6 2.19258 0.371582 4.90661
34 6 2.56708 9.3306 3.59139
35 6 0.510405 5.23259 7.96945
36 6 4.24655 4.49737 0.699196
37 4 0.217317 7.41595 1.98188
38 4 4.66594 1.93226 6.91404
39 4 6.81817 2.55076 2.44892
40 4 6.86633 7.31682 6.30769
41 4 5.19316 6.74913 2.8368
42 4 8.5539 2.84684 6.1147
43 4 1.73392 1.91285 1.4114
44 4 3.1193 8.07044 7.34056
45 1 4.56283 0.534878 12.2975
46 1 0.896523 9.16622 13.2636
47 1 2.99167 5.27575 8.99956
48 1 2.46442 4.30507 16.5566
49 2 3.47974 8.59661 11.7064
50 2 1.74887 1.06296 13.7284
51 2 4.07589 3.86577 9.72421
52 2 1.48528 5.98341 15.9952
53 2 2.11618 8.29356 11.8957
54 2 3.10408 1.23749 13.6566
55 2 5.27385 3.46361 9.25296
56 2 9.14417 6.38969 16.4076
57 2 2.91824 6.83193 10.2888
58 2 2.42529 2.91715 15.2307
59 2 4.4956 1.81929 10.7816
60 2 0.787488 7.66447 14.5323
61 5 5.7554 0.617855 13.7602
62 5 8.44778 9.24747 11.9393
63 5 6.27704 5.68095 16.1566
64 5 8.09681 4.01127 9.47919
65 5 7.77999 0.342694 14.2265
66 5 6.40545 9.42717 11.299
67 5 4.25475 5.09715 15.6588
68 5 1.09581 4.61425 10.0417
69 3 3.905 7.62551 10.8021
70 3 1.49572 2.00215 14.8143
71 3 3.57894 2.80384 10.5755
72 3 1.87211 6.95875 15.0244
73 3 1.87652 7.11517 11.1556
74 3 3.35476 2.47416 14.3119
75 3 5.5209 2.26178 10.0522
76 3 8.77555 7.34633 15.5141
77 6 6.91645 0.329408 13.4391
78 6 7.26277 9.24932 12.1398
79 6 5.15166 5.25646 16.5264
80 6 9.13092 4.55413 9.23637
81 4 4.73165 7.91883 10.2862
82 4 9.40329 2.0337 15.19
83 4 2.76907 3.04016 11.3442
84 4 2.61297 6.55303 14.308
85 4 0.842425 6.86818 10.9405
86 4 4.32929 2.67942 14.555
87 4 6.49273 1.78195 9.76023
88 4 7.89008 7.83086 15.4568
89 1 8.64638 10.207 3.7691
90 1 5.03856 18.8612 4.72635
91 1 7.08971 15.0323 0.53572
92 1 6.62712 13.9944 8.04275
93 2 7.74037 18.3779 3.19179
94 2 6.07307 10.8226 5.30326
95 2 8.05656 13.3959 1.01695
96 2 5.49114 15.5615 7.3356
97 2 6.39098 18.0759 3.42406
98 2 7.36377 11.2055 4.95912
99 2 0.462044 13.0169 0.709672
100 2 4.34003 16.1711 7.81078
101 2 7.13403 16.5158 1.8275
102 2 6.68615 12.6382 6.61441
103 2 8.53722 11.5964 2.4761
104 2 5.02736 17.4502 6.0692
105 5 1.2079 10.4554 5.23963
106 5 3.65087 18.8519 3.20971
107 5 1.50484 15.2807 7.56457
108 5 3.2567 13.8852 0.987174
109 5 3.08713 10.0255 5.87619
110 5 1.58784 19.049 2.73187
111 5 8.43052 14.8355 7.08032
112 5 5.21989 14.2873 1.49701
113 3 8.07707 17.448 2.14901
114 3 5.72132 11.6818 6.34307
115 3 7.69051 12.5912 2.10013
116 3 5.88842 16.4211 6.30617
117 3 6.2191 16.8508 2.74189
118 3 7.73651 12.1886 5.83386
119 3 0.604857 11.9695 1.58212
120 3 3.94465 17.0924 6.88906
121 6 2.31507 10.0987 4.96031
122 6 2.4562 19.2336 3.51891
123 6 0.425521 14.9962 7.82634
124 6 4.36487 14.3054 0.689467
125 4 0.229561 17.1754 2.11141
126 4 4.77243 12.1296 6.40021
127 4 6.58221 12.6024 2.33832
128 4 6.80233 16.5555 5.87445
129 4 5.19328 16.4979 2.91041
130 4 8.61337 12.9691 5.50809
131 4 1.43516 11.2166 1.40596
132 4 3.28152 17.9514 7.20659
133 1 4.44443 10.1895 12.2378
134 1 0.853762 18.8233 13.3648
135 1 2.88403 14.9656 9.08256
136 1 2.41676 14.0333 16.513
137 2 3.43951 18.3246 11.7174
138 2 1.90965 10.6777 13.9267
139 2 3.88951 13.4233 9.62862
140 2 1.4635 15.5326 15.9777
141 2 2.06494 18.014 12.0577
142 2 3.20233 11.0724 13.5494
143 2 5.19878 13.0708 9.21813
144 2 9.1825 15.9398 16.3928
145 2 3.00108 16.446 10.3912
146 2 2.42875 12.6424 15.158
147 2 4.61614 11.6857 11.033
148 2 0.807449 17.4939 14.7489
149 5 5.98847 10.3119 13.7651
150 5 8.46298 18.7927 11.8058
151 5 6.29788 15.3996 16.1526
152 5 8.16824 13.8384 9.4358
153 5 7.98343 10.0522 14.1946
154 5 6.38751 18.9654 11.3543
155 5 4.41356 14.9946 15.6436
156 5 1.21672 14.0981 9.97283
157 3 3.955 17.308 10.8723
158 3 1.57955 11.586 14.9296
159 3 3.60059 12.5134 10.6299
160 3 1.71483 16.5581 14.9523
161 3 1.9381 16.9569 11.1813
162 3 3.44216 12.1317 14.3485
163 3 5.46925 12.0113 10.0257
164 3 8.82237 17.0577 15.666
165 6 7.03259 9.83735 13.5272
166 6 7.30023 18.9737 12.1063
167 6 5.30289 14.7348 16.3857
168 6 9.16948 14.335 9.28126
169 4 4.9484 17.4247 10.4923
170 4 9.46466 11.5186 15.3456
171 4 3.00583 12.9638 11.5122
172 4 2.72114 16.7463 14.6997
173 4 1.17089 16.2299 11.3345
174 4 4.2034 12.9601 14.1289
175 4 6.38991 11.5749 9.90874
176 4 7.74284 17.4747 15.7959
177 7 7.42726 13.3283 14.3647
178 8 7.04948 13.1788 15.1986
179 8 6.69063 13.5746 13.7858
180 7 6.91092 15.5682 12.5104
181 8 6.87829 16.4655 12.7309
182 8 7.85601 15.5577 12.2149
183 7 5.28461 4.88279 12.8649
184 8 4.38483 4.85788 13.184
185 8 5.53225 5.70229 12.4085
186 7 7.17331 5.78388 11.3722
187 8 7.63351 5.71885 12.184
188 8 7.90222 6.08591 10.8266
189 7 2.85706 5.02051 4.39807
190 8 2.57046 5.90902 4.64465
191 8 2.54314 4.42293 3.69225
192 7 4.63187 2.88522 4.07701
193 8 4.84 2.71032 3.14747
194 8 5.26428 3.63155 4.09942
ITEM: TIMESTEP
73
ITEM: NUMBER OF ATOMS
194
ITEM: BOX BOUNDS xy xz yz pp pp pp
-4.6339786472300304e-03 9.5494732082230449e+00 0.0000000000000000e+00
-1.0078635132877878e-02 1.9397077735132878e+01 6.3103902957580971e-01
-8.8703716777267516e-03 1.7071685471677704e+01 0.0000000000000000e+00
ITEM: ATOMS id type x y z
1 1 8.72681 0.506813 3.70264
2 1 4.96065 9.21318 4.78404
3 1 7.03452 5.40287 0.441137
4 1 6.62281 4.30647 8.06199
5 2 7.75069 8.67903 3.17938
6 2 6.21647 0.98706 5.44752
7 2 8.06863 3.755 1.08513
8 2 5.63166 5.95921 7.41079
9 2 6.48254 8.21981 3.63571
10 2 7.34581 1.46375 4.90289
11 2 0.48908 3.43913 0.734158
12 2 4.33651 6.37803 7.84847
13 2 7.12968 6.73808 1.97423
14 2 6.55543 2.81465 6.75354
15 2 8.71041 1.90596 2.39579
16 2 4.91086 7.87027 6.09498
17 5 1.14795 0.783321 5.27441
18 5 3.6678 8.98662 3.27691
19 5 1.48708 5.71919 7.52324
20 5 3.17971 4.14608 1.12019
21 5 3.16668 0.31151 5.75221
22 5 1.62339 9.41807 2.80726
23 5 8.52416 5.01267 7.12448
24 5 5.16329 4.59283 1.48783
25 3 8.06849 7.70571 2.24944
26 3 5.69167 1.84829 6.50044
27 3 7.78343 2.84572 2.11316
28 3 5.89167 6.91275 6.37984
29 3 6.2058 7.09 2.96809
30 3 7.58073 2.49363 5.76526
31 3 0.786759 2.37058 1.52679
32 3 3.99003 7.39822 7.07418
33 6 2.19325 0.371265 4.90359
34 6 2.56661 9.33147 3.59365
35 6 0.50876 5.23219 7.97231
36 6 4.24679 4.49786 0.698976
37 4 0.216511 7.4158 1.98748
38 4 4.66976 1.93108 6.91352
39 4 6.8212 2.54299 2.44666
40 4 6.86447 7.32286 6.31064
41 4 5.19275 6.74865 2.8411
42 4 8.55521 2.84891 6.117
43 4 1.73575 1.91163 1.4103
44 4 3.12312 8.06833 7.34687
45 1 4.56343 0.534589 12.2978
46 1 0.896382 9.1664 13.2627
47 1 2.99211 5.27429 8.99885
48 1 2.46481 4.30531 16.5571
49 2 3.47804 8.59515 11.7048
50 2 1.7495 1.06355 13.7284
51 2 4.07869 3.86622 9.72464
52 2 1.48424 5.98391 15.9954
53 2 2.11529 8.29505 11.8946
54 2 3.10253 1.23657 13.6579
55 2 5.27276 3.46427 9.25369
56 2 9.14472 6.39014 16.4077
57 2 2.91921 6.83066 10.2864
58 2 2.42451 2.91634 15.2293
59 2 4.49572 1.81745 10.7802
60 2 0.786191 7.66573 14.5304
61 5 5.75412 0.61585 13.7604
62 5 8.44752 9.25171 11.9385
63 5 6.27567 5.68267 16.1564
64 5 8.0987 4.0092 9.47883
65 5 7.7776 0.343362 14.2264
66 5 6.40727 9.42771 11.2995
67 5 4.25496 5.09675 15.6593
68 5 1.09528 4.61548 10.0421
69 3 3.90231 7.62413 10.8032
70 3 1.4955 2.00278 14.8137
71 3 3.5808 2.80293 10.5749
72 3 1.87175 6.96004 15.0245
73 3 1.87591 7.1152 11.1543
74 3 3.35379 2.47267 14.3125
75 3 5.52054 2.26113 10.0524
76 3 8.7766 7.34655 15.5134
77 6 6.91575 0.328478 13.4364
78 6 7.26255 9.24773 12.1414
79 6 5.14882 5.25564 16.5316
80 6 9.13329 4.55524 9.23585
81 4 4.73292 7.92252 10.2895
82 4 9.40116 2.03857 15.1853
83 4 2.77304 3.03779 11.3442
84 4 2.6129 6.54881 14.3104
85 4 0.840854 6.87326 10.9328
86 4 4.33056 2.67766 14.5616
87 4 6.4871 1.77686 9.75882
88 4 7.88789 7.83183 15.4548
89 1 8.64637 10.2067 3.76957
90 1 5.03861 18.8616 4.7255
91 1 7.08958 15.0315 0.535808
92 1 6.62769 13.9945 8.04318
93 2 7.73979 18.3784 3.19167
94 2 6.07504 10.8222 5.30169
95 2 8.05602 13.3954 1.01739
96 2 5.48869 15.5591 7.33622
97 2 6.39191 18.076 3.42221
98 2 7.3649 11.2054 4.95901
99 2 0.461332 13.016 0.709682
100 2 4.33923 16.171 7.8111
101 2 7.13468 16.514 1.82733
102 2 6.6871 12.641 6.61482
103 2 8.53607 11.5934 2.47742
104 2 5.02794 17.4526 6.06631
105 5 1.2084 10.4561 5.24021
106 5 3.65019 18.8549 3.20764
107 5 1.5041 15.2808 7.5635
108 5 3.257 13.8862 0.987962
109 5 3.0859 10.0253 5.87672
110 5 1.58885 19.0489 2.73202
111 5 8.43187 14.8352 7.0816
112 5 5.21972 14.2884 1.49752
113 3 8.07744 17.4484 2.14859
114 3 5.7231 11.6837 6.34347
115 3 7.68979 12.5919 2.0997
116 3 5.88694 16.4222 6.3027
117 3 6.22058 16.8528 2.74201
118 3 7.73761 12.1886 5.83403
119 3 0.604082 11.9684 1.58245
120 3 3.94406 17.0937 6.88828
121 6 2.31655 10.0987 4.95862
122 6 2.45508 19.2365 3.52051
123 6 0.424276 14.9974 7.82777
124 6 4.36561 14.3066 0.687879
125 4 0.229722 17.1741 2.11752
126 4 4.77421 12.1363 6.39484
127 4 6.58087 12.6053 2.33
128 4 6.8034 16.5586 5.87036
129 4 5.19494 16.5023 2.90989
130 4 8.60917 12.9668 5.50503
131 4 1.43184 11.2162 1.40329
132 4 3.28654 17.953 7.21113
133 1 4.44374 10.1887 12.2375
134 1 0.852897 18.8231 13.3652
135 1 2.88301 14.964 9.08284
136 1 2.41668 14.0337 16.5126
137 2 3.43944 18.3238 11.7166
138 2 1.91051 10.6761 13.9279
139 2 3.88888 13.4248 9.62873
140 2 1.462 15.5308 15.9793
141 2 2.06488 18.0135 12.0562
142 2 3.20265 11.071 13.5493
143 2 5.19963 13.0708 9.21692
144 2 9.18289 15.9386 16.3934
145 2 3.0005 16.4447 10.3923
146 2 2.4293 12.645 15.1589
147 2 4.6175 11.6835 11.0353
148 2 0.807611 17.4963 14.7488
149 5 5.98844 10.3107 13.7658
150 5 8.46206 18.795 11.8052
151 5 6.29827 15.4016 16.1536
152 5 8.1702 13.838 9.43618
153 5 7.98399 10.0528 14.1933
154 5 6.3888 18.9636 11.3549
155 5 4.41395 14.9962 15.644
156 5 1.21723 14.0967 9.97119
157 3 3.95196 17.3081 10.8755
158 3 1.57992 11.5845 14.9297
159 3 3.59978 12.5129 10.6312
160 3 1.71479 16.5592 14.9507
161 3 1.93893 16.9575 11.1798
162 3 3.44276 12.1317 14.3485
163 3 5.46942 12.0101 10.0255
164 3 8.82087 17.0579 15.6682
165 6 7.03306 9.83436 13.5269
166 6 7.29985 18.9735 12.1078
167 6 5.30367 14.7329 16.387
168 6 9.17145 14.3371 9.2808
169 4 4.94779 17.4279 10.5005
170 4 9.46184 11.5134 15.3384
171 4 3.00878 12.9682 11.5111
172 4 2.7226 16.7526 14.6994
173 4 1.17176 16.2289 11.3321
174 4 4.19993 12.9592 14.1247
175 4 6.39329 11.5741 9.90949
176 4 7.74357 17.4736 15.8016
177 7 7.42895 13.3272 14.3648
178 8 7.05688 13.1823 15.2012
179 8 6.69439 13.588 13.7888
180 7 6.91116 15.568 12.5109
181 8 6.87466 16.465 12.7315
182 8 7.85595 15.559 12.2093
183 7 5.28363 4.88223 12.8641
184 8 4.38473 4.8551 13.1905
185 8 5.52713 5.69352 12.3912
186 7 7.1742 5.78618 11.3738
187 8 7.63147 5.71716 12.1871
188 8 7.90652 6.08138 10.8279
189 7 2.85477 5.02335 4.3964
190 8 2.56216 5.91004 4.64814
191 8 2.55166 4.42056 3.68786
192 7 4.63126 2.88585 4.07377
193 8 4.84488 2.70695 3.1448
194 8 5.2631 3.63622 4.09657
ITEM: TIMESTEP
74
ITEM: NUMBER OF ATOMS
194
ITEM: BOX BOUNDS xy xz yz pp pp pp
-4.6706216265262057e-03 9.5495150339824537e+00 0.0000000000000000e+00
-1.0158331490291772e-02 1.9397157431490292e+01 6.3104421235592267e-01
-8.9405137458040684e-03 1.7071755613745779e+01 0.0000000000000000e+00
ITEM: ATOMS id type x y z
1 1 8.72786 0.506456 3.7021
2 1 4.95973 9.21416 4.78405
3 1 7.03362 5.40295 0.440284
4 1 6.62352 4.30663 8.06284
5 2 7.75146 8.67982 3.18072
6 2 6.21903 0.983928 5.44815
7 2 8.06816 3.75636 1.08454
8 2 5.63074 5.96023 7.41055
9 2 6.48262 8.22042 3.63717
10 2 7.34444 1.4621 4.90341
11 2 0.48998 3.43979 0.734366
12 2 4.33633 6.38032 7.84687
13 2 7.13085 6.73513 1.97464
14 2 6.55478 2.81503 6.75551
15 2 8.70992 1.90477 2.39618
16 2 4.90984 7.87222 6.09618
17 5 1.14848 0.783862 5.27539
18 5 3.66709 8.98717 3.27608
19 5 1.48738 5.72151 7.52291
20 5 3.17991 4.14699 1.12175
21 5 3.16527 0.3116 5.75153
22 5 1.62552 9.41817 2.80831
23 5 8.52489 5.01066 7.12459
24 5 5.16154 4.59375 1.48748
25 3 8.06864 7.70471 2.2496
26 3 5.69551 1.84673 6.50155
27 3 7.78605 2.84393 2.11356
28 3 5.88915 6.91471 6.3795
29 3 6.20718 7.08903 2.97028
30 3 7.58182 2.49579 5.76679
31 3 0.787303 2.37044 1.52734
32 3 3.9914 7.39773 7.07463
33 6 2.19407 0.370958 4.90074
34 6 2.56606 9.33239 3.59593
35 6 0.506924 5.23178 7.97495
36 6 4.24713 4.49836 0.698879
37 4 0.215202 7.41604 1.99329
38 4 4.67372 1.9296 6.91278
39 4 6.82382 2.5355 2.44427
40 4 6.86302 7.32877 6.31354
41 4 5.19219 6.74813 2.84559
42 4 8.55666 2.85075 6.11879
43 4 1.73781 1.91014 1.40927
44 4 3.12729 8.06583 7.35316
45 1 4.56403 0.534304 12.2981
46 1 0.896237 9.16659 13.2618
47 1 2.99255 5.27284 8.99814
48 1 2.4652 4.30557 16.5575
49 2 3.47629 8.59363 11.7032
50 2 1.75015 1.06422 13.7285
51 2 4.0814 3.86661 9.7251
52 2 1.4832 5.98447 15.9956
53 2 2.11445 8.2965 11.8936
54 2 3.101 1.23575 13.6592
55 2 5.27171 3.46481 9.25449
56 2 9.14524 6.39058 16.4077
57 2 2.92016 6.82936 10.284
58 2 2.42373 2.91549 15.2278
59 2 4.49583 1.81561 10.7788
60 2 0.784925 7.667 14.5286
61 5 5.75287 0.613837 13.7606
62 5 8.44727 9.25595 11.9377
63 5 6.27424 5.68436 16.1563
64 5 8.10056 4.00711 9.47845
65 5 7.77527 0.344046 14.2263
66 5 6.40908 9.42825 11.3
67 5 4.2552 5.09637 15.6598
68 5 1.09478 4.61671 10.0425
69 3 3.89956 7.6228 10.8043
70 3 1.49523 2.00333 14.813
71 3 3.58268 2.80212 10.5742
72 3 1.87136 6.96124 15.0247
73 3 1.87534 7.1153 11.1531
74 3 3.35278 2.47113 14.3131
75 3 5.52025 2.26063 10.0523
76 3 8.77775 7.34679 15.5126
77 6 6.91499 0.327549 13.4336
78 6 7.26235 9.24616 12.143
79 6 5.14595 5.25484 16.5365
80 6 9.13573 4.55634 9.2354
81 4 4.7348 7.92613 10.2922
82 4 9.39899 2.04362 15.1805
83 4 2.7774 3.03519 11.3439
84 4 2.61272 6.54491 14.3128
85 4 0.839346 6.87837 10.9249
86 4 4.33251 2.67605 14.5684
87 4 6.48097 1.77149 9.75776
88 4 7.88483 7.83302 15.4531
89 1 8.64635 10.2063 3.77005
90 1 5.03866 18.8619 4.72465
91 1 7.08945 15.0307 0.535902
92 1 6.62826 13.9945 8.04361
93 2 7.73917 18.3789 3.19149
94 2 6.07699 10.8219 5.30018
95 2 8.05554 13.395 1.0179
96 2 5.48626 15.5568 7.3368
97 2 6.39289 18.0761 3.42035
98 2 7.36602 11.2052 4.95891
99 2 0.460539 13.0151 0.709729
100 2 4.33838 16.1708 7.81141
101 2 7.13534 16.5122 1.82718
102 2 6.68805 12.6437 6.61522
103 2 8.53492 11.5904 2.47868
104 2 5.02846 17.455 6.06344
105 5 1.20888 10.4568 5.24077
106 5 3.64943 18.8579 3.2056
107 5 1.50344 15.2809 7.56238
108 5 3.25729 13.8872 0.988748
109 5 3.08472 10.025 5.87722
110 5 1.5898 19.0488 2.73219
111 5 8.43319 14.8348 7.08286
112 5 5.21961 14.2895 1.49807
113 3 8.07783 17.449 2.14823
114 3 5.72496 11.6857 6.34385
115 3 7.68898 12.5926 2.09927
116 3 5.88537 16.4233 6.29927
117 3 6.22198 16.8548 2.7422
118 3 7.73875 12.1887 5.83416
119 3 0.603384 11.9674 1.58279
120 3 3.94355 17.095 6.8875
121 6 2.31802 10.0987 4.95696
122 6 2.45416 19.2393 3.52205
123 6 0.422961 14.9986 7.82933
124 6 4.36627 14.3078 0.686349
125 4 0.229581 17.1727 2.12347
126 4 4.77544 12.1429 6.38941
127 4 6.58014 12.6079 2.32178
128 4 6.80531 16.5614 5.86619
129 4 5.19676 16.5063 2.90889
130 4 8.60393 12.9635 5.50236
131 4 1.42818 11.2164 1.40059
132 4 3.29177 17.9541 7.2157
133 1 4.44307 10.188 12.2372
134 1 0.852023 18.823 13.3655
135 1 2.882 14.9624 9.08312
136 1 2.4166 14.0341 16.5123
137 2 3.43932 18.323 11.7158
138 2 1.91142 10.6745 13.929
139 2 3.88832 13.4263 9.62886
140 2 1.46055 15.5291 15.9808
141 2 2.06497 18.0129 12.0547
142 2 3.20292 11.0697 13.5491
143 2 5.20043 13.0709 9.21577
144 2 9.1832 15.9374 16.394
145 2 2.9999 16.4434 10.3935
146 2 2.42987 12.6476 15.1597
147 2 4.61881 11.6813 11.0375
148 2 0.807751 17.4988 14.7487
149 5 5.98835 10.3096 13.7665
150 5 8.46113 18.7973 11.8046
151 5 6.29866 15.4037 16.1546
152 5 8.17205 13.8376 9.43661
153 5 7.9846 10.0534 14.192
154 5 6.39005 18.9618 11.3556
155 5 4.41427 14.9977 15.6443
156 5 1.21776 14.0953 9.96955
157 3 3.94887 17.3084 10.8787
158 3 1.58023 11.5831 14.9299
159 3 3.59893 12.5124 10.6325
160 3 1.71478 16.5601 14.9492
161 3 1.93976 16.958 11.1783
162 3 3.4434 12.1319 14.3485
163 3 5.46958 12.0089 10.0252
164 3 8.81929 17.0581 15.6704
165 6 7.03353 9.83134 13.5266
166 6 7.29947 18.9732 12.1093
167 6 5.30451 14.7311 16.3882
168 6 9.17352 14.3394 9.28026
169 4 4.94723 17.4309 10.5085
170 4 9.45941 11.5085 15.3313
171 4 3.01196 12.9722 11.5094
172 4 2.72439 16.7591 14.6988
173 4 1.17232 16.228 11.3297
174 4 4.19622 12.9576 14.1203
175 4 6.39729 11.5729 9.91034
176 4 7.74516 17.4724 15.8071
177 7 7.43065 13.3262 14.3649
178 8 7.06396 13.1857 15.2044
179 8 6.69837 13.6015 13.792
180 7 6.91145 15.5677 12.5113
181 8 6.87076 16.4652 12.7324
182 8 7.85535 15.5601 12.2038
183 7 5.28267 4.88165 12.8633
184 8 4.38472 4.85262 13.1969
185 8 5.52168 5.68454 12.3739
186 7 7.17508 5.78851 11.3754
187 8 7.62954 5.71531 12.1909
188 8 7.91067 6.07682 10.8289
189 7 2.85252 5.02619 4.39475
190 8 2.55353 5.91066 4.65113
191 8 2.56007 4.41891 3.68372
192 7 4.63068 2.88653 4.0705
193 8 4.84945 2.70334 3.14217
194 8 5.26158 3.6408 4.09412
ITEM: TIMESTEP
75
ITEM: NUMBER OF ATOMS
194
ITEM: BOX BOUNDS xy xz yz pp pp pp
-4.7016260104726371e-03 9.5495504236240301e+00 0.0000000000000000e+00
-1.0225764229435441e-02 1.9397224864229436e+01 6.3104859761355225e-01
-8.9998624027955998e-03 1.7071814962402772e+01 0.0000000000000000e+00
ITEM: ATOMS id type x y z
1 1 8.7289 0.506115 3.70157
2 1 4.95881 9.21514 4.78407
3 1 7.03271 5.40304 0.439447
4 1 6.62422 4.30679 8.06368
5 2 7.75216 8.68053 3.18209
6 2 6.22146 0.980804 5.44886
7 2 8.06773 3.75769 1.08397
8 2 5.62975 5.96134 7.41027
9 2 6.48272 8.22108 3.63861
10 2 7.34313 1.46047 4.90399
11 2 0.490827 3.44046 0.734618
12 2 4.33621 6.38254 7.84526
13 2 7.13201 6.73221 1.97513
14 2 6.55422 2.81543 6.75741
15 2 8.70948 1.9036 2.39654
16 2 4.90882 7.8741 6.09749
17 5 1.14897 0.784416 5.27634
18 5 3.66642 8.98772 3.27525
19 5 1.48775 5.72384 7.52262
20 5 3.18009 4.14792 1.12328
21 5 3.16381 0.311703 5.75076
22 5 1.62766 9.41825 2.80937
23 5 8.52563 5.00866 7.12475
24 5 5.1598 4.59468 1.48713
25 3 8.06884 7.70368 2.24973
26 3 5.6994 1.84513 6.50258
27 3 7.78867 2.84215 2.11396
28 3 5.8866 6.91667 6.37919
29 3 6.20858 7.08804 2.97239
30 3 7.58282 2.49804 5.76845
31 3 0.787815 2.37031 1.52793
32 3 3.99274 7.39735 7.07499
33 6 2.19506 0.370664 4.89807
34 6 2.56545 9.33335 3.59822
35 6 0.504904 5.23136 7.97738
36 6 4.24754 4.49884 0.698908
37 4 0.21342 7.41665 1.99928
38 4 4.6778 1.92783 6.91184
39 4 6.82603 2.52828 2.44174
40 4 6.86197 7.33455 6.3164
41 4 5.1915 6.74757 2.85029
42 4 8.55824 2.85238 6.12005
43 4 1.74009 1.90841 1.40831
44 4 3.1318 8.06298 7.35942
45 1 4.56462 0.534024 12.2984
46 1 0.896088 9.16677 13.261
47 1 2.993 5.27141 8.99743
48 1 2.4656 4.30584 16.5579
49 2 3.47449 8.59207 11.7015
50 2 1.75083 1.06497 13.7287
51 2 4.08403 3.86695 9.7256
52 2 1.48214 5.98509 15.9957
53 2 2.11364 8.29791 11.8926
54 2 3.09949 1.23502 13.6604
55 2 5.27068 3.46523 9.25536
56 2 9.14573 6.39099 16.4077
57 2 2.9211 6.82804 10.2817
58 2 2.42296 2.91462 15.2263
59 2 4.49593 1.81376 10.7774
60 2 0.783693 7.66828 14.5268
61 5 5.75165 0.611815 13.7607
62 5 8.44703 9.2602 11.9369
63 5 6.27276 5.68605 16.1562
64 5 8.10239 4.00502 9.47806
65 5 7.77301 0.344745 14.2262
66 5 6.41086 9.42879 11.3005
67 5 4.25546 5.096 15.6604
68 5 1.09431 4.61795 10.0429
69 3 3.89678 7.62153 10.8054
70 3 1.49492 2.00381 14.8122
71 3 3.58459 2.80142 10.5735
72 3 1.87095 6.96234 15.0248
73 3 1.8748 7.11547 11.1518
74 3 3.35175 2.46955 14.3136
75 3 5.52001 2.2603 10.0522
76 3 8.77899 7.34705 15.5118
77 6 6.91418 0.326624 13.4308
78 6 7.26215 9.24459 12.1447
79 6 5.14305 5.25409 16.5412
80 6 9.13822 4.55744 9.23504
81 4 4.73725 7.92964 10.2944
82 4 9.3968 2.04886 15.1758
83 4 2.78213 3.03237 11.3431
84 4 2.61242 6.54134 14.3153
85 4 0.837915 6.88349 10.917
86 4 4.33512 2.67456 14.5752
87 4 6.47439 1.76584 9.75705
88 4 7.88093 7.83439 15.4515
89 1 8.64633 10.206 3.77054
90 1 5.03871 18.8622 4.72381
91 1 7.08931 15.03 0.536002
92 1 6.62882 13.9945 8.04403
93 2 7.73853 18.3793 3.19123
94 2 6.07894 10.8216 5.29872
95 2 8.05511 13.3945 1.01846
96 2 5.48386 15.5545 7.33732
97 2 6.39392 18.0762 3.41847
98 2 7.36715 11.2049 4.95883
99 2 0.459665 13.0143 0.709815
100 2 4.33749 16.1705 7.81173
101 2 7.13602 16.5104 1.82705
102 2 6.689 12.6464 6.61559
103 2 8.53378 11.5875 2.47988
104 2 5.02894 17.4574 6.0606
105 5 1.20933 10.4576 5.24134
106 5 3.64859 18.8609 3.20359
107 5 1.50286 15.2811 7.56122
108 5 3.25758 13.8883 0.989529
109 5 3.0836 10.0247 5.8777
110 5 1.5907 19.0486 2.73236
111 5 8.43448 14.8344 7.08408
112 5 5.21955 14.2906 1.49864
113 3 8.07825 17.4495 2.14794
114 3 5.72687 11.6877 6.3442
115 3 7.6881 12.5934 2.09882
116 3 5.88373 16.4245 6.29588
117 3 6.2233 16.8569 2.74246
118 3 7.73994 12.1888 5.83427
119 3 0.602762 11.9662 1.58316
120 3 3.94309 17.0963 6.88672
121 6 2.31947 10.0986 4.95532
122 6 2.45343 19.242 3.52351
123 6 0.421581 14.9997 7.83103
124 6 4.36685 14.309 0.684884
125 4 0.229139 17.1713 2.12925
126 4 4.77615 12.1492 6.3839
127 4 6.58 12.6102 2.31368
128 4 6.80803 16.5638 5.86197
129 4 5.19872 16.51 2.90743
130 4 8.59771 12.9592 5.50007
131 4 1.4242 11.2171 1.39787
132 4 3.29718 17.9546 7.22028
133 1 4.4424 10.1873 12.2369
134 1 0.851141 18.8228 13.3658
135 1 2.88099 14.9608 9.08339
136 1 2.41654 14.0345 16.5119
137 2 3.43915 18.3221 11.715
138 2 1.91239 10.673 13.9302
139 2 3.88785 13.4277 9.629
140 2 1.45914 15.5274 15.9821
141 2 2.06521 18.0122 12.0532
142 2 3.20313 11.0683 13.5489
143 2 5.20117 13.0709 9.21466
144 2 9.18342 15.9362 16.3946
145 2 2.99927 16.4422 10.3948
146 2 2.43045 12.6501 15.1605
147 2 4.62009 11.6791 11.0397
148 2 0.807868 17.5012 14.7485
149 5 5.9882 10.3085 13.7673
150 5 8.4602 18.7996 11.804
151 5 6.29906 15.4057 16.1556
152 5 8.1738 13.8371 9.43708
153 5 7.98527 10.0539 14.1907
154 5 6.39126 18.96 11.3562
155 5 4.41452 14.9992 15.6447
156 5 1.2183 14.0939 9.9679
157 3 3.94572 17.3087 10.8819
158 3 1.5805 11.5816 14.9301
159 3 3.59805 12.512 10.6339
160 3 1.7148 16.5608 14.9478
161 3 1.9406 16.9584 11.1768
162 3 3.44407 12.1322 14.3486
163 3 5.46975 12.0077 10.025
164 3 8.81765 17.0583 15.6726
165 6 7.03397 9.82828 13.5263
166 6 7.29907 18.9731 12.1109
167 6 5.30541 14.7293 16.3892
168 6 9.17568 14.3417 9.27963
169 4 4.9467 17.4336 10.5162
170 4 9.4574 11.5038 15.324
171 4 3.01534 12.9757 11.507
172 4 2.72648 16.7656 14.6981
173 4 1.17259 16.2272 11.3275
174 4 4.1923 12.9552 14.1158
175 4 6.40187 11.5713 9.91127
176 4 7.74759 17.471 15.8125
177 7 7.43236 13.3251 14.365
178 8 7.07069 13.1889 15.2081
179 8 6.70257 13.615 13.7954
180 7 6.91178 15.5674 12.5116
181 8 6.86657 16.4662 12.7335
182 8 7.85418 15.561 12.1985
183 7 5.2817 4.88108 12.8625
184 8 4.3848 4.85045 13.2033
185 8 5.5159 5.67536 12.3567
186 7 7.17596 5.79087 11.3769
187 8 7.6277 5.71328 12.1952
188 8 7.91466 6.07223 10.8297
189 7 2.85029 5.02902 4.39312
190 8 2.54457 5.91088 4.65359
191 8 2.56836 4.41801 3.67985
192 7 4.63012 2.88725 4.06718
193 8 4.85371 2.69949 3.1396
194 8 5.25967 3.64525 4.09204
ITEM: TIMESTEP
76
ITEM: NUMBER OF ATOMS
194
ITEM: BOX BOUNDS xy xz yz pp pp pp
-4.7268496653458669e-03 9.5495792149106666e+00 0.0000000000000000e+00
-1.0280624217696044e-02 1.9397279724217697e+01 6.3105216524531593e-01
-9.0481455760329510e-03 1.7071863245576012e+01 0.0000000000000000e+00
ITEM: ATOMS id type x y z
1 1 8.72993 0.505791 3.70104
2 1 4.95789 9.21613 4.7841
3 1 7.0318 5.40313 0.438628
4 1 6.62492 4.30697 8.06454
5 2 7.7528 8.68118 3.18349
6 2 6.22375 0.97769 5.44962
7 2 8.06734 3.759 1.08341
8 2 5.62869 5.96254 7.40997
9 2 6.48284 8.22178 3.64004
10 2 7.34188 1.45887 4.90463
11 2 0.491618 3.44115 0.734914
12 2 4.33615 6.38468 7.84365
13 2 7.13316 6.72931 1.97568
14 2 6.55375 2.81585 6.75924
15 2 8.70909 1.90246 2.39684
16 2 4.90781 7.87592 6.0989
17 5 1.14941 0.78498 5.27728
18 5 3.66576 8.98826 3.27443
19 5 1.48818 5.72617 7.52238
20 5 3.18023 4.14886 1.12478
21 5 3.1623 0.311817 5.74991
22 5 1.6298 9.41832 2.81045
23 5 8.5264 5.00667 7.12495
24 5 5.15808 4.59563 1.48678
25 3 8.06909 7.70264 2.24984
26 3 5.70333 1.84348 6.50354
27 3 7.79128 2.84038 2.11436
28 3 5.88402 6.91863 6.37891
29 3 6.20999 7.08702 2.97441
30 3 7.58375 2.50035 5.77023
31 3 0.788296 2.37017 1.52855
32 3 3.99406 7.3971 7.07527
33 6 2.19621 0.370387 4.89557
34 6 2.56477 9.33434 3.60051
35 6 0.50271 5.23094 7.97959
36 6 4.24804 4.49932 0.699066
37 4 0.211198 7.41763 2.00545
38 4 4.68199 1.92576 6.91069
39 4 6.82783 2.52136 2.43907
40 4 6.86128 7.34018 6.31921
41 4 5.1907 6.74697 2.85518
42 4 8.55994 2.85378 6.12081
43 4 1.74254 1.90644 1.40742
44 4 3.13662 8.05977 7.36565
45 1 4.56521 0.533749 12.2987
46 1 0.895935 9.16695 13.2601
47 1 2.99344 5.26999 8.99672
48 1 2.46599 4.30613 16.5583
49 2 3.47264 8.59047 11.6998
50 2 1.75153 1.06578 13.729
51 2 4.08656 3.86723 9.72613
52 2 1.48108 5.98575 15.9958
53 2 2.11288 8.29928 11.8915
54 2 3.098 1.2344 13.6617
55 2 5.2697 3.46553 9.25629
56 2 9.14619 6.39139 16.4076
57 2 2.92202 6.8267 10.2794
58 2 2.4222 2.91372 15.2247
59 2 4.49603 1.81189 10.7761
60 2 0.782496 7.66957 14.525
61 5 5.75046 0.609784 13.7609
62 5 8.44681 9.26445 11.9359
63 5 6.27122 5.68771 16.1562
64 5 8.1042 4.00292 9.47766
65 5 7.77081 0.345461 14.2262
66 5 6.41262 9.42933 11.301
67 5 4.25574 5.09565 15.6609
68 5 1.09389 4.6192 10.0433
69 3 3.89395 7.62031 10.8066
70 3 1.49456 2.00422 14.8114
71 3 3.58651 2.80084 10.5728
72 3 1.87051 6.96334 15.0249
73 3 1.8743 7.11573 11.1506
74 3 3.35069 2.46792 14.3142
75 3 5.51982 2.26012 10.0519
76 3 8.78032 7.34734 15.5109
77 6 6.91331 0.325706 13.428
78 6 7.26197 9.24302 12.1463
79 6 5.14013 5.25339 16.5457
80 6 9.14076 4.55852 9.23477
81 4 4.74022 7.933 10.2961
82 4 9.39459 2.05429 15.1711
83 4 2.78723 3.02933 11.3418
84 4 2.61202 6.53811 14.3179
85 4 0.836573 6.88863 10.9089
86 4 4.33831 2.67319 14.582
87 4 6.46738 1.75991 9.75665
88 4 7.87625 7.83592 15.4503
89 1 8.64632 10.2057 3.77104
90 1 5.03876 18.8624 4.72297
91 1 7.08918 15.0292 0.536109
92 1 6.62938 13.9945 8.04446
93 2 7.73784 18.3796 3.19092
94 2 6.08087 10.8213 5.29733
95 2 8.05473 13.3939 1.01907
96 2 5.48149 15.5523 7.33778
97 2 6.39501 18.0762 3.41659
98 2 7.36827 11.2046 4.95877
99 2 0.458708 13.0135 0.709939
100 2 4.33656 16.1701 7.81205
101 2 7.13673 16.5085 1.82696
102 2 6.68994 12.6491 6.61594
103 2 8.53265 11.5845 2.48101
104 2 5.02935 17.4598 6.05779
105 5 1.20975 10.4583 5.24189
106 5 3.64765 18.864 3.20161
107 5 1.50238 15.2813 7.56002
108 5 3.25787 13.8893 0.990305
109 5 3.08253 10.0244 5.87816
110 5 1.59155 19.0485 2.73255
111 5 8.43574 14.834 7.08527
112 5 5.21955 14.2917 1.49923
113 3 8.07869 17.4502 2.14773
114 3 5.72886 11.6898 6.34452
115 3 7.68714 12.5941 2.09836
116 3 5.88201 16.4256 6.29254
117 3 6.22454 16.8592 2.7428
118 3 7.74116 12.1891 5.83435
119 3 0.602212 11.9649 1.58354
120 3 3.94271 17.0978 6.88593
121 6 2.32091 10.0986 4.9537
122 6 2.45291 19.2446 3.5249
123 6 0.42014 15.0008 7.83286
124 6 4.36735 14.3101 0.683488
125 4 0.228403 17.1698 2.13485
126 4 4.77637 12.1553 6.37834
127 4 6.58044 12.6122 2.30571
128 4 6.81152 16.5658 5.85771
129 4 5.20083 16.5132 2.9055
130 4 8.59056 12.954 5.49814
131 4 1.41993 11.2182 1.39513
132 4 3.30276 17.9545 7.22488
133 1 4.44175 10.1865 12.2366
134 1 0.850249 18.8226 13.3661
135 1 2.87999 14.9592 9.08365
136 1 2.41649 14.0349 16.5115
137 2 3.43893 18.3212 11.7143
138 2 1.91341 10.6715 13.9314
139 2 3.88746 13.4292 9.62916
140 2 1.45777 15.5259 15.9834
141 2 2.06559 18.0116 12.0515
142 2 3.20329 11.067 13.5488
143 2 5.20185 13.071 9.2136
144 2 9.18355 15.9351 16.3952
145 2 2.99863 16.4409 10.3961
146 2 2.43104 12.6525 15.1612
147 2 4.62133 11.6769 11.0418
148 2 0.807957 17.5037 14.7484
149 5 5.98798 10.3074 13.768
150 5 8.45927 18.8019 11.8035
151 5 6.29946 15.4077 16.1566
152 5 8.17544 13.8366 9.43759
153 5 7.98598 10.0545 14.1895
154 5 6.39244 18.9581 11.3567
155 5 4.4147 15.0007 15.645
156 5 1.21887 14.0925 9.96625
157 3 3.94252 17.3091 10.8851
158 3 1.58071 11.58 14.9302
159 3 3.59714 12.5116 10.6354
160 3 1.71486 16.5614 14.9465
161 3 1.94144 16.9588 11.1752
162 3 3.44476 12.1327 14.3487
163 3 5.46992 12.0065 10.0247
164 3 8.81595 17.0585 15.6748
165 6 7.0344 9.82521 13.526
166 6 7.29866 18.9729 12.1125
167 6 5.30636 14.7276 16.3902
168 6 9.17793 14.3441 9.27893
169 4 4.94619 17.436 10.5236
170 4 9.45579 11.4995 15.3167
171 4 3.01891 12.979 11.504
172 4 2.72885 16.7721 14.6972
173 4 1.17257 16.2264 11.3254
174 4 4.18821 12.9522 14.1111
175 4 6.40699 11.5695 9.91231
176 4 7.75083 17.4695 15.8177
177 7 7.43409 13.3241 14.365
178 8 7.0771 13.1921 15.2123
179 8 6.70699 13.6285 13.7989
180 7 6.91216 15.5671 12.512
181 8 6.86211 16.4679 12.7349
182 8 7.85245 15.5615 12.1933
183 7 5.28074 4.8805 12.8617
184 8 4.38502 4.84859 13.2096
185 8 5.50979 5.66599 12.3397
186 7 7.17685 5.79326 11.3785
187 8 7.62593 5.7111 12.2
188 8 7.91848 6.06762 10.8304
189 7 2.84809 5.03185 4.39152
190 8 2.53528 5.91068 4.65553
191 8 2.57652 4.41784 3.67625
192 7 4.62959 2.88801 4.06382
193 8 4.85766 2.69542 3.13713
194 8 5.25737 3.64954 4.09034
ITEM: TIMESTEP
77
ITEM: NUMBER OF ATOMS
194
ITEM: BOX BOUNDS xy xz yz pp pp pp
-4.7461782053970225e-03 9.5496012772779029e+00 0.0000000000000000e+00
-1.0322662672693994e-02 1.9397321762672696e+01 6.3105489907250223e-01
-9.0851443080719463e-03 1.7071900244308051e+01 0.0000000000000000e+00
ITEM: ATOMS id type x y z
1 1 8.73095 0.505483 3.70052
2 1 4.95698 9.21712 4.78413
3 1 7.03089 5.40322 0.437827
4 1 6.62562 4.30715 8.06539
5 2 7.75338 8.68174 3.18492
6 2 6.22592 0.974587 5.45045
7 2 8.06701 3.76028 1.08288
8 2 5.62757 5.96382 7.40963
9 2 6.48299 8.22254 3.64146
10 2 7.34069 1.4573 4.90533
11 2 0.492353 3.44185 0.735255
12 2 4.33616 6.38673 7.84203
13 2 7.13429 6.72644 1.9763
14 2 6.55338 2.81629 6.76101
15 2 8.70876 1.90135 2.3971
16 2 4.90681 7.87769 6.10042
17 5 1.14982 0.785555 5.2782
18 5 3.66513 8.9888 3.27361
19 5 1.48868 5.72851 7.52221
20 5 3.18033 4.14981 1.12626
21 5 3.16074 0.311944 5.74898
22 5 1.63195 9.41838 2.81154
23 5 8.52718 5.00469 7.1252
24 5 5.15639 4.59658 1.48644
25 3 8.06937 7.70158 2.24993
26 3 5.7073 1.8418 6.50443
27 3 7.79388 2.83863 2.11474
28 3 5.88142 6.92058 6.37867
29 3 6.21141 7.08598 2.97633
30 3 7.58459 2.50272 5.77213
31 3 0.788748 2.37003 1.5292
32 3 3.99535 7.39696 7.07545
33 6 2.19751 0.370131 4.89327
34 6 2.56403 9.33536 3.60281
35 6 0.500351 5.23052 7.98158
36 6 4.2486 4.49978 0.699354
37 4 0.208577 7.41895 2.01176
38 4 4.68629 1.92339 6.90935
39 4 6.82923 2.51473 2.43626
40 4 6.86093 7.34565 6.32198
41 4 5.1898 6.74633 2.86026
42 4 8.56177 2.85497 6.12105
43 4 1.74516 1.90425 1.40662
44 4 3.14173 8.05626 7.37185
45 1 4.5658 0.533479 12.299
46 1 0.895777 9.16713 13.2592
47 1 2.99389 5.26859 8.99601
48 1 2.4664 4.30642 16.5587
49 2 3.47074 8.58882 11.698
50 2 1.75225 1.06667 13.7294
51 2 4.089 3.86746 9.7267
52 2 1.48 5.98648 15.9958
53 2 2.11216 8.30061 11.8904
54 2 3.09654 1.23388 13.6629
55 2 5.26875 3.46571 9.25728
56 2 9.14661 6.39177 16.4074
57 2 2.92291 6.82534 10.2771
58 2 2.42144 2.9128 15.223
59 2 4.49612 1.81002 10.7748
60 2 0.781338 7.67086 14.5234
61 5 5.7493 0.607744 13.761
62 5 8.44659 9.26872 11.9349
63 5 6.26961 5.68935 16.1562
64 5 8.10599 4.0008 9.47723
65 5 7.76867 0.346193 14.2262
66 5 6.41435 9.42986 11.3015
67 5 4.25605 5.0953 15.6615
68 5 1.09351 4.62047 10.0437
69 3 3.8911 7.61917 10.8078
70 3 1.49415 2.00455 14.8105
71 3 3.58846 2.80036 10.5721
72 3 1.87004 6.96425 15.025
73 3 1.87383 7.11605 11.1494
74 3 3.34963 2.46625 14.3148
75 3 5.51969 2.2601 10.0514
76 3 8.78172 7.34765 15.5099
77 6 6.91238 0.324798 13.4252
78 6 7.2618 9.24147 12.1481
79 6 5.13718 5.25273 16.55
80 6 9.14334 4.5596 9.23458
81 4 4.74365 7.93622 10.2972
82 4 9.39237 2.05989 15.1664
83 4 2.79264 3.02609 11.3402
84 4 2.6115 6.53524 14.3206
85 4 0.835332 6.89379 10.9008
86 4 4.34204 2.67191 14.5889
87 4 6.45997 1.7537 9.75655
88 4 7.87086 7.83758 15.4492
89 1 8.6463 10.2053 3.77156
90 1 5.03881 18.8627 4.72213
91 1 7.08905 15.0284 0.536223
92 1 6.62993 13.9945 8.04489
93 2 7.73713 18.3798 3.19053
94 2 6.0828 10.8211 5.296
95 2 8.0544 13.3934 1.01974
96 2 5.47916 15.5501 7.33819
97 2 6.39614 18.0761 3.41469
98 2 7.3694 11.2043 4.95873
99 2 0.457671 13.0126 0.710102
100 2 4.33559 16.1696 7.81237
101 2 7.13746 16.5066 1.82689
102 2 6.6909 12.6518 6.61627
103 2 8.53151 11.5816 2.48207
104 2 5.02971 17.4621 6.05501
105 5 1.21016 10.459 5.24244
106 5 3.64663 18.8671 3.19967
107 5 1.50197 15.2814 7.55877
108 5 3.25817 13.8903 0.991074
109 5 3.08152 10.024 5.87859
110 5 1.59234 19.0484 2.73275
111 5 8.43696 14.8336 7.08643
112 5 5.2196 14.2929 1.49985
113 3 8.07915 17.4508 2.14758
114 3 5.73089 11.6919 6.34481
115 3 7.68611 12.5949 2.0979
116 3 5.88021 16.4268 6.28926
117 3 6.2257 16.8615 2.7432
118 3 7.7424 12.1894 5.8344
119 3 0.601731 11.9636 1.58395
120 3 3.9424 17.0993 6.88515
121 6 2.32232 10.0986 4.95212
122 6 2.45259 19.2471 3.52619
123 6 0.418646 15.0018 7.83483
124 6 4.36776 14.3111 0.682168
125 4 0.22738 17.1683 2.14028
126 4 4.77612 12.1612 6.37271
127 4 6.58142 12.6139 2.2979
128 4 6.81573 16.5675 5.85343
129 4 5.20305 16.5161 2.90311
130 4 8.58257 12.948 5.49656
131 4 1.41539 11.2198 1.39236
132 4 3.30848 17.9539 7.22949
133 1 4.44111 10.1858 12.2364
134 1 0.849349 18.8225 13.3664
135 1 2.87899 14.9576 9.08391
136 1 2.41645 14.0353 16.5111
137 2 3.43865 18.3202 11.7135
138 2 1.91448 10.67 13.9326
139 2 3.88715 13.4306 9.62934
140 2 1.45646 15.5244 15.9845
141 2 2.06613 18.0109 12.0499
142 2 3.20339 11.0656 13.5486
143 2 5.20247 13.071 9.2126
144 2 9.18359 15.9339 16.3958
145 2 2.99796 16.4397 10.3975
146 2 2.43164 12.6548 15.1619
147 2 4.62252 11.6746 11.0439
148 2 0.808019 17.5062 14.7483
149 5 5.9877 10.3063 13.7688
150 5 8.45834 18.8041 11.8029
151 5 6.29987 15.4096 16.1577
152 5 8.17698 13.8359 9.43815
153 5 7.98675 10.0551 14.1883
154 5 6.39358 18.9563 11.3573
155 5 4.41482 15.0021 15.6453
156 5 1.21945 14.0911 9.96459
157 3 3.93928 17.3095 10.8883
158 3 1.58088 11.5785 14.9303
159 3 3.59622 12.5113 10.637
160 3 1.71496 16.5619 14.9452
161 3 1.94227 16.959 11.1736
162 3 3.44548 12.1333 14.3489
163 3 5.4701 12.0054 10.0245
164 3 8.81419 17.0587 15.677
165 6 7.03481 9.8221 13.5256
166 6 7.29824 18.9727 12.1142
167 6 5.30737 14.726 16.3911
168 6 9.18027 14.3466 9.27815
169 4 4.94567 17.4381 10.5307
170 4 9.45459 11.4955 15.3094
171 4 3.02264 12.9818 11.5004
172 4 2.73147 16.7787 14.6962
173 4 1.17227 16.2258 11.3235
174 4 4.18397 12.9484 14.1062
175 4 6.4126 11.5673 9.91344
176 4 7.75481 17.468 15.8227
177 7 7.43582 13.323 14.3649
178 8 7.08318 13.1951 15.2171
179 8 6.71163 13.6421 13.8026
180 7 6.91258 15.5667 12.5123
181 8 6.85739 16.4703 12.7365
182 8 7.85015 15.5619 12.1882
183 7 5.27979 4.87991 12.8609
184 8 4.3854 4.84706 13.2157
185 8 5.50335 5.65641 12.3227
186 7 7.17773 5.79567 11.38
187 8 7.62422 5.70876 12.2054
188 8 7.92212 6.06296 10.8308
189 7 2.84592 5.03467 4.38994
190 8 2.52567 5.91003 4.65694
191 8 2.58455 4.41844 3.67293
192 7 4.62909 2.88881 4.06041
193 8 4.86129 2.69113 3.13477
194 8 5.25465 3.65366 4.089
ITEM: TIMESTEP
78
ITEM: NUMBER OF ATOMS
194
ITEM: BOX BOUNDS xy xz yz pp pp pp
-4.7595247843075228e-03 9.5496165115958878e+00 0.0000000000000000e+00
-1.0351690708716887e-02 1.9397350790708717e+01 6.3105678681157473e-01
-9.1106923575079435e-03 1.7071925792357487e+01 0.0000000000000000e+00
ITEM: ATOMS id type x y z
1 1 8.73197 0.505193 3.70001
2 1 4.95606 9.21811 4.78417
3 1 7.02998 5.40332 0.437042
4 1 6.62632 4.30734 8.06625
5 2 7.75389 8.68223 3.18637
6 2 6.22795 0.971496 5.45136
7 2 8.06673 3.76152 1.08237
8 2 5.62637 5.9652 7.40926
9 2 6.48316 8.22334 3.64285
10 2 7.33958 1.45576 4.9061
11 2 0.493031 3.44257 0.735641
12 2 4.33624 6.38869 7.8404
13 2 7.13541 6.7236 1.977
14 2 6.55311 2.81676 6.76271
15 2 8.70848 1.90025 2.39731
16 2 4.90582 7.87939 6.10205
17 5 1.15018 0.786139 5.2791
18 5 3.66451 8.98934 3.2728
19 5 1.48923 5.73085 7.52208
20 5 3.18041 4.15077 1.12771
21 5 3.15913 0.312081 5.74796
22 5 1.63411 9.41843 2.81265
23 5 8.52797 5.00273 7.1255
24 5 5.15472 4.59754 1.48611
25 3 8.0697 7.70051 2.25
26 3 5.7113 1.84006 6.50524
27 3 7.79647 2.83689 2.11513
28 3 5.8788 6.92254 6.37846
29 3 6.21284 7.08492 2.97817
30 3 7.58536 2.50515 5.77415
31 3 0.789173 2.3699 1.52989
32 3 3.99661 7.39694 7.07554
33 6 2.19895 0.3699 4.89115
34 6 2.56324 9.33641 3.60512
35 6 0.497835 5.23012 7.98333
36 6 4.24924 4.50024 0.699775
37 4 0.205604 7.42059 2.01822
38 4 4.69069 1.92073 6.90782
39 4 6.83026 2.50841 2.43329
40 4 6.86087 7.35095 6.32472
41 4 5.18883 6.74566 2.86553
42 4 8.56373 2.85593 6.12077
43 4 1.74789 1.90184 1.40591
44 4 3.1471 8.05247 7.37801
45 1 4.56638 0.533215 12.2993
46 1 0.895617 9.1673 13.2583
47 1 2.99434 5.2672 8.9953
48 1 2.4668 4.30673 16.5592
49 2 3.46879 8.58713 11.6962
50 2 1.75298 1.06762 13.7299
51 2 4.09134 3.86764 9.72731
52 2 1.47893 5.98725 15.9957
53 2 2.11148 8.30189 11.8894
54 2 3.09511 1.23345 13.6641
55 2 5.26785 3.46576 9.25834
56 2 9.147 6.39214 16.4073
57 2 2.92378 6.82397 10.2748
58 2 2.42068 2.91186 15.2212
59 2 4.49621 1.80814 10.7736
60 2 0.78022 7.67216 14.5217
61 5 5.74817 0.605693 13.7611
62 5 8.44639 9.27299 11.9338
63 5 6.26794 5.69097 16.1562
64 5 8.10776 3.99869 9.47679
65 5 7.7666 0.346941 14.2263
66 5 6.41607 9.4304 11.3019
67 5 4.25638 5.09497 15.6622
68 5 1.09317 4.62174 10.0442
69 3 3.88823 7.61808 10.809
70 3 1.49369 2.00481 14.8096
71 3 3.59044 2.79999 10.5713
72 3 1.86955 6.96505 15.0251
73 3 1.8734 7.11645 11.1481
74 3 3.34856 2.46455 14.3155
75 3 5.51961 2.26024 10.0509
76 3 8.78319 7.348 15.5089
77 6 6.9114 0.323903 13.4224
78 6 7.26164 9.23992 12.1498
79 6 5.13423 5.25214 16.5541
80 6 9.14596 4.56065 9.23448
81 4 4.74749 7.93924 10.2979
82 4 9.39015 2.06568 15.1617
83 4 2.79836 3.02265 11.3382
84 4 2.61087 6.53272 14.3234
85 4 0.834207 6.89899 10.8926
86 4 4.34624 2.6707 14.5957
87 4 6.45221 1.74721 9.75674
88 4 7.86481 7.83933 15.4485
89 1 8.64628 10.205 3.77208
90 1 5.03886 18.863 4.7213
91 1 7.08892 15.0276 0.536344
92 1 6.63048 13.9945 8.04532
93 2 7.73639 18.38 3.19008
94 2 6.08471 10.8209 5.29474
95 2 8.05413 13.3929 1.02046
96 2 5.47687 15.548 7.33852
97 2 6.39732 18.076 3.41279
98 2 7.37053 11.204 4.95871
99 2 0.456553 13.0118 0.710306
100 2 4.33457 16.1691 7.81268
101 2 7.13822 16.5047 1.82685
102 2 6.69185 12.6544 6.61658
103 2 8.53038 11.5788 2.48306
104 2 5.03001 17.4645 6.05227
105 5 1.21055 10.4598 5.24298
106 5 3.64552 18.8702 3.19777
107 5 1.50164 15.2816 7.55748
108 5 3.25846 13.8913 0.991837
109 5 3.08057 10.0236 5.879
110 5 1.59308 19.0483 2.73296
111 5 8.43815 14.8332 7.08756
112 5 5.2197 14.294 1.5005
113 3 8.07964 17.4515 2.1475
114 3 5.73299 11.694 6.34507
115 3 7.68502 12.5957 2.09742
116 3 5.87835 16.4279 6.28602
117 3 6.22679 16.8639 2.74366
118 3 7.74367 12.1899 5.83444
119 3 0.601315 11.9622 1.58438
120 3 3.94217 17.1009 6.88436
121 6 2.3237 10.0986 4.95058
122 6 2.45246 19.2496 3.5274
123 6 0.417103 15.0027 7.83692
124 6 4.36809 14.3121 0.680929
125 4 0.226082 17.1667 2.14552
126 4 4.77544 12.1668 6.36702
127 4 6.58291 12.6152 2.29026
128 4 6.82058 16.5688 5.84917
129 4 5.20538 16.5186 2.90027
130 4 8.57382 12.9413 5.49531
131 4 1.41064 11.2219 1.38956
132 4 3.31431 17.9529 7.23411
133 1 4.44048 10.1851 12.2361
134 1 0.848441 18.8223 13.3667
135 1 2.87799 14.9561 9.08416
136 1 2.41642 14.0356 16.5107
137 2 3.43833 18.3192 11.7128
138 2 1.91561 10.6686 13.9338
139 2 3.88693 13.432 9.62953
140 2 1.4552 15.5231 15.9855
141 2 2.06682 18.0101 12.0481
142 2 3.20344 11.0642 13.5484
143 2 5.20303 13.0711 9.21164
144 2 9.18353 15.9328 16.3964
145 2 2.99727 16.4386 10.3989
146 2 2.43224 12.6571 15.1625
147 2 4.62367 11.6724 11.0459
148 2 0.80805 17.5087 14.7482
149 5 5.98736 10.3053 13.7696
150 5 8.4574 18.8064 11.8022
151 5 6.30028 15.4115 16.1588
152 5 8.17842 13.8353 9.43874
153 5 7.98757 10.0556 14.1871
154 5 6.39469 18.9544 11.3578
155 5 4.41487 15.0035 15.6456
156 5 1.22006 14.0897 9.96293
157 3 3.936 17.3099 10.8915
158 3 1.581 11.5769 14.9304
159 3 3.59528 12.511 10.6386
160 3 1.71509 16.5622 14.9441
161 3 1.9431 16.9592 11.1719
162 3 3.44623 12.134 14.3491
163 3 5.4703 12.0042 10.0242
164 3 8.81239 17.0588 15.6792
165 6 7.03519 9.81898 13.5252
166 6 7.2978 18.9726 12.1159
167 6 5.30844 14.7244 16.3918
168 6 9.18268 14.3491 9.2773
169 4 4.94514 17.4397 10.5376
170 4 9.45379 11.4918 15.302
171 4 3.02651 12.9842 11.4963
172 4 2.73429 16.7852 14.6951
173 4 1.1717 16.2254 11.3216
174 4 4.17962 12.9441 14.1011
175 4 6.41866 11.5649 9.91468
176 4 7.75948 17.4665 15.8276
177 7 7.43757 13.322 14.3648
178 8 7.08896 13.1981 15.2222
179 8 6.71649 13.6557 13.8066
180 7 6.91304 15.5663 12.5126
181 8 6.85243 16.4732 12.7383
182 8 7.84729 15.5619 12.1832
183 7 5.27884 4.87931 12.86
184 8 4.38596 4.84585 13.2217
185 8 5.49656 5.64664 12.3058
186 7 7.17862 5.79811 11.3815
187 8 7.62254 5.70627 12.2112
188 8 7.92558 6.05826 10.8312
189 7 2.84379 5.03748 4.38838
190 8 2.51575 5.90895 4.6578
191 8 2.59243 4.41979 3.6699
192 7 4.62863 2.88965 4.05696
193 8 4.86461 2.68664 3.13254
194 8 5.25149 3.65758 4.08801
ITEM: TIMESTEP
79
ITEM: NUMBER OF ATOMS
194
ITEM: BOX BOUNDS xy xz yz pp pp pp
-4.7668296934730847e-03 9.5496248497108329e+00 0.0000000000000000e+00
-1.0367578463013061e-02 1.9397366678463015e+01 6.3105782001735322e-01
-9.1246754300033928e-03 1.7071939775429982e+01 0.0000000000000000e+00
ITEM: ATOMS id type x y z
1 1 8.73298 0.50492 3.69951
2 1 4.95515 9.2191 4.78421
3 1 7.02907 5.40343 0.436276
4 1 6.62702 4.30755 8.06712
5 2 7.75434 8.68265 3.18785
6 2 6.22984 0.968419 5.45233
7 2 8.06651 3.76274 1.08189
8 2 5.62511 5.96667 7.40885
9 2 6.48336 8.22419 3.64424
10 2 7.33854 1.45427 4.90693
11 2 0.49365 3.4433 0.736072
12 2 4.33639 6.39057 7.83878
13 2 7.13651 6.72079 1.97777
14 2 6.55293 2.81724 6.76434
15 2 8.70826 1.89918 2.39748
16 2 4.90483 7.88105 6.10377
17 5 1.1505 0.786732 5.27997
18 5 3.66392 8.98988 3.27199
19 5 1.48983 5.73319 7.52202
20 5 3.18046 4.15175 1.12914
21 5 3.15747 0.312229 5.74687
22 5 1.63626 9.41847 2.81377
23 5 8.52878 5.00078 7.12585
24 5 5.15308 4.59851 1.48579
25 3 8.07006 7.69943 2.25007
26 3 5.71534 1.83828 6.50598
27 3 7.79904 2.83518 2.1155
28 3 5.87617 6.9245 6.37828
29 3 6.21428 7.08383 2.97991
30 3 7.58603 2.50764 5.77628
31 3 0.789574 2.36976 1.53062
32 3 3.99785 7.39703 7.07555
33 6 2.20054 0.369696 4.88923
34 6 2.5624 9.33749 3.60741
35 6 0.495175 5.22973 7.98484
36 6 4.24994 4.50067 0.700329
37 4 0.202329 7.42253 2.02478
38 4 4.69517 1.91777 6.90611
39 4 6.83093 2.5024 2.43017
40 4 6.86108 7.35605 6.32741
41 4 5.18781 6.74494 2.87099
42 4 8.5658 2.85668 6.12
43 4 1.75072 1.89924 1.40528
44 4 3.15271 8.04842 7.38413
45 1 4.56695 0.532955 12.2996
46 1 0.895452 9.16748 13.2574
47 1 2.99479 5.26584 8.99458
48 1 2.46721 4.30705 16.5596
49 2 3.4668 8.5854 11.6944
50 2 1.75372 1.06865 13.7305
51 2 4.09357 3.86777 9.72796
52 2 1.47785 5.98808 15.9956
53 2 2.11083 8.30313 11.8883
54 2 3.09371 1.23312 13.6653
55 2 5.267 3.4657 9.25945
56 2 9.14735 6.3925 16.4071
57 2 2.92462 6.82257 10.2726
58 2 2.41993 2.91089 15.2194
59 2 4.49628 1.80626 10.7724
60 2 0.779145 7.67346 14.5201
61 5 5.74707 0.603633 13.7611
62 5 8.44619 9.27728 11.9327
63 5 6.2662 5.69257 16.1562
64 5 8.10951 3.99656 9.47634
65 5 7.76458 0.347705 14.2264
66 5 6.41775 9.43092 11.3024
67 5 4.25673 5.09465 15.6629
68 5 1.09288 4.62303 10.0446
69 3 3.88534 7.61706 10.8103
70 3 1.49317 2.005 14.8086
71 3 3.59245 2.79973 10.5705
72 3 1.86902 6.96575 15.0252
73 3 1.873 7.11693 11.1469
74 3 3.34749 2.46281 14.3161
75 3 5.51957 2.26054 10.0502
76 3 8.78473 7.34838 15.5078
77 6 6.91035 0.323023 13.4196
78 6 7.26151 9.23837 12.1516
79 6 5.13128 5.2516 16.5579
80 6 9.1486 4.56169 9.23447
81 4 4.75167 7.94206 10.2982
82 4 9.38793 2.07164 15.157
83 4 2.80433 3.01905 11.3358
84 4 2.61012 6.53057 14.3263
85 4 0.83321 6.90421 10.8843
86 4 4.35083 2.66955 14.6025
87 4 6.44413 1.74045 9.75718
88 4 7.85818 7.84113 15.4479
89 1 8.64626 10.2047 3.77261
90 1 5.03891 18.8632 4.72047
91 1 7.08878 15.0267 0.536472
92 1 6.63103 13.9946 8.04575
93 2 7.73562 18.3801 3.18955
94 2 6.0866 10.8208 5.29355
95 2 8.0539 13.3923 1.02124
96 2 5.47461 15.5459 7.33879
97 2 6.39854 18.0758 3.41089
98 2 7.37166 11.2036 4.9587
99 2 0.455355 13.011 0.710549
100 2 4.33351 16.1684 7.81299
101 2 7.139 16.5027 1.82685
102 2 6.69281 12.657 6.61686
103 2 8.52925 11.5759 2.48398
104 2 5.03025 17.4667 6.04957
105 5 1.21092 10.4606 5.24352
106 5 3.64432 18.8734 3.1959
107 5 1.5014 15.2818 7.55616
108 5 3.25875 13.8924 0.992592
109 5 3.07968 10.0232 5.87938
110 5 1.59376 19.0482 2.73319
111 5 8.4393 14.8327 7.08865
112 5 5.21986 14.2952 1.50117
113 3 8.08014 17.4523 2.14749
114 3 5.73513 11.6961 6.34529
115 3 7.68386 12.5965 2.09694
116 3 5.87642 16.4291 6.28284
117 3 6.2278 16.8664 2.74418
118 3 7.74494 12.1904 5.83445
119 3 0.60096 11.9608 1.58483
120 3 3.94202 17.1025 6.88357
121 6 2.32506 10.0985 4.94908
122 6 2.45255 19.2519 3.5285
123 6 0.415519 15.0036 7.83914
124 6 4.36834 14.3131 0.679775
125 4 0.224524 17.1651 2.15059
126 4 4.77439 12.1722 6.36128
127 4 6.58487 12.6162 2.2828
128 4 6.82601 16.5697 5.84495
129 4 5.20779 16.5207 2.897
130 4 8.5644 12.9338 5.49434
131 4 1.40569 11.2242 1.38674
132 4 3.32024 17.9514 7.23874
133 1 4.43986 10.1843 12.2358
134 1 0.847524 18.8221 13.3669
135 1 2.877 14.9545 9.08441
136 1 2.4164 14.036 16.5103
137 2 3.43795 18.3181 11.7121
138 2 1.91679 10.6672 13.9351
139 2 3.88679 13.4334 9.62973
140 2 1.45399 15.5219 15.9864
141 2 2.06765 18.0093 12.0463
142 2 3.20344 11.0628 13.5482
143 2 5.20352 13.0711 9.21075
144 2 9.18338 15.9316 16.397
145 2 2.99656 16.4375 10.4004
146 2 2.43285 12.6592 15.1631
147 2 4.62477 11.6702 11.0478
148 2 0.808049 17.5112 14.7481
149 5 5.98696 10.3042 13.7703
150 5 8.45647 18.8086 11.8016
151 5 6.30069 15.4134 16.1599
152 5 8.17977 13.8345 9.43938
153 5 7.98843 10.0562 14.1859
154 5 6.39575 18.9525 11.3582
155 5 4.41485 15.0049 15.6459
156 5 1.22068 14.0883 9.96126
157 3 3.93269 17.3104 10.8947
158 3 1.58108 11.5754 14.9305
159 3 3.59433 12.5107 10.6402
160 3 1.71527 16.5624 14.9431
161 3 1.94393 16.9593 11.1703
162 3 3.44698 12.1349 14.3493
163 3 5.47051 12.003 10.0239
164 3 8.81055 17.059 15.6814
165 6 7.03555 9.81584 13.5248
166 6 7.29736 18.9725 12.1176
167 6 5.30957 14.7229 16.3924
168 6 9.18516 14.3516 9.27638
169 4 4.94456 17.4411 10.5442
170 4 9.45339 11.4885 15.2947
171 4 3.03048 12.9864 11.4917
172 4 2.73728 16.7917 14.6939
173 4 1.17087 16.225 11.3198
174 4 4.17522 12.9392 14.0959
175 4 6.4251 11.5623 9.91603
176 4 7.76478 17.4649 15.8323
177 7 7.43932 13.3209 14.3647
178 8 7.09445 13.2011 15.2278
179 8 6.72158 13.6693 13.8107
180 7 6.91354 15.5658 12.5128
181 8 6.84724 16.4767 12.7404
182 8 7.84389 15.5618 12.1784
183 7 5.27789 4.87871 12.8592
184 8 4.38672 4.84498 13.2276
185 8 5.48944 5.63667 12.2891
186 7 7.17952 5.80058 11.383
187 8 7.62085 5.70365 12.2173
188 8 7.92885 6.0535 10.8314
189 7 2.84169 5.0403 4.38684
190 8 2.50552 5.90743 4.65812
191 8 2.60015 4.42188 3.66713
192 7 4.62819 2.89054 4.05347
193 8 4.86763 2.68197 3.13047
194 8 5.2479 3.66128 4.08736
ITEM: TIMESTEP
80
ITEM: NUMBER OF ATOMS
194
ITEM: BOX BOUNDS xy xz yz pp pp pp
-4.7680596084118676e-03 9.5496262535848420e+00 0.0000000000000000e+00
-1.0370253456761347e-02 1.9397369353456767e+01 6.3105799397642548e-01
-9.1270297357670671e-03 1.7071942129735746e+01 0.0000000000000000e+00
ITEM: ATOMS id type x y z
1 1 8.73399 0.504664 3.69901
2 1 4.95424 9.2201 4.78426
3 1 7.02816 5.40353 0.435527
4 1 6.62772 4.30776 8.06798
5 2 7.75473 8.68298 3.18936
6 2 6.23159 0.965356 5.45337
7 2 8.06634 3.76391 1.08144
8 2 5.62379 5.96823 7.40841
9 2 6.48359 8.22509 3.6456
10 2 7.33758 1.45281 4.90782
11 2 0.49421 3.44405 0.736549
12 2 4.3366 6.39236 7.83715
13 2 7.13759 6.71801 1.97862
14 2 6.55286 2.81775 6.76591
15 2 8.7081 1.89813 2.39759
16 2 4.90385 7.88264 6.1056
17 5 1.1508 0.787332 5.28082
18 5 3.66334 8.99041 3.2712
19 5 1.49047 5.73553 7.52202
20 5 3.18047 4.15273 1.13054
21 5 3.15577 0.312387 5.74569
22 5 1.63841 9.4185 2.81491
23 5 8.52961 4.99884 7.12625
24 5 5.15148 4.59949 1.48547
25 3 8.07045 7.69835 2.25012
26 3 5.71941 1.83646 6.50664
27 3 7.80158 2.83349 2.11587
28 3 5.87354 6.92645 6.37814
29 3 6.21572 7.08272 2.98156
30 3 7.58662 2.51018 5.77852
31 3 0.789953 2.36962 1.53137
32 3 3.99905 7.39725 7.07546
33 6 2.20225 0.369524 4.88751
34 6 2.56151 9.33859 3.6097
35 6 0.49238 5.22936 7.98611
36 6 4.25069 4.50108 0.701017
37 4 0.198809 7.42475 2.03144
38 4 4.69971 1.91451 6.90423
39 4 6.83125 2.49672 2.42689
40 4 6.86152 7.36095 6.33007
41 4 5.18677 6.74418 2.87663
42 4 8.56798 2.85721 6.11872
43 4 1.75361 1.89647 1.40475
44 4 3.15852 8.04417 7.3902
45 1 4.56753 0.532701 12.2998
46 1 0.895284 9.16765 13.2565
47 1 2.99525 5.26448 8.99387
48 1 2.46763 4.30738 16.56
49 2 3.46475 8.58364 11.6926
50 2 1.75447 1.06974 13.7313
51 2 4.09571 3.86785 9.72864
52 2 1.47676 5.98897 15.9954
53 2 2.11022 8.30431 11.8871
54 2 3.09236 1.2329 13.6665
55 2 5.26621 3.46551 9.26062
56 2 9.14766 6.39284 16.4068
57 2 2.92542 6.82115 10.2703
58 2 2.41919 2.90991 15.2176
59 2 4.49636 1.80437 10.7712
60 2 0.778116 7.67476 14.5186
61 5 5.746 0.601561 13.7612
62 5 8.44601 9.28157 11.9315
63 5 6.26439 5.69414 16.1564
64 5 8.11125 3.99443 9.47586
65 5 7.76264 0.348484 14.2265
66 5 6.41941 9.43145 11.3028
67 5 4.25711 5.09434 15.6637
68 5 1.09263 4.62433 10.0451
69 3 3.88246 7.6161 10.8115
70 3 1.49261 2.00511 14.8075
71 3 3.59448 2.79957 10.5697
72 3 1.86846 6.96636 15.0253
73 3 1.87263 7.11748 11.1457
74 3 3.34643 2.46103 14.3167
75 3 5.51957 2.26098 10.0494
76 3 8.78632 7.3488 15.5067
77 6 6.90925 0.322161 13.4168
78 6 7.2614 9.23683 12.1533
79 6 5.12833 5.25113 16.5615
80 6 9.15126 4.56269 9.23454
81 4 4.75611 7.94464 10.2981
82 4 9.38573 2.07776 15.1523
83 4 2.81053 3.01529 11.3331
84 4 2.60927 6.52878 14.3292
85 4 0.832353 6.90947 10.876
86 4 4.35575 2.66844 14.6093
87 4 6.43577 1.73341 9.75785
88 4 7.85106 7.84295 15.4477
89 1 8.64624 10.2044 3.77316
90 1 5.03895 18.8635 4.71965
91 1 7.08865 15.0259 0.536608
92 1 6.63158 13.9946 8.04618
93 2 7.73484 18.3801 3.18896
94 2 6.08848 10.8207 5.29243
95 2 8.05373 13.3917 1.02207
96 2 5.47239 15.5439 7.33898
97 2 6.3998 18.0756 3.40899
98 2 7.37279 11.2031 4.95871
99 2 0.454078 13.0102 0.710834
100 2 4.3324 16.1677 7.8133
101 2 7.1398 16.5007 1.82688
102 2 6.69378 12.6596 6.61712
103 2 8.52812 11.5731 2.48483
104 2 5.03042 17.469 6.0469
105 5 1.21127 10.4613 5.24404
106 5 3.64304 18.8766 3.19407
107 5 1.50123 15.2821 7.55479
108 5 3.25904 13.8934 0.993338
109 5 3.07885 10.0228 5.87974
110 5 1.59439 19.0481 2.73344
111 5 8.4404 14.8323 7.08971
112 5 5.22007 14.2964 1.50185
113 3 8.08065 17.453 2.14755
114 3 5.73732 11.6983 6.34548
115 3 7.68265 12.5973 2.09645
116 3 5.87444 16.4302 6.27971
117 3 6.22874 16.869 2.74475
118 3 7.74622 12.191 5.83445
119 3 0.600662 11.9593 1.58531
120 3 3.94195 17.1042 6.88277
121 6 2.32638 10.0985 4.94762
122 6 2.45283 19.2542 3.52951
123 6 0.4139 15.0045 7.84149
124 6 4.3685 14.314 0.678711
125 4 0.222722 17.1634 2.15546
126 4 4.77299 12.1773 6.35549
127 4 6.58724 12.6168 2.27556
128 4 6.83195 16.5702 5.84081
129 4 5.21027 16.5224 2.8933
130 4 8.55442 12.9258 5.49364
131 4 1.4006 11.2269 1.38389
132 4 3.32623 17.9495 7.24338
133 1 4.43926 10.1836 12.2356
134 1 0.846599 18.8219 13.3672
135 1 2.87601 14.9529 9.08465
136 1 2.41639 14.0363 16.5099
137 2 3.43751 18.317 11.7114
138 2 1.91802 10.6658 13.9363
139 2 3.88675 13.4347 9.62996
140 2 1.45284 15.5208 15.9871
141 2 2.06863 18.0085 12.0445
142 2 3.20338 11.0613 13.548
143 2 5.20394 13.0712 9.20991
144 2 9.18313 15.9305 16.3976
145 2 2.99584 16.4364 10.4019
146 2 2.43346 12.6613 15.1637
147 2 4.62582 11.6681 11.0497
148 2 0.808015 17.5137 14.7481
149 5 5.98651 10.3032 13.7711
150 5 8.45553 18.8109 11.801
151 5 6.3011 15.4153 16.1611
152 5 8.18102 13.8337 9.44005
153 5 7.98935 10.0568 14.1847
154 5 6.39677 18.9506 11.3586
155 5 4.41477 15.0063 15.6462
156 5 1.22134 14.0869 9.95959
157 3 3.92936 17.311 10.8978
158 3 1.58112 11.5738 14.9306
159 3 3.59338 12.5105 10.6419
160 3 1.71548 16.5624 14.9422
161 3 1.94473 16.9593 11.1686
162 3 3.44775 12.1358 14.3495
163 3 5.47074 12.0018 10.0236
164 3 8.80869 17.0591 15.6835
165 6 7.03588 9.81268 13.5244
166 6 7.29691 18.9724 12.1193
167 6 5.31075 14.7216 16.3929
168 6 9.1877 14.3543 9.2754
169 4 4.94392 17.442 10.5505
170 4 9.45336 11.4855 15.2873
171 4 3.03451 12.9881 11.4867
172 4 2.74041 16.7982 14.6927
173 4 1.16979 16.2248 11.3181
174 4 4.17081 12.9337 14.0905
175 4 6.43186 11.5594 9.91748
176 4 7.77063 17.4633 15.8368
177 7 7.44108 13.3199 14.3645
178 8 7.09968 13.2039 15.2337
179 8 6.72688 13.6829 13.815
180 7 6.91408 15.5654 12.513
181 8 6.84184 16.4805 12.7425
182 8 7.83998 15.5614 12.1737
183 7 5.27694 4.8781 12.8584
184 8 4.38769 4.84443 13.2333
185 8 5.48196 5.6265 12.2725
186 7 7.18043 5.80307 11.3844
187 8 7.61914 5.7009 12.2238
188 8 7.93193 6.04869 10.8315
189 7 2.83961 5.04311 4.38533
190 8 2.49498 5.90548 4.65789
191 8 2.6077 4.42471 3.66462
192 7 4.62778 2.89146 4.04993
193 8 4.87034 2.67712 3.12857
194 8 5.24386 3.66475 4.08703
ITEM: TIMESTEP
81
ITEM: NUMBER OF ATOMS
194
ITEM: BOX BOUNDS xy xz yz pp pp pp
-4.7632068291294516e-03 9.5496207144288405e+00 0.0000000000000000e+00
-1.0359698942920659e-02 1.9397358798942928e+01 6.3105730759970502e-01
-9.1177405354532226e-03 1.7071932840535432e+01 0.0000000000000000e+00
ITEM: ATOMS id type x y z
1 1 8.73499 0.504425 3.69852
2 1 4.95333 9.2211 4.78431
3 1 7.02725 5.40364 0.434796
4 1 6.62842 4.30798 8.06886
5 2 7.75505 8.68323 3.19088
6 2 6.2332 0.962308 5.45448
7 2 8.06622 3.76505 1.08101
8 2 5.6224 5.96988 7.40794
9 2 6.48385 8.22603 3.64695
10 2 7.3367 1.4514 4.90878
11 2 0.494711 3.44482 0.737072
12 2 4.33688 6.39405 7.83553
13 2 7.13866 6.71527 1.97955
14 2 6.55289 2.81829 6.7674
15 2 8.708 1.8971 2.39766
16 2 4.90288 7.88419 6.10752
17 5 1.15106 0.787937 5.28164
18 5 3.66279 8.99094 3.27042
19 5 1.49116 5.73786 7.52208
20 5 3.18046 4.15373 1.13191
21 5 3.15403 0.312555 5.74443
22 5 1.64056 9.41852 2.81605
23 5 8.53044 4.99691 7.12669
24 5 5.14991 4.60048 1.48517
25 3 8.07086 7.69727 2.25016
26 3 5.72351 1.83458 6.50722
27 3 7.80409 2.83183 2.11622
28 3 5.8709 6.92841 6.37804
29 3 6.21716 7.08158 2.98312
30 3 7.58713 2.51277 5.78087
31 3 0.790311 2.36948 1.53216
32 3 4.00023 7.39757 7.07528
33 6 2.20409 0.369387 4.886
34 6 2.56059 9.33971 3.61198
35 6 0.489463 5.22902 7.98714
36 6 4.2515 4.50147 0.701839
37 4 0.195103 7.42722 2.03817
38 4 4.70432 1.91097 6.90218
39 4 6.83126 2.49137 2.42345
40 4 6.86214 7.36562 6.33268
41 4 5.18573 6.74339 2.88245
42 4 8.57028 2.85754 6.11696
43 4 1.75652 1.89354 1.40431
44 4 3.1645 8.03975 7.39623
45 1 4.56809 0.532451 12.3001
46 1 0.895112 9.16782 13.2556
47 1 2.99571 5.26315 8.99316
48 1 2.46804 4.30772 16.5604
49 2 3.46266 8.58184 11.6907
50 2 1.75523 1.0709 13.7321
51 2 4.09773 3.86788 9.72937
52 2 1.47568 5.9899 15.9952
53 2 2.10964 8.30545 11.886
54 2 3.09104 1.23277 13.6677
55 2 5.26547 3.46519 9.26184
56 2 9.14793 6.39316 16.4065
57 2 2.92619 6.81972 10.2682
58 2 2.41845 2.90891 15.2156
59 2 4.49642 1.80248 10.7701
60 2 0.777134 7.67607 14.5171
61 5 5.74496 0.599479 13.7612
62 5 8.44583 9.28587 11.9302
63 5 6.2625 5.69568 16.1565
64 5 8.11297 3.9923 9.47537
65 5 7.76075 0.349278 14.2266
66 5 6.42105 9.43197 11.3032
67 5 4.2575 5.09404 15.6644
68 5 1.09244 4.62565 10.0456
69 3 3.87959 7.6152 10.8128
70 3 1.49198 2.00516 14.8064
71 3 3.59655 2.79951 10.5688
72 3 1.86788 6.96686 15.0254
73 3 1.8723 7.1181 11.1444
74 3 3.34538 2.45922 14.3174
75 3 5.51961 2.26158 10.0485
76 3 8.78795 7.34926 15.5055
77 6 6.90809 0.321319 13.414
78 6 7.26131 9.23529 12.1551
79 6 5.12539 5.25073 16.5648
80 6 9.15392 4.56367 9.23471
81 4 4.76076 7.94695 10.2976
82 4 9.38355 2.08405 15.1476
83 4 2.8169 3.0114 11.3301
84 4 2.60832 6.52737 14.3322
85 4 0.83165 6.91477 10.8676
86 4 4.36091 2.66735 14.616
87 4 6.42718 1.7261 9.75873
88 4 7.84353 7.84474 15.4476
89 1 8.64623 10.204 3.77371
90 1 5.039 18.8637 4.71883
91 1 7.08852 15.0251 0.536751
92 1 6.63212 13.9946 8.04661
93 2 7.73403 18.38 3.18831
94 2 6.09034 10.8206 5.2914
95 2 8.05361 13.3911 1.02295
96 2 5.47021 15.542 7.33909
97 2 6.40111 18.0753 3.40709
98 2 7.37393 11.2027 4.95874
99 2 0.452723 13.0095 0.711161
100 2 4.33124 16.1669 7.81361
101 2 7.14063 16.4987 1.82695
102 2 6.69475 12.6622 6.61735
103 2 8.52699 11.5703 2.4856
104 2 5.03053 17.4713 6.04427
105 5 1.21162 10.4621 5.24455
106 5 3.64168 18.8798 3.19228
107 5 1.50113 15.2823 7.55339
108 5 3.25934 13.8945 0.994075
109 5 3.07808 10.0224 5.88007
110 5 1.59497 19.048 2.7337
111 5 8.44146 14.8319 7.09073
112 5 5.22033 14.2976 1.50256
113 3 8.08118 17.4539 2.14767
114 3 5.73956 11.7005 6.34562
115 3 7.68138 12.5981 2.09596
116 3 5.87241 16.4313 6.27664
117 3 6.2296 16.8717 2.74537
118 3 7.74748 12.1916 5.83444
119 3 0.600416 11.9577 1.58581
120 3 3.94197 17.106 6.88198
121 6 2.32765 10.0985 4.94622
122 6 2.45332 19.2563 3.5304
123 6 0.412252 15.0053 7.84394
124 6 4.36858 14.3148 0.677741
125 4 0.220697 17.1617 2.16016
126 4 4.77129 12.1821 6.34965
127 4 6.58999 12.617 2.26853
128 4 6.83831 16.5704 5.83676
129 4 5.21281 16.5238 2.8892
130 4 8.54398 12.9173 5.49317
131 4 1.39542 11.2299 1.38101
132 4 3.33225 17.9473 7.24804
133 1 4.43866 10.1828 12.2353
134 1 0.845665 18.8217 13.3674
135 1 2.87503 14.9513 9.08489
136 1 2.41639 14.0367 16.5095
137 2 3.43702 18.3159 11.7108
138 2 1.9193 10.6645 13.9376
139 2 3.88679 13.436 9.63021
140 2 1.45175 15.5199 15.9877
141 2 2.06976 18.0077 12.0426
142 2 3.20327 11.0599 13.5478
143 2 5.2043 13.0712 9.20912
144 2 9.18278 15.9294 16.3982
145 2 2.9951 16.4353 10.4036
146 2 2.43407 12.6632 15.1641
147 2 4.62681 11.6659 11.0515
148 2 0.807945 17.5162 14.7481
149 5 5.986 10.3021 13.7719
150 5 8.45459 18.8131 11.8004
151 5 6.30151 15.417 16.1622
152 5 8.18217 13.8329 9.44077
153 5 7.99032 10.0573 14.1835
154 5 6.39775 18.9486 11.359
155 5 4.41463 15.0076 15.6465
156 5 1.22202 14.0855 9.95791
157 3 3.926 17.3116 10.901
158 3 1.58113 11.5723 14.9306
159 3 3.59243 12.5104 10.6436
160 3 1.71573 16.5622 14.9414
161 3 1.94552 16.9593 11.1669
162 3 3.44853 12.1369 14.3498
163 3 5.47101 12.0007 10.0233
164 3 8.80681 17.0592 15.6856
165 6 7.03618 9.80951 13.524
166 6 7.29645 18.9723 12.1211
167 6 5.31198 14.7203 16.3932
168 6 9.19029 14.3569 9.27435
169 4 4.94321 17.4426 10.5565
170 4 9.45369 11.4829 15.2801
171 4 3.03856 12.9896 11.4814
172 4 2.74362 16.8045 14.6913
173 4 1.16848 16.2248 11.3165
174 4 4.16642 12.9279 14.0849
175 4 6.43888 11.5564 9.91905
176 4 7.77695 17.4618 15.8412
177 7 7.44285 13.3188 14.3643
178 8 7.10469 13.2068 15.2398
179 8 6.7324 13.6966 13.8196
180 7 6.91465 15.5649 12.5132
181 8 6.83626 16.4846 12.7449
182 8 7.83559 15.5608 12.1691
183 7 5.27599 4.87749 12.8575
184 8 4.38889 4.84422 13.2389
185 8 5.47415 5.61612 12.256
186 7 7.18135 5.80559 11.3859
187 8 7.61737 5.69805 12.2305
188 8 7.9348 6.04381 10.8315
189 7 2.83758 5.04591 4.38385
190 8 2.48414 5.9031 4.65712
191 8 2.61506 4.42825 3.66234
192 7 4.62741 2.89243 4.04636
193 8 4.87275 2.67211 3.12685
194 8 5.23938 3.668 4.087
ITEM: TIMESTEP
82
ITEM: NUMBER OF ATOMS
194
ITEM: BOX BOUNDS xy xz yz pp pp pp
-4.7522887242337220e-03 9.5496082520680456e+00 0.0000000000000000e+00
-1.0335952697207773e-02 1.9397335052697215e+01 6.3105576334380631e-01
-9.0968410760865481e-03 1.7071911941076067e+01 0.0000000000000000e+00
ITEM: ATOMS id type x y z
1 1 8.73598 0.504204 3.69803
2 1 4.95243 9.2221 4.78437
3 1 7.02634 5.40376 0.434083
4 1 6.62911 4.30822 8.06973
5 2 7.75531 8.6834 3.19243
6 2 6.23468 0.959276 5.45566
7 2 8.06617 3.76614 1.08061
8 2 5.62096 5.97162 7.40743
9 2 6.48413 8.22701 3.64827
10 2 7.3359 1.45004 4.9098
11 2 0.495151 3.4456 0.73764
12 2 4.33722 6.39565 7.83391
13 2 7.13971 6.71256 1.98055
14 2 6.55303 2.81885 6.76883
15 2 8.70797 1.89609 2.39768
16 2 4.90192 7.88568 6.10954
17 5 1.15129 0.788547 5.28244
18 5 3.66225 8.99148 3.26965
19 5 1.49188 5.74018 7.52221
20 5 3.18042 4.15474 1.13326
21 5 3.15225 0.312731 5.74309
22 5 1.6427 9.41853 2.81721
23 5 8.53128 4.99499 7.12718
24 5 5.14837 4.60149 1.48489
25 3 8.07129 7.69618 2.25021
26 3 5.72763 1.83265 6.50773
27 3 7.80656 2.83021 2.11657
28 3 5.86827 6.93037 6.37796
29 3 6.21861 7.08043 2.98458
30 3 7.58754 2.51539 5.78332
31 3 0.790653 2.36933 1.53298
32 3 4.00137 7.39802 7.07502
33 6 2.20604 0.369287 4.88469
34 6 2.55964 9.34084 3.61425
35 6 0.486434 5.22871 7.98792
36 6 4.25235 4.50184 0.702796
37 4 0.191273 7.42992 2.04494
38 4 4.70896 1.90713 6.89998
39 4 6.83098 2.48635 2.41984
40 4 6.8629 7.37005 6.33525
41 4 5.18471 6.74255 2.88843
42 4 8.57268 2.85768 6.11472
43 4 1.75941 1.89047 1.40398
44 4 3.1706 8.03521 7.40222
45 1 4.56865 0.532207 12.3004
46 1 0.894937 9.16798 13.2547
47 1 2.99617 5.26183 8.99244
48 1 2.46846 4.30808 16.5608
49 2 3.46052 8.58001 11.6888
50 2 1.75598 1.07212 13.7331
51 2 4.09964 3.86786 9.73015
52 2 1.4746 5.99089 15.9949
53 2 2.1091 8.30654 11.8849
54 2 3.08976 1.23273 13.6688
55 2 5.26479 3.46476 9.26311
56 2 9.14816 6.39348 16.4061
57 2 2.92693 6.81827 10.266
58 2 2.41771 2.9079 15.2136
59 2 4.49648 1.80058 10.769
60 2 0.776203 7.67738 14.5157
61 5 5.74396 0.597385 13.7611
62 5 8.44565 9.29018 11.9289
63 5 6.26053 5.69719 16.1567
64 5 8.11469 3.99017 9.47485
65 5 7.75892 0.350088 14.2268
66 5 6.42265 9.43249 11.3037
67 5 4.25791 5.09375 15.6653
68 5 1.0923 4.62697 10.0461
69 3 3.87673 7.61437 10.814
70 3 1.4913 2.00513 14.8052
71 3 3.59866 2.79956 10.5679
72 3 1.86725 6.96727 15.0256
73 3 1.872 7.11879 11.1432
74 3 3.34437 2.45739 14.3181
75 3 5.51968 2.26232 10.0474
76 3 8.78961 7.34977 15.5042
77 6 6.90688 0.320501 13.4112
78 6 7.26124 9.23375 12.1569
79 6 5.12246 5.25041 16.5678
80 6 9.15659 4.56462 9.23496
81 4 4.76552 7.94897 10.2969
82 4 9.3814 2.09049 15.1429
83 4 2.8234 3.00739 11.3269
84 4 2.60728 6.52632 14.3351
85 4 0.831112 6.9201 10.8593
86 4 4.36623 2.66625 14.6225
87 4 6.4184 1.71853 9.75979
88 4 7.83568 7.84646 15.4479
89 1 8.64621 10.2037 3.77428
90 1 5.03905 18.8639 4.71801
91 1 7.08838 15.0243 0.536901
92 1 6.63265 13.9945 8.04704
93 2 7.7332 18.3799 3.18758
94 2 6.09218 10.8206 5.29044
95 2 8.05354 13.3904 1.02388
96 2 5.46808 15.5402 7.33912
97 2 6.40245 18.075 3.4052
98 2 7.37508 11.2022 4.95878
99 2 0.451291 13.0087 0.711529
100 2 4.33004 16.166 7.8139
101 2 7.14148 16.4967 1.82705
102 2 6.69573 12.6647 6.61756
103 2 8.52585 11.5675 2.48628
104 2 5.03057 17.4735 6.04168
105 5 1.21195 10.4629 5.24504
106 5 3.64023 18.883 3.19053
107 5 1.50111 15.2825 7.55195
108 5 3.25963 13.8956 0.994802
109 5 3.07737 10.0219 5.88037
110 5 1.59549 19.0479 2.73398
111 5 8.44248 14.8314 7.09172
112 5 5.22064 14.2988 1.50329
113 3 8.08172 17.4547 2.14786
114 3 5.74182 11.7027 6.34572
115 3 7.68008 12.5989 2.09546
116 3 5.87033 16.4324 6.27362
117 3 6.2304 16.8744 2.74603
118 3 7.74873 12.1923 5.83441
119 3 0.600216 11.9561 1.58634
120 3 3.94208 17.1078 6.88119
121 6 2.32889 10.0986 4.94487
122 6 2.454 19.2584 3.53118
123 6 0.410584 15.006 7.84651
124 6 4.36858 14.3155 0.67687
125 4 0.21847 17.16 2.16467
126 4 4.76936 12.1866 6.34377
127 4 6.59305 12.6169 2.26175
128 4 6.845 16.5701 5.83286
129 4 5.21537 16.5247 2.88469
130 4 8.53321 12.9084 5.49289
131 4 1.39019 11.2331 1.37809
132 4 3.33826 17.9448 7.25271
133 1 4.43808 10.1821 12.2351
134 1 0.844723 18.8215 13.3676
135 1 2.87404 14.9497 9.08512
136 1 2.4164 14.037 16.5091
137 2 3.43647 18.3148 11.7102
138 2 1.92063 10.6632 13.9388
139 2 3.88692 13.4373 9.63047
140 2 1.45073 15.519 15.9882
141 2 2.07102 18.0068 12.0407
142 2 3.20312 11.0585 13.5476
143 2 5.20459 13.0712 9.2084
144 2 9.18232 15.9282 16.3987
145 2 2.99434 16.4343 10.4052
146 2 2.43469 12.6651 15.1646
147 2 4.62776 11.6638 11.0532
148 2 0.807838 17.5187 14.7481
149 5 5.98544 10.3011 13.7727
150 5 8.45365 18.8153 11.7998
151 5 6.30191 15.4188 16.1634
152 5 8.18324 13.832 9.44152
153 5 7.99133 10.0579 14.1824
154 5 6.39869 18.9467 11.3594
155 5 4.41443 15.0088 15.6468
156 5 1.22273 14.0841 9.95622
157 3 3.92262 17.3122 10.9041
158 3 1.58111 11.5707 14.9306
159 3 3.59149 12.5103 10.6454
160 3 1.71602 16.5619 14.9407
161 3 1.94629 16.9591 11.1651
162 3 3.44931 12.138 14.3501
163 3 5.4713 11.9995 10.023
164 3 8.80493 17.0593 15.6877
165 6 7.03645 9.80633 13.5236
166 6 7.29598 18.9722 12.1229
167 6 5.31328 14.7191 16.3934
168 6 9.19292 14.3596 9.27325
169 4 4.94239 17.4428 10.5623
170 4 9.45436 11.4807 15.2729
171 4 3.0426 12.9908 11.4759
172 4 2.74689 16.8108 14.6899
173 4 1.16694 16.2249 11.315
174 4 4.16212 12.9216 14.0791
175 4 6.44608 11.5533 9.92072
176 4 7.78367 17.4603 15.8454
177 7 7.44462 13.3177 14.364
178 8 7.10949 13.2096 15.246
179 8 6.73813 13.7102 13.8244
180 7 6.91525 15.5644 12.5134
181 8 6.83052 16.4889 12.7473
182 8 7.83078 15.56 12.1646
183 7 5.27504 4.87687 12.8567
184 8 4.39031 4.84434 13.2442
185 8 5.46599 5.60553 12.2397
186 7 7.18228 5.80814 11.3874
187 8 7.61551 5.6951 12.2373
188 8 7.93747 6.03887 10.8314
189 7 2.83558 5.04872 4.38239
190 8 2.47299 5.90033 4.65581
191 8 2.62221 4.43247 3.66028
192 7 4.62707 2.89344 4.04274
193 8 4.87487 2.66696 3.12533
194 8 5.23446 3.67101 4.08726
ITEM: TIMESTEP
83
ITEM: NUMBER OF ATOMS
194
ITEM: BOX BOUNDS xy xz yz pp pp pp
-4.7353467834252427e-03 9.5495889138604610e+00 0.0000000000000000e+00
-1.0299104957319116e-02 1.9397298204957330e+01 6.3105336707702941e-01
-9.0644107773414362e-03 1.7071879510777322e+01 0.0000000000000000e+00
ITEM: ATOMS id type x y z
1 1 8.73696 0.504 3.69756
2 1 4.95152 9.2231 4.78444
3 1 7.02542 5.40388 0.433387
4 1 6.62981 4.30846 8.07061
5 2 7.75551 8.68348 3.194
6 2 6.23601 0.95626 5.45692
7 2 8.06617 3.76719 1.08025
8 2 5.61945 5.97345 7.40688
9 2 6.48444 8.22803 3.64958
10 2 7.33519 1.44873 4.91089
11 2 0.49553 3.4464 0.738254
12 2 4.33763 6.39714 7.8323
13 2 7.14074 6.70989 1.98164
14 2 6.55327 2.81943 6.77019
15 2 8.70802 1.8951 2.39764
16 2 4.90096 7.88713 6.11166
17 5 1.15149 0.789161 5.28321
18 5 3.66172 8.99201 3.2689
19 5 1.49263 5.74249 7.52241
20 5 3.18036 4.15577 1.13458
21 5 3.15043 0.312916 5.74168
22 5 1.64483 9.41854 2.81838
23 5 8.53213 4.99308 7.12772
24 5 5.14687 4.60251 1.48462
25 3 8.07174 7.6951 2.25025
26 3 5.73179 1.83067 6.50815
27 3 7.809 2.82861 2.1169
28 3 5.86565 6.93232 6.37793
29 3 6.22005 7.07926 2.98596
30 3 7.58787 2.51805 5.78587
31 3 0.790982 2.36918 1.53384
32 3 4.00248 7.39857 7.07466
33 6 2.2081 0.369227 4.8836
34 6 2.55866 9.34198 3.61649
35 6 0.483308 5.22843 7.98846
36 6 4.25324 4.50218 0.703885
37 4 0.187385 7.43281 2.05175
38 4 4.71363 1.90301 6.89763
39 4 6.83043 2.48168 2.41606
40 4 6.86376 7.37423 6.33778
41 4 5.18373 6.74167 2.89459
42 4 8.57518 2.85762 6.11202
43 4 1.76224 1.88729 1.40375
44 4 3.17679 8.03058 7.40817
45 1 4.56921 0.531968 12.3006
46 1 0.894758 9.16815 13.2537
47 1 2.99663 5.26053 8.99173
48 1 2.46889 4.30845 16.5612
49 2 3.45834 8.57816 11.6869
50 2 1.75674 1.0734 13.7341
51 2 4.10144 3.86779 9.73096
52 2 1.47352 5.99192 15.9945
53 2 2.10858 8.30757 11.8837
54 2 3.08853 1.2328 13.6699
55 2 5.26418 3.4642 9.26442
56 2 9.14835 6.39378 16.4057
57 2 2.92763 6.81681 10.2639
58 2 2.41698 2.90687 15.2116
59 2 4.49654 1.79869 10.768
60 2 0.775324 7.67868 14.5143
61 5 5.74299 0.595279 13.7611
62 5 8.44549 9.29449 11.9275
63 5 6.25848 5.69868 16.157
64 5 8.1164 3.98804 9.47432
65 5 7.75715 0.350912 14.227
66 5 6.42423 9.43301 11.3041
67 5 4.25834 5.09346 15.6662
68 5 1.09222 4.62831 10.0467
69 3 3.8739 7.61361 10.8152
70 3 1.49057 2.00504 14.804
71 3 3.60081 2.7997 10.567
72 3 1.86659 6.96759 15.0257
73 3 1.87174 7.11956 11.1419
74 3 3.34338 2.45553 14.3188
75 3 5.51979 2.26321 10.0463
76 3 8.79129 7.35033 15.5029
77 6 6.90561 0.319709 13.4085
78 6 7.26121 9.23222 12.1587
79 6 5.11956 5.25017 16.5706
80 6 9.15924 4.56553 9.23531
81 4 4.77034 7.95066 10.2959
82 4 9.37928 2.09708 15.1381
83 4 2.82998 3.00328 11.3234
84 4 2.60616 6.52564 14.3381
85 4 0.83075 6.92548 10.8509
86 4 4.37163 2.66513 14.6289
87 4 6.40947 1.71069 9.761
88 4 7.82762 7.84808 15.4483
89 1 8.64619 10.2034 3.77485
90 1 5.03909 18.8641 4.71719
91 1 7.08825 15.0234 0.537059
92 1 6.63319 13.9945 8.04747
93 2 7.73236 18.3796 3.18678
94 2 6.094 10.8206 5.28956
95 2 8.05351 13.3898 1.02486
96 2 5.46599 15.5385 7.33907
97 2 6.40383 18.0746 3.40331
98 2 7.37623 11.2016 4.95885
99 2 0.449785 13.0079 0.711939
100 2 4.3288 16.165 7.81419
101 2 7.14236 16.4946 1.8272
102 2 6.69672 12.6672 6.61774
103 2 8.52471 11.5648 2.48689
104 2 5.03054 17.4757 6.03914
105 5 1.21227 10.4637 5.24552
106 5 3.6387 18.8863 3.18882
107 5 1.50116 15.2828 7.55048
108 5 3.25993 13.8967 0.995518
109 5 3.07673 10.0214 5.88064
110 5 1.59596 19.0478 2.73429
111 5 8.44346 14.8309 7.09268
112 5 5.221 14.3001 1.50403
113 3 8.08227 17.4556 2.14812
114 3 5.74412 11.7049 6.34577
115 3 7.67873 12.5997 2.09496
116 3 5.86823 16.4335 6.27067
117 3 6.23112 16.8772 2.74673
118 3 7.74995 12.193 5.83439
119 3 0.600057 11.9544 1.5869
120 3 3.94229 17.1096 6.88039
121 6 2.33008 10.0986 4.94359
122 6 2.45488 19.2603 3.53185
123 6 0.408901 15.0067 7.84919
124 6 4.36851 14.3162 0.676102
125 4 0.216065 17.1582 2.16899
126 4 4.76724 12.1907 6.33786
127 4 6.59636 12.6164 2.25522
128 4 6.85194 16.5694 5.82912
129 4 5.21794 16.5253 2.87981
130 4 8.52222 12.8993 5.49275
131 4 1.38495 11.2364 1.37513
132 4 3.34425 17.942 7.2574
133 1 4.43751 10.1813 12.2348
134 1 0.843773 18.8213 13.3678
135 1 2.87307 14.9481 9.08534
136 1 2.41642 14.0373 16.5087
137 2 3.43586 18.3136 11.7096
138 2 1.92202 10.6619 13.9401
139 2 3.88713 13.4385 9.63076
140 2 1.44976 15.5183 15.9885
141 2 2.07243 18.0059 12.0387
142 2 3.20291 11.057 13.5474
143 2 5.20481 13.0712 9.20773
144 2 9.18176 15.9271 16.3993
145 2 2.99357 16.4333 10.407
146 2 2.4353 12.6668 15.1649
147 2 4.62865 11.6617 11.0548
148 2 0.807693 17.5211 14.7481
149 5 5.98483 10.3001 13.7735
150 5 8.45271 18.8175 11.7991
151 5 6.30232 15.4205 16.1647
152 5 8.18423 13.8311 9.4423
153 5 7.99239 10.0585 14.1812
154 5 6.39959 18.9447 11.3597
155 5 4.41418 15.0101 15.6471
156 5 1.22347 14.0827 9.95454
157 3 3.91924 17.3128 10.9071
158 3 1.58106 11.5691 14.9306
159 3 3.59057 12.5102 10.6472
160 3 1.71636 16.5615 14.9401
161 3 1.94704 16.9588 11.1634
162 3 3.45009 12.1392 14.3505
163 3 5.47164 11.9982 10.0227
164 3 8.80305 17.0593 15.6898
165 6 7.03668 9.80314 13.5231
166 6 7.29551 18.9721 12.1247
167 6 5.31462 14.718 16.3935
168 6 9.19559 14.3624 9.2721
169 4 4.94146 17.4425 10.5678
170 4 9.45533 11.4788 15.2657
171 4 3.04659 12.9917 11.4701
172 4 2.75015 16.817 14.6885
173 4 1.1652 16.2252 11.3136
174 4 4.15795 12.9151 14.0731
175 4 6.4534 11.5501 9.92251
176 4 7.79069 17.459 15.8496
177 7 7.44639 13.3167 14.3637
178 8 7.11413 13.2124 15.2523
179 8 6.74407 13.7239 13.8294
180 7 6.91588 15.5639 12.5135
181 8 6.82464 16.4932 12.7497
182 8 7.82559 15.5591 12.1603
183 7 5.27409 4.87625 12.8559
184 8 4.39196 4.84479 13.2493
185 8 5.45749 5.59472 12.2236
186 7 7.18323 5.81071 11.3888
187 8 7.61352 5.69207 12.2442
188 8 7.93993 6.03386 10.8313
189 7 2.83361 5.05152 4.38096
190 8 2.46153 5.89718 4.65396
191 8 2.62913 4.43736 3.6584
192 7 4.62675 2.89449 4.03907
193 8 4.87671 2.66168 3.12401
194 8 5.22912 3.67379 4.08779
ITEM: TIMESTEP
84
ITEM: NUMBER OF ATOMS
194
ITEM: BOX BOUNDS xy xz yz pp pp pp
-4.7124459093677018e-03 9.5495627738885762e+00 0.0000000000000000e+00
-1.0249296882784975e-02 1.9397248396882794e+01 6.3105012797920190e-01
-9.0205738760307241e-03 1.7071835673876013e+01 0.0000000000000000e+00
ITEM: ATOMS id type x y z
1 1 8.73793 0.503813 3.69709
2 1 4.95062 9.22411 4.78451
3 1 7.02451 5.404 0.432709
4 1 6.6305 4.30871 8.0715
5 2 7.75564 8.68348 3.19559
6 2 6.2372 0.953263 5.45825
7 2 8.06624 3.76819 1.07992
8 2 5.61788 5.97536 7.40629
9 2 6.48478 8.22909 3.65087
10 2 7.33456 1.44749 4.91205
11 2 0.495849 3.44721 0.738914
12 2 4.33811 6.39854 7.83071
13 2 7.14176 6.70725 1.9828
14 2 6.55362 2.82005 6.77149
15 2 8.70813 1.89412 2.39757
16 2 4.90002 7.88852 6.11386
17 5 1.15167 0.789776 5.28394
18 5 3.66121 8.99255 3.26816
19 5 1.4934 5.74479 7.52267
20 5 3.18026 4.1568 1.13587
21 5 3.14858 0.313108 5.7402
22 5 1.64695 9.41855 2.81956
23 5 8.53298 4.99118 7.12829
24 5 5.14542 4.60354 1.48437
25 3 8.07219 7.69404 2.2503
26 3 5.73597 1.82864 6.50851
27 3 7.81138 2.82706 2.11721
28 3 5.86304 6.93428 6.37793
29 3 6.22148 7.07807 2.98725
30 3 7.5881 2.52073 5.78851
31 3 0.791299 2.36902 1.53472
32 3 4.00356 7.39923 7.07422
33 6 2.21026 0.369211 4.88271
34 6 2.55766 9.34314 3.61872
35 6 0.480095 5.2282 7.98874
36 6 4.25416 4.50249 0.705105
37 4 0.183503 7.43588 2.05855
38 4 4.71831 1.8986 6.89516
39 4 6.82965 2.47737 2.41211
40 4 6.86467 7.37813 6.34027
41 4 5.18283 6.74074 2.9009
42 4 8.57778 2.85738 6.10886
43 4 1.76499 1.88402 1.40363
44 4 3.18302 8.02592 7.41408
45 1 4.56976 0.531734 12.3009
46 1 0.894576 9.16831 13.2528
47 1 2.9971 5.25925 8.99101
48 1 2.46931 4.30883 16.5616
49 2 3.45612 8.57629 11.685
50 2 1.75749 1.07474 13.7353
51 2 4.10313 3.86767 9.73182
52 2 1.47245 5.99301 15.994
53 2 2.10809 8.30854 11.8825
54 2 3.08735 1.23295 13.671
55 2 5.26363 3.46352 9.26578
56 2 9.1485 6.39408 16.4053
57 2 2.92828 6.81533 10.2618
58 2 2.41624 2.90583 15.2095
59 2 4.4966 1.7968 10.767
60 2 0.774499 7.67999 14.513
61 5 5.74205 0.593161 13.761
62 5 8.44532 9.29882 11.926
63 5 6.25635 5.70013 16.1573
64 5 8.1181 3.98591 9.47378
65 5 7.75544 0.35175 14.2272
66 5 6.42578 9.43352 11.3045
67 5 4.25878 5.09319 15.6671
68 5 1.09219 4.62967 10.0472
69 3 3.8711 7.61291 10.8165
70 3 1.48977 2.00488 14.8027
71 3 3.603 2.79993 10.566
72 3 1.86589 6.96781 15.0258
73 3 1.8715 7.12039 11.1407
74 3 3.34244 2.45365 14.3196
75 3 5.51992 2.26423 10.045
76 3 8.79299 7.35093 15.5015
77 6 6.90428 0.318944 13.4058
78 6 7.2612 9.23069 12.1605
79 6 5.11669 5.25001 16.5731
80 6 9.16189 4.5664 9.23574
81 4 4.77512 7.952 10.2947
82 4 9.37721 2.1038 15.1333
83 4 2.8366 2.99909 11.3197
84 4 2.60497 6.52532 14.3411
85 4 0.830575 6.9309 10.8424
86 4 4.37703 2.66397 14.6352
87 4 6.40043 1.7026 9.76234
88 4 7.81943 7.84953 15.449
89 1 8.64617 10.2031 3.77544
90 1 5.03914 18.8643 4.71638
91 1 7.08811 15.0226 0.537223
92 1 6.63371 13.9945 8.0479
93 2 7.73151 18.3793 3.18591
94 2 6.0958 10.8207 5.28877
95 2 8.05354 13.3891 1.02588
96 2 5.46394 15.5368 7.33893
97 2 6.40524 18.0742 3.40144
98 2 7.37739 11.201 4.95893
99 2 0.448205 13.0072 0.712393
100 2 4.3275 16.1639 7.81446
101 2 7.14326 16.4926 1.8274
102 2 6.69773 12.6697 6.6179
103 2 8.52357 11.5622 2.48742
104 2 5.03044 17.4778 6.03664
105 5 1.21258 10.4644 5.24599
106 5 3.6371 18.8896 3.18715
107 5 1.50127 15.283 7.54898
108 5 3.26022 13.8977 0.996222
109 5 3.07614 10.0209 5.88089
110 5 1.59637 19.0478 2.73461
111 5 8.44438 14.8304 7.0936
112 5 5.2214 14.3014 1.50479
113 3 8.08282 17.4565 2.14843
114 3 5.74645 11.7072 6.34577
115 3 7.67736 12.6005 2.09447
116 3 5.86609 16.4345 6.26777
117 3 6.23178 16.8801 2.74746
118 3 7.75112 12.1938 5.83436
119 3 0.599934 11.9527 1.58748
120 3 3.9426 17.1115 6.8796
121 6 2.33121 10.0987 4.94237
122 6 2.45596 19.2621 3.5324
123 6 0.407212 15.0074 7.85196
124 6 4.36836 14.3169 0.675439
125 4 0.213509 17.1564 2.17313
126 4 4.76497 12.1945 6.33193
127 4 6.59986 12.6156 2.24895
128 4 6.85903 16.5684 5.82558
129 4 5.22051 16.5255 2.87457
130 4 8.51113 12.89 5.49271
131 4 1.37977 11.2399 1.37212
132 4 3.35018 17.939 7.26212
133 1 4.43695 10.1806 12.2346
134 1 0.842815 18.8211 13.368
135 1 2.87209 14.9465 9.08556
136 1 2.41645 14.0376 16.5083
137 2 3.43519 18.3124 11.709
138 2 1.92345 10.6607 13.9414
139 2 3.88744 13.4397 9.63107
140 2 1.44887 15.5176 15.9887
141 2 2.07398 18.0049 12.0367
142 2 3.20265 11.0556 13.5472
143 2 5.20496 13.0713 9.20713
144 2 9.1811 15.9261 16.3999
145 2 2.99279 16.4324 10.4088
146 2 2.43591 12.6685 15.1653
147 2 4.62948 11.6596 11.0564
148 2 0.807508 17.5236 14.7481
149 5 5.98417 10.2991 13.7743
150 5 8.45178 18.8197 11.7985
151 5 6.30272 15.4222 16.1659
152 5 8.18513 13.8301 9.44312
153 5 7.9935 10.059 14.1801
154 5 6.40045 18.9427 11.36
155 5 4.41386 15.0113 15.6473
156 5 1.22425 14.0813 9.95284
157 3 3.91585 17.3135 10.9102
158 3 1.58099 11.5676 14.9306
159 3 3.58968 12.5101 10.649
160 3 1.71674 16.5609 14.9395
161 3 1.94775 16.9585 11.1616
162 3 3.45086 12.1406 14.3509
163 3 5.47201 11.997 10.0224
164 3 8.80119 17.0593 15.6918
165 6 7.03687 9.79995 13.5227
166 6 7.29502 18.972 12.1265
167 6 5.31601 14.717 16.3934
168 6 9.19829 14.3652 9.2709
169 4 4.94039 17.4419 10.573
170 4 9.45658 11.4773 15.2587
171 4 3.05047 12.9924 11.4642
172 4 2.75338 16.823 14.6871
173 4 1.16327 16.2257 11.3123
174 4 4.15396 12.9082 14.0669
175 4 6.46076 11.5468 9.92441
176 4 7.79792 17.4579 15.8536
177 7 7.44817 13.3156 14.3634
178 8 7.11863 13.2153 15.2585
179 8 6.75022 13.7376 13.8347
180 7 6.91652 15.5634 12.5137
181 8 6.81864 16.4974 12.7522
182 8 7.82008 15.558 12.156
183 7 5.27314 4.87562 12.855
184 8 4.39383 4.84557 13.2543
185 8 5.44864 5.58369 12.2077
186 7 7.18419 5.8133 11.3903
187 8 7.61139 5.68897 12.2511
188 8 7.94219 6.02876 10.8311
189 7 2.83168 5.05432 4.37956
190 8 2.44976 5.89367 4.65159
191 8 2.63582 4.44285 3.65666
192 7 4.62647 2.89557 4.03537
193 8 4.87827 2.65629 3.1229
194 8 5.22337 3.67635 4.08858
ITEM: TIMESTEP
85
ITEM: NUMBER OF ATOMS
194
ITEM: BOX BOUNDS xy xz yz pp pp pp
-4.6836739187838816e-03 9.5495299323899037e+00 0.0000000000000000e+00
-1.0186719469892580e-02 1.9397185819469904e+01 6.3104605847111417e-01
-8.9654984711113883e-03 1.7071780598471094e+01 0.0000000000000000e+00
ITEM: ATOMS id type x y z
1 1 8.7389 0.503643 3.69663
2 1 4.94972 9.22512 4.78459
3 1 7.0236 5.40413 0.432049
4 1 6.63119 4.30897 8.07239
5 2 7.75571 8.68339 3.1972
6 2 6.23826 0.950284 5.45965
7 2 8.06636 3.76915 1.07962
8 2 5.61626 5.97737 7.40567
9 2 6.48515 8.23018 3.65213
10 2 7.33402 1.4463 4.91328
11 2 0.496108 3.44803 0.739619
12 2 4.33865 6.39984 7.82912
13 2 7.14277 6.70465 1.98403
14 2 6.55407 2.82068 6.77271
15 2 8.70831 1.89316 2.39744
16 2 4.89908 7.88988 6.11616
17 5 1.15182 0.790392 5.28464
18 5 3.66071 8.99308 3.26744
19 5 1.49419 5.74708 7.52301
20 5 3.18015 4.15785 1.13713
21 5 3.14671 0.313306 5.73864
22 5 1.64905 9.41854 2.82075
23 5 8.53383 4.98928 7.12891
24 5 5.14401 4.60458 1.48414
25 3 8.07264 7.69298 2.25035
26 3 5.74017 1.82656 6.50878
27 3 7.81371 2.82554 2.11751
28 3 5.86047 6.93624 6.37796
29 3 6.22291 7.07686 2.98846
30 3 7.58825 2.52344 5.79123
31 3 0.791608 2.36885 1.53563
32 3 4.00461 7.39999 7.0737
33 6 2.21251 0.369241 4.88203
34 6 2.55664 9.34429 3.62091
35 6 0.47681 5.22801 7.98878
36 6 4.25511 4.50277 0.706455
37 4 0.179695 7.4391 2.06534
38 4 4.72299 1.89393 6.89256
39 4 6.82866 2.47341 2.40797
40 4 6.8656 7.38173 6.34272
41 4 5.18202 6.73977 2.90737
42 4 8.58047 2.85698 6.10527
43 4 1.76761 1.88067 1.40362
44 4 3.18925 8.02128 7.41995
45 1 4.57031 0.531504 12.3011
46 1 0.89439 9.16847 13.2518
47 1 2.99756 5.25798 8.9903
48 1 2.46975 4.30922 16.562
49 2 3.45385 8.57439 11.683
50 2 1.75823 1.07614 13.7365
51 2 4.1047 3.86752 9.73272
52 2 1.47138 5.99414 15.9935
53 2 2.10763 8.30946 11.8813
54 2 3.08621 1.2332 13.672
55 2 5.26315 3.46272 9.26718
56 2 9.14861 6.39436 16.4048
57 2 2.92889 6.81384 10.2598
58 2 2.41551 2.90477 15.2073
59 2 4.49665 1.79492 10.766
60 2 0.773732 7.68129 14.5118
61 5 5.74114 0.591029 13.7608
62 5 8.44516 9.30316 11.9245
63 5 6.25413 5.70155 16.1577
64 5 8.1198 3.98378 9.47321
65 5 7.75379 0.352603 14.2274
66 5 6.42731 9.43403 11.3048
67 5 4.25923 5.09292 15.668
68 5 1.09223 4.63104 10.0478
69 3 3.86836 7.61228 10.8176
70 3 1.48892 2.00465 14.8014
71 3 3.60523 2.80026 10.565
72 3 1.86516 6.96794 15.0259
73 3 1.8713 7.1213 11.1394
74 3 3.34155 2.45175 14.3203
75 3 5.52007 2.26538 10.0437
76 3 8.79468 7.3516 15.5001
77 6 6.9029 0.318209 13.4031
78 6 7.26122 9.22916 12.1623
79 6 5.11386 5.24993 16.5754
80 6 9.1645 4.56722 9.23626
81 4 4.77979 7.95295 10.2933
82 4 9.37519 2.11065 15.1284
83 4 2.8432 2.99485 11.316
84 4 2.60372 6.52537 14.3441
85 4 0.830594 6.93637 10.834
86 4 4.38235 2.66275 14.6412
87 4 6.39133 1.69425 9.76376
88 4 7.81122 7.8508 15.4499
89 1 8.64615 10.2028 3.77604
90 1 5.03918 18.8645 4.71557
91 1 7.08798 15.0217 0.537395
92 1 6.63424 13.9945 8.04833
93 2 7.73065 18.3789 3.18498
94 2 6.09758 10.8208 5.28807
95 2 8.05361 13.3884 1.02695
96 2 5.46194 15.5352 7.33869
97 2 6.40668 18.0737 3.39958
98 2 7.37856 11.2004 4.95902
99 2 0.446554 13.0064 0.712889
100 2 4.32617 16.1627 7.81473
101 2 7.14419 16.4905 1.82764
102 2 6.69875 12.6721 6.61802
103 2 8.52242 11.5595 2.48786
104 2 5.03027 17.48 6.03418
105 5 1.21288 10.4652 5.24644
106 5 3.63542 18.893 3.18552
107 5 1.50145 15.2833 7.54744
108 5 3.26052 13.8988 0.996914
109 5 3.07562 10.0203 5.8811
110 5 1.59673 19.0477 2.73495
111 5 8.44526 14.83 7.09449
112 5 5.22186 14.3026 1.50556
113 3 8.08338 17.4574 2.14881
114 3 5.74879 11.7095 6.34573
115 3 7.67596 12.6013 2.09397
116 3 5.86394 16.4355 6.26494
117 3 6.23238 16.883 2.74822
118 3 7.75225 12.1946 5.83433
119 3 0.59984 11.9509 1.58809
120 3 3.943 17.1134 6.87881
121 6 2.3323 10.0988 4.94123
122 6 2.45722 19.2639 3.53282
123 6 0.405523 15.0081 7.85483
124 6 4.36813 14.3174 0.674884
125 4 0.21083 17.1545 2.17709
126 4 4.76263 12.1979 6.32599
127 4 6.60349 12.6144 2.24297
128 4 6.86617 16.5669 5.82227
129 4 5.22305 16.5253 2.86898
130 4 8.50007 12.8807 5.49272
131 4 1.37469 11.2433 1.36907
132 4 3.35601 17.9359 7.26686
133 1 4.43641 10.1798 12.2344
134 1 0.841849 18.8209 13.3681
135 1 2.87112 14.9449 9.08578
136 1 2.41649 14.0379 16.5078
137 2 3.43447 18.3112 11.7085
138 2 1.92493 10.6595 13.9427
139 2 3.88784 13.4408 9.63141
140 2 1.44804 15.5171 15.9888
141 2 2.07565 18.0039 12.0347
142 2 3.20235 11.0541 13.547
143 2 5.20504 13.0713 9.20659
144 2 9.18034 15.925 16.4005
145 2 2.992 16.4314 10.4106
146 2 2.43652 12.6701 15.1655
147 2 4.63026 11.6575 11.0579
148 2 0.807284 17.5261 14.7482
149 5 5.98346 10.2981 13.7751
150 5 8.45084 18.8219 11.7979
151 5 6.30312 15.4238 16.1672
152 5 8.18596 13.829 9.44398
153 5 7.99465 10.0596 14.1789
154 5 6.40127 18.9407 11.3602
155 5 4.4135 15.0124 15.6476
156 5 1.22505 14.0799 9.95114
157 3 3.91246 17.3142 10.9131
158 3 1.58091 11.566 14.9306
159 3 3.58881 12.5101 10.6508
160 3 1.71717 16.5602 14.9391
161 3 1.94844 16.9581 11.1598
162 3 3.45162 12.142 14.3513
163 3 5.47244 11.9958 10.0221
164 3 8.79935 17.0593 15.6938
165 6 7.03703 9.79676 13.5223
166 6 7.29454 18.9719 12.1283
167 6 5.31745 14.716 16.3931
168 6 9.201 14.368 9.26967
169 4 4.93918 17.4408 10.578
170 4 9.45807 11.4763 15.2518
171 4 3.0542 12.9929 11.4582
172 4 2.75653 16.8288 14.6857
173 4 1.16115 16.2264 11.3111
174 4 4.15019 12.9012 14.0604
175 4 6.46809 11.5435 9.92643
176 4 7.80528 17.4569 15.8575
177 7 7.44994 13.3145 14.3631
178 8 7.12303 13.2182 15.2646
179 8 6.75657 13.7512 13.8401
180 7 6.91718 15.563 12.5138
181 8 6.81257 16.5014 12.7547
182 8 7.81433 15.5567 12.1518
183 7 5.2722 4.87499 12.8541
184 8 4.39592 4.84668 13.259
185 8 5.43946 5.57242 12.192
186 7 7.18517 5.81592 11.3918
187 8 7.60907 5.68583 12.2579
188 8 7.94425 6.02359 10.8309
189 7 2.82979 5.05711 4.37819
190 8 2.43767 5.88984 4.64871
191 8 2.64224 4.44892 3.65502
192 7 4.62621 2.8967 4.03163
193 8 4.87956 2.6508 3.122
194 8 5.21724 3.67871 4.08961
ITEM: TIMESTEP
86
ITEM: NUMBER OF ATOMS
194
ITEM: BOX BOUNDS xy xz yz pp pp pp
-4.6491409589703991e-03 9.5494905150909659e+00 0.0000000000000000e+00
-1.0111612282631910e-02 1.9397110712282647e+01 6.3104117413199112e-01
-8.8993954067699832e-03 1.7071714495406752e+01 0.0000000000000000e+00
ITEM: ATOMS id type x y z
1 1 8.73986 0.50349 3.69618
2 1 4.94882 9.22613 4.78467
3 1 7.02269 5.40426 0.431406
4 1 6.63189 4.30924 8.07328
5 2 7.75572 8.68322 3.19882
6 2 6.23918 0.947323 5.46112
7 2 8.06655 3.77005 1.07936
8 2 5.61459 5.97946 7.405
9 2 6.48555 8.23131 3.65338
10 2 7.33357 1.44518 4.91459
11 2 0.496306 3.44887 0.74037
12 2 4.33924 6.40104 7.82754
13 2 7.14375 6.70209 1.98535
14 2 6.55464 2.82135 6.77387
15 2 8.70857 1.89221 2.39726
16 2 4.89815 7.89119 6.11854
17 5 1.15196 0.791006 5.28531
18 5 3.66021 8.99362 3.26674
19 5 1.495 5.74935 7.52342
20 5 3.18001 4.15891 1.13836
21 5 3.14482 0.313509 5.73701
22 5 1.65114 9.41854 2.82195
23 5 8.53468 4.9874 7.12957
24 5 5.14264 4.60563 1.48393
25 3 8.07309 7.69194 2.25042
26 3 5.7444 1.82442 6.50898
27 3 7.81598 2.82407 2.1178
28 3 5.85792 6.9382 6.37803
29 3 6.22433 7.07565 2.98958
30 3 7.58831 2.52615 5.79403
31 3 0.791913 2.36867 1.53657
32 3 4.00563 7.40085 7.07309
33 6 2.21483 0.36932 4.88157
34 6 2.55561 9.34545 3.62308
35 6 0.473466 5.22788 7.98857
36 6 4.25609 4.50301 0.707932
37 4 0.176026 7.44243 2.07209
38 4 4.72765 1.88898 6.88985
39 4 6.8275 2.46982 2.40366
40 4 6.8665 7.38503 6.34511
41 4 5.18132 6.73874 2.91397
42 4 8.58325 2.85643 6.10127
43 4 1.77006 1.87728 1.40372
44 4 3.19545 8.01668 7.42578
45 1 4.57085 0.531278 12.3014
46 1 0.894201 9.16863 13.2509
47 1 2.99803 5.25674 8.98958
48 1 2.47018 4.30962 16.5624
49 2 3.45154 8.57248 11.6811
50 2 1.75896 1.07759 13.7379
51 2 4.10615 3.86731 9.73367
52 2 1.47031 5.99532 15.993
53 2 2.10719 8.31031 11.8801
54 2 3.08513 1.23354 13.6731
55 2 5.26274 3.46181 9.26861
56 2 9.14867 6.39464 16.4043
57 2 2.92946 6.81234 10.2578
58 2 2.41478 2.9037 15.2051
59 2 4.4967 1.79305 10.7651
60 2 0.773025 7.68259 14.5105
61 5 5.74027 0.588884 13.7606
62 5 8.44501 9.3075 11.9229
63 5 6.25182 5.70294 16.1581
64 5 8.1215 3.98165 9.47262
65 5 7.7522 0.353468 14.2277
66 5 6.4288 9.43453 11.3052
67 5 4.2597 5.09265 15.6691
68 5 1.09232 4.63243 10.0484
69 3 3.86567 7.61171 10.8188
70 3 1.488 2.00437 14.8001
71 3 3.60751 2.80067 10.564
72 3 1.86438 6.96798 15.026
73 3 1.87113 7.12227 11.1381
74 3 3.34072 2.44983 14.3211
75 3 5.52024 2.26667 10.0423
76 3 8.79637 7.35232 15.4987
77 6 6.90147 0.317506 13.4006
78 6 7.26128 9.22763 12.1641
79 6 5.11106 5.24995 16.5774
80 6 9.16708 4.568 9.23687
81 4 4.78429 7.95351 10.2919
82 4 9.37322 2.11763 15.1235
83 4 2.84974 2.99058 11.3121
84 4 2.60244 6.52576 14.3471
85 4 0.830816 6.94188 10.8256
86 4 4.3875 2.66144 14.6471
87 4 6.3822 1.68568 9.76525
88 4 7.80308 7.85183 15.4511
89 1 8.64613 10.2025 3.77665
90 1 5.03923 18.8646 4.71477
91 1 7.08784 15.0209 0.537574
92 1 6.63476 13.9945 8.04876
93 2 7.72978 18.3785 3.18398
94 2 6.09933 10.821 5.28746
95 2 8.05373 13.3877 1.02807
96 2 5.45998 15.5338 7.33836
97 2 6.40815 18.0733 3.39773
98 2 7.37973 11.1998 4.95914
99 2 0.444833 13.0057 0.713428
100 2 4.32478 16.1615 7.81498
101 2 7.14515 16.4884 1.82792
102 2 6.69978 12.6745 6.61812
103 2 8.52127 11.557 2.48821
104 2 5.03003 17.4821 6.03177
105 5 1.21318 10.466 5.24687
106 5 3.63367 18.8963 3.18392
107 5 1.50168 15.2836 7.54588
108 5 3.26082 13.9 0.997594
109 5 3.07516 10.0197 5.88129
110 5 1.59704 19.0476 2.73532
111 5 8.44609 14.8294 7.09534
112 5 5.22235 14.304 1.50634
113 3 8.08393 17.4583 2.14925
114 3 5.75115 11.7118 6.34562
115 3 7.67455 12.6021 2.09348
116 3 5.86178 16.4365 6.26216
117 3 6.23291 16.8859 2.74899
118 3 7.75331 12.1954 5.83431
119 3 0.599771 11.9491 1.58873
120 3 3.94351 17.1153 6.87802
121 6 2.33332 10.0989 4.94016
122 6 2.45867 19.2656 3.53312
123 6 0.403841 15.0087 7.85779
124 6 4.36783 14.3179 0.674441
125 4 0.208056 17.1526 2.18086
126 4 4.76025 12.2008 6.32004
127 4 6.60717 12.6128 2.23727
128 4 6.87328 16.565 5.81923
129 4 5.22555 16.5248 2.86306
130 4 8.48916 12.8715 5.49274
131 4 1.36977 11.2468 1.36595
132 4 3.36172 17.9326 7.27164
133 1 4.43587 10.1791 12.2341
134 1 0.840874 18.8206 13.3682
135 1 2.87016 14.9433 9.08598
136 1 2.41655 14.0381 16.5074
137 2 3.4337 18.31 11.7081
138 2 1.92645 10.6583 13.944
139 2 3.88832 13.4419 9.63177
140 2 1.44727 15.5167 15.9887
141 2 2.07746 18.0029 12.0326
142 2 3.202 11.0527 13.5468
143 2 5.20505 13.0712 9.20612
144 2 9.17947 15.9239 16.401
145 2 2.9912 16.4306 10.4125
146 2 2.43712 12.6715 15.1657
147 2 4.63097 11.6555 11.0594
148 2 0.807018 17.5285 14.7484
149 5 5.98271 10.2971 13.7759
150 5 8.44991 18.8241 11.7972
151 5 6.30352 15.4254 16.1686
152 5 8.18671 13.828 9.44486
153 5 7.99585 10.0601 14.1778
154 5 6.40204 18.9387 11.3604
155 5 4.41308 15.0135 15.6479
156 5 1.2259 14.0786 9.94944
157 3 3.90907 17.315 10.9161
158 3 1.58082 11.5644 14.9305
159 3 3.58798 12.5101 10.6526
160 3 1.71764 16.5594 14.9388
161 3 1.94909 16.9576 11.158
162 3 3.45236 12.1434 14.3517
163 3 5.47292 11.9945 10.0218
164 3 8.79755 17.0593 15.6958
165 6 7.03715 9.79356 13.5219
166 6 7.29404 18.9719 12.1301
167 6 5.31894 14.7152 16.3927
168 6 9.20373 14.3708 9.26839
169 4 4.9378 17.4394 10.5827
170 4 9.45976 11.4756 15.2451
171 4 3.05775 12.9932 11.4523
172 4 2.75955 16.8345 14.6843
173 4 1.15887 16.2273 11.31
174 4 4.14671 12.8941 14.0538
175 4 6.47532 11.5402 9.92857
176 4 7.81268 17.4561 15.8614
177 7 7.4517 13.3134 14.3628
178 8 7.12735 13.2211 15.2705
179 8 6.76311 13.7649 13.8459
180 7 6.91784 15.5625 12.5139
181 8 6.80644 16.5051 12.7571
182 8 7.8084 15.5553 12.1476
183 7 5.27125 4.87436 12.8533
184 8 4.39822 4.8481 13.2635
185 8 5.42994 5.56092 12.1766
186 7 7.18617 5.81855 11.3932
187 8 7.60655 5.68265 12.2645
188 8 7.94612 6.01834 10.8307
189 7 2.82794 5.05991 4.37686
190 8 2.42525 5.88572 4.64532
191 8 2.64839 4.45551 3.65343
192 7 4.62598 2.89785 4.02786
193 8 4.8806 2.64522 3.12131
194 8 5.21074 3.68089 4.09085
ITEM: TIMESTEP
87
ITEM: NUMBER OF ATOMS
194
ITEM: BOX BOUNDS xy xz yz pp pp pp
-4.6089793493946374e-03 9.5494446730264873e+00 0.0000000000000000e+00
-1.0024263108180165e-02 1.9397023363108193e+01 6.3103549367708789e-01
-8.8225179692074107e-03 1.7071637617969191e+01 0.0000000000000000e+00
ITEM: ATOMS id type x y z
1 1 8.74081 0.503354 3.69573
2 1 4.94792 9.22714 4.78476
3 1 7.02177 5.40439 0.430781
4 1 6.63258 4.30952 8.07417
5 2 7.75567 8.68295 3.20045
6 2 6.23995 0.944382 5.46266
7 2 8.0668 3.77089 1.07914
8 2 5.61286 5.98163 7.4043
9 2 6.48597 8.23246 3.6546
10 2 7.33321 1.44412 4.91597
11 2 0.496443 3.44972 0.741165
12 2 4.3399 6.40214 7.82598
13 2 7.14473 6.69957 1.98674
14 2 6.55531 2.82204 6.77497
15 2 8.70891 1.89128 2.39703
16 2 4.89723 7.89246 6.121
17 5 1.15208 0.791618 5.28594
18 5 3.65973 8.99417 3.26606
19 5 1.49581 5.7516 7.5239
20 5 3.17985 4.15999 1.13957
21 5 3.1429 0.313718 5.73532
22 5 1.65321 9.41853 2.82315
23 5 8.53552 4.98551 7.13027
24 5 5.14133 4.6067 1.48375
25 3 8.07352 7.69091 2.2505
26 3 5.74864 1.82223 6.5091
27 3 7.81819 2.82265 2.11806
28 3 5.8554 6.94016 6.37814
29 3 6.22574 7.07442 2.99061
30 3 7.58829 2.52888 5.79691
31 3 0.792215 2.36849 1.53754
32 3 4.00662 7.40181 7.0724
33 6 2.21723 0.369449 4.88131
34 6 2.55459 9.34661 3.62522
35 6 0.470076 5.2278 7.98812
36 6 4.25707 4.50323 0.709533
37 4 0.172559 7.44585 2.07878
38 4 4.73228 1.88377 6.88704
39 4 6.8262 2.46661 2.39916
40 4 6.86734 7.38801 6.34746
41 4 5.18076 6.73766 2.92072
42 4 8.5861 2.85573 6.09686
43 4 1.77231 1.87385 1.40394
44 4 3.20158 8.0122 7.43159
45 1 4.57138 0.531057 12.3016
46 1 0.894008 9.16878 13.2499
47 1 2.99851 5.2555 8.98886
48 1 2.47062 4.31004 16.5628
49 2 3.44919 8.57056 11.6791
50 2 1.75968 1.07909 13.7393
51 2 4.10748 3.86707 9.73465
52 2 1.46926 5.99654 15.9923
53 2 2.10676 8.31111 11.8788
54 2 3.08411 1.23397 13.6741
55 2 5.26241 3.46077 9.27008
56 2 9.14869 6.39491 16.4037
57 2 2.92998 6.81083 10.2559
58 2 2.41405 2.90263 15.2028
59 2 4.49674 1.79119 10.7642
60 2 0.772378 7.68388 14.5094
61 5 5.73943 0.586726 13.7604
62 5 8.44486 9.31186 11.9213
63 5 6.24943 5.70429 16.1586
64 5 8.12321 3.97953 9.47202
65 5 7.75065 0.354347 14.2279
66 5 6.43026 9.43503 11.3056
67 5 4.26017 5.09239 15.6701
68 5 1.09248 4.63383 10.0491
69 3 3.86304 7.6112 10.8199
70 3 1.48703 2.00403 14.7987
71 3 3.60984 2.80116 10.5629
72 3 1.86356 6.96793 15.0261
73 3 1.87099 7.12331 11.1368
74 3 3.33996 2.44789 14.3219
75 3 5.52042 2.26807 10.0408
76 3 8.79803 7.3531 15.4971
77 6 6.89999 0.316838 13.398
78 6 7.26137 9.2261 12.1658
79 6 5.10832 5.25005 16.5791
80 6 9.16963 4.56872 9.23756
81 4 4.78853 7.95364 10.2904
82 4 9.37131 2.12471 15.1185
83 4 2.85615 2.9863 11.3081
84 4 2.60114 6.5265 14.3499
85 4 0.831248 6.94744 10.8173
86 4 4.39241 2.66004 14.6526
87 4 6.37308 1.67687 9.76677
88 4 7.79512 7.85258 15.4524
89 1 8.64611 10.2023 3.77726
90 1 5.03927 18.8648 4.71397
91 1 7.0877 15.02 0.53776
92 1 6.63528 13.9944 8.04919
93 2 7.72892 18.378 3.18291
94 2 6.10106 10.8213 5.28693
95 2 8.0539 13.387 1.02922
96 2 5.45807 15.5324 7.33794
97 2 6.40964 18.0728 3.39591
98 2 7.38092 11.1991 4.95927
99 2 0.443045 13.0049 0.714011
100 2 4.32335 16.1602 7.81521
101 2 7.14613 16.4863 1.82826
102 2 6.70082 12.6769 6.61818
103 2 8.52012 11.5544 2.48848
104 2 5.02972 17.4842 6.0294
105 5 1.21348 10.4668 5.24729
106 5 3.63186 18.8997 3.18237
107 5 1.50197 15.2838 7.54429
108 5 3.26111 13.9011 0.99826
109 5 3.07476 10.0191 5.88145
110 5 1.5973 19.0476 2.73571
111 5 8.44687 14.8289 7.09617
112 5 5.2229 14.3053 1.50714
113 3 8.08449 17.4593 2.14974
114 3 5.75351 11.7141 6.34546
115 3 7.67312 12.6028 2.09299
116 3 5.85962 16.4374 6.25944
117 3 6.23338 16.8889 2.74977
118 3 7.7543 12.1962 5.83429
119 3 0.599722 11.9473 1.58939
120 3 3.94413 17.1173 6.87724
121 6 2.33428 10.099 4.93916
122 6 2.46029 19.2671 3.53329
123 6 0.402175 15.0093 7.86083
124 6 4.36747 14.3184 0.674111
125 4 0.205216 17.1507 2.18446
126 4 4.7579 12.2034 6.31411
127 4 6.61084 12.6109 2.23187
128 4 6.88026 16.5628 5.81647
129 4 5.22799 16.524 2.85684
130 4 8.47852 12.8624 5.49272
131 4 1.36505 11.2502 1.36278
132 4 3.36727 17.9294 7.27644
133 1 4.43535 10.1783 12.2339
134 1 0.839891 18.8204 13.3684
135 1 2.8692 14.9417 9.08619
136 1 2.41661 14.0384 16.5069
137 2 3.43287 18.3088 11.7077
138 2 1.92802 10.6571 13.9453
139 2 3.88889 13.4429 9.63217
140 2 1.44658 15.5165 15.9884
141 2 2.0794 18.0019 12.0304
142 2 3.20161 11.0513 13.5466
143 2 5.205 13.0712 9.20571
144 2 9.17849 15.9229 16.4016
145 2 2.99039 16.4297 10.4145
146 2 2.43771 12.6728 15.1659
147 2 4.63162 11.6535 11.0607
148 2 0.806711 17.5309 14.7485
149 5 5.98191 10.2961 13.7767
150 5 8.44897 18.8262 11.7966
151 5 6.30391 15.4269 16.1699
152 5 8.1874 13.8268 9.44578
153 5 7.99708 10.0607 14.1767
154 5 6.40277 18.9367 11.3606
155 5 4.4126 15.0146 15.6481
156 5 1.22678 14.0772 9.94773
157 3 3.90569 17.3157 10.919
158 3 1.58073 11.5629 14.9305
159 3 3.5872 12.5102 10.6544
160 3 1.71817 16.5585 14.9386
161 3 1.94969 16.957 11.1562
162 3 3.45309 12.1449 14.3521
163 3 5.47345 11.9932 10.0215
164 3 8.7958 17.0592 15.6977
165 6 7.03723 9.79038 13.5216
166 6 7.29355 18.9718 12.1319
167 6 5.32047 14.7145 16.3922
168 6 9.20645 14.3736 9.26709
169 4 4.93624 17.4375 10.5872
170 4 9.46162 11.4753 15.2385
171 4 3.06107 12.9934 11.4465
172 4 2.7624 16.8399 14.683
173 4 1.15643 16.2284 11.3089
174 4 4.14355 12.887 14.0469
175 4 6.48238 11.537 9.93081
176 4 7.82003 17.4557 15.8652
177 7 7.45346 13.3123 14.3625
178 8 7.13163 13.224 15.276
179 8 6.76986 13.7786 13.8518
180 7 6.91851 15.5621 12.514
181 8 6.80029 16.5085 12.7595
182 8 7.80237 15.5538 12.1434
183 7 5.27031 4.87372 12.8524
184 8 4.4007 4.84984 13.2678
185 8 5.4201 5.54916 12.1614
186 7 7.1872 5.82121 11.3947
187 8 7.6038 5.67946 12.2709
188 8 7.94779 6.01299 10.8305
189 7 2.82613 5.06271 4.37557
190 8 2.4125 5.88134 4.64145
191 8 2.65424 4.46258 3.65183
192 7 4.62576 2.89903 4.02404
193 8 4.88141 2.63958 3.12083
194 8 5.20391 3.6829 4.0923
ITEM: TIMESTEP
88
ITEM: NUMBER OF ATOMS
194
ITEM: BOX BOUNDS xy xz yz pp pp pp
-4.5633430733600377e-03 9.5493925819591556e+00 0.0000000000000000e+00
-9.9250068513008216e-03 1.9396924106851316e+01 6.3102903888579076e-01
-8.7351609135897235e-03 1.7071550260913575e+01 0.0000000000000000e+00
ITEM: ATOMS id type x y z
1 1 8.74176 0.503233 3.69529
2 1 4.94703 9.22816 4.78486
3 1 7.02086 5.40453 0.430172
4 1 6.63327 4.30981 8.07507
5 2 7.75556 8.6826 3.2021
6 2 6.2406 0.941461 5.46427
7 2 8.06711 3.77168 1.07895
8 2 5.61109 5.98389 7.40356
9 2 6.48642 8.23365 3.65579
10 2 7.33294 1.44313 4.91742
11 2 0.496522 3.45058 0.742005
12 2 4.34062 6.40313 7.82444
13 2 7.14569 6.69708 1.98821
14 2 6.55608 2.82277 6.776
15 2 8.70932 1.89036 2.39676
16 2 4.89633 7.8937 6.12355
17 5 1.15219 0.792226 5.28654
18 5 3.65926 8.99471 3.2654
19 5 1.49663 5.75382 7.52445
20 5 3.17966 4.16107 1.14074
21 5 3.14098 0.31393 5.73356
22 5 1.65525 9.41852 2.82436
23 5 8.53635 4.98364 7.131
24 5 5.14008 4.60779 1.4836
25 3 8.07394 7.68991 2.2506
26 3 5.7529 1.81999 6.50915
27 3 7.82032 2.82127 2.11831
28 3 5.85293 6.94212 6.37828
29 3 6.22714 7.07318 2.99156
30 3 7.58818 2.53161 5.79985
31 3 0.792518 2.36829 1.53853
32 3 4.00758 7.40286 7.07163
33 6 2.21968 0.369631 4.88126
34 6 2.55356 9.34776 3.62732
35 6 0.466653 5.22779 7.98743
36 6 4.25806 4.5034 0.711255
37 4 0.169358 7.44933 2.08539
38 4 4.73686 1.8783 6.88415
39 4 6.82479 2.46377 2.39448
40 4 6.86806 7.39066 6.34976
41 4 5.18036 6.73652 2.92758
42 4 8.58901 2.85491 6.09207
43 4 1.77434 1.87041 1.40427
44 4 3.20758 8.00786 7.43737
45 1 4.57191 0.530838 12.3019
46 1 0.893811 9.16894 13.2489
47 1 2.99898 5.25429 8.98814
48 1 2.47106 4.31047 16.5632
49 2 3.4468 8.56862 11.6771
50 2 1.76039 1.08064 13.7409
51 2 4.10869 3.86678 9.73568
52 2 1.46822 5.9978 15.9916
53 2 2.10636 8.31184 11.8776
54 2 3.08314 1.23449 13.6751
55 2 5.26215 3.45963 9.27157
56 2 9.14867 6.39517 16.403
57 2 2.93045 6.80931 10.254
58 2 2.41332 2.90154 15.2004
59 2 4.49679 1.78934 10.7634
60 2 0.771795 7.68517 14.5083
61 5 5.73862 0.584552 13.7602
62 5 8.4447 9.31622 11.9196
63 5 6.24694 5.70561 16.1591
64 5 8.12492 3.97742 9.47139
65 5 7.74917 0.355237 14.2282
66 5 6.4317 9.43553 11.306
67 5 4.26065 5.09214 15.6712
68 5 1.09271 4.63525 10.0498
69 3 3.86049 7.61076 10.821
70 3 1.48599 2.00363 14.7972
71 3 3.61222 2.80173 10.5618
72 3 1.86269 6.9678 15.0262
73 3 1.87088 7.12441 11.1355
74 3 3.33928 2.44595 14.3228
75 3 5.52062 2.26958 10.0392
76 3 8.79966 7.35394 15.4956
77 6 6.89846 0.316205 13.3955
78 6 7.2615 9.22457 12.1676
79 6 5.10563 5.25025 16.5805
80 6 9.17212 4.56939 9.23833
81 4 4.79245 7.95332 10.2888
82 4 9.36947 2.13188 15.1135
83 4 2.8624 2.98202 11.3042
84 4 2.59984 6.52757 14.3528
85 4 0.831894 6.95305 10.809
86 4 4.397 2.65852 14.6579
87 4 6.36402 1.66785 9.76829
88 4 7.78743 7.85303 15.454
89 1 8.64609 10.202 3.77789
90 1 5.03931 18.8649 4.71317
91 1 7.08757 15.0191 0.537952
92 1 6.63579 13.9944 8.04962
93 2 7.72805 18.3774 3.18177
94 2 6.10276 10.8216 5.2865
95 2 8.0541 13.3863 1.03042
96 2 5.45621 15.5311 7.33741
97 2 6.41115 18.0723 3.39411
98 2 7.38212 11.1984 4.95942
99 2 0.441193 13.0042 0.714638
100 2 4.32188 16.1588 7.81542
101 2 7.14714 16.4843 1.82865
102 2 6.70189 12.6792 6.61822
103 2 8.51895 11.552 2.48865
104 2 5.02934 17.4862 6.02709
105 5 1.21377 10.4676 5.24768
106 5 3.62998 18.9032 3.18085
107 5 1.50231 15.2841 7.54268
108 5 3.2614 13.9022 0.998912
109 5 3.07443 10.0185 5.88157
110 5 1.5975 19.0475 2.73612
111 5 8.44759 14.8284 7.09696
112 5 5.22348 14.3066 1.50795
113 3 8.08503 17.4602 2.15028
114 3 5.75588 11.7165 6.34524
115 3 7.6717 12.6035 2.0925
116 3 5.85746 16.4383 6.25679
117 3 6.23379 16.8919 2.75056
118 3 7.75521 12.197 5.83429
119 3 0.599686 11.9455 1.59009
120 3 3.94485 17.1193 6.87646
121 6 2.33518 10.0992 4.93825
122 6 2.46209 19.2686 3.53332
123 6 0.400531 15.0099 7.86394
124 6 4.36704 14.3188 0.673896
125 4 0.202342 17.1487 2.18787
126 4 4.75562 12.2056 6.30819
127 4 6.61443 12.6086 2.22678
128 4 6.88701 16.5601 5.81404
129 4 5.23035 16.5228 2.85034
130 4 8.46827 12.8537 5.4926
131 4 1.36057 11.2535 1.35953
132 4 3.37265 17.9261 7.28129
133 1 4.43484 10.1775 12.2337
134 1 0.8389 18.8202 13.3685
135 1 2.86824 14.9401 9.08638
136 1 2.41668 14.0386 16.5065
137 2 3.43199 18.3075 11.7073
138 2 1.92963 10.656 13.9466
139 2 3.88955 13.4439 9.63259
140 2 1.44595 15.5163 15.9881
141 2 2.08146 18.0008 12.0283
142 2 3.20117 11.0499 13.5464
143 2 5.20487 13.0712 9.20536
144 2 9.17741 15.9218 16.4021
145 2 2.98957 16.4289 10.4165
146 2 2.43829 12.6741 15.166
147 2 4.63221 11.6515 11.062
148 2 0.806361 17.5333 14.7487
149 5 5.98108 10.2952 13.7775
150 5 8.44804 18.8284 11.796
151 5 6.3043 15.4284 16.1713
152 5 8.18802 13.8257 9.44672
153 5 7.99836 10.0612 14.1756
154 5 6.40346 18.9347 11.3608
155 5 4.41208 15.0157 15.6484
156 5 1.22769 14.0758 9.94601
157 3 3.90232 17.3165 10.9218
158 3 1.58063 11.5614 14.9304
159 3 3.58646 12.5103 10.6561
160 3 1.71873 16.5574 14.9384
161 3 1.95026 16.9563 11.1544
162 3 3.45379 12.1465 14.3526
163 3 5.47405 11.9919 10.0212
164 3 8.7941 17.0591 15.6996
165 6 7.03727 9.7872 13.5212
166 6 7.29304 18.9717 12.1337
167 6 5.32205 14.7139 16.3915
168 6 9.20916 14.3765 9.26577
169 4 4.93449 17.4352 10.5915
170 4 9.46361 11.4755 15.2321
171 4 3.06411 12.9934 11.4409
172 4 2.76505 16.845 14.6817
173 4 1.15386 16.2298 11.3079
174 4 4.14075 12.8798 14.0398
175 4 6.48919 11.5338 9.93317
176 4 7.82724 17.4555 15.869
177 7 7.45522 13.3112 14.3621
178 8 7.13588 13.2271 15.2812
179 8 6.7768 13.7922 13.858
180 7 6.91916 15.5617 12.5142
181 8 6.79414 16.5114 12.7618
182 8 7.79632 15.5522 12.1392
183 7 5.26938 4.87308 12.8515
184 8 4.40336 4.8519 13.2718
185 8 5.40993 5.53716 12.1464
186 7 7.18824 5.82388 11.3963
187 8 7.60082 5.67626 12.277
188 8 7.94929 6.00756 10.8303
189 7 2.82437 5.06551 4.37431
190 8 2.39942 5.87675 4.63711
191 8 2.65977 4.47005 3.65016
192 7 4.62557 2.90024 4.0202
193 8 4.88198 2.63388 3.12053
194 8 5.19678 3.68478 4.09393
ITEM: TIMESTEP
89
ITEM: NUMBER OF ATOMS
194
ITEM: BOX BOUNDS xy xz yz pp pp pp
-4.5124075733715685e-03 9.5493344421460513e+00 0.0000000000000000e+00
-9.8142250892827576e-03 1.9396813325089298e+01 6.3102183457267402e-01
-8.6376600723294672e-03 1.7071452760072315e+01 0.0000000000000000e+00
ITEM: ATOMS id type x y z
1 1 8.7427 0.503129 3.69486
2 1 4.94613 9.22918 4.78496
3 1 7.01995 5.40467 0.42958
4 1 6.63395 4.31011 8.07598
5 2 7.75539 8.68216 3.20375
6 2 6.24111 0.93856 5.46594
7 2 8.06748 3.77241 1.0788
8 2 5.60927 5.98623 7.40278
9 2 6.4869 8.23486 3.65696
10 2 7.33277 1.44222 4.91895
11 2 0.496542 3.45145 0.742889
12 2 4.34139 6.40402 7.82291
13 2 7.14664 6.69464 1.98976
14 2 6.55696 2.82351 6.77698
15 2 8.70981 1.88945 2.39644
16 2 4.89543 7.8949 6.12617
17 5 1.15228 0.792828 5.28709
18 5 3.65879 8.99527 3.26477
19 5 1.49744 5.75603 7.52508
20 5 3.17946 4.16217 1.14189
21 5 3.13904 0.314145 5.73175
22 5 1.65727 9.4185 2.82557
23 5 8.53717 4.98176 7.13176
24 5 5.13888 4.60888 1.48347
25 3 8.07433 7.68894 2.25072
26 3 5.75718 1.81769 6.50913
27 3 7.82239 2.81994 2.11853
28 3 5.8505 6.94408 6.37846
29 3 6.22852 7.07194 2.99244
30 3 7.58798 2.53434 5.80284
31 3 0.792825 2.36808 1.53955
32 3 4.00851 7.40399 7.07078
33 6 2.22218 0.369867 4.88142
34 6 2.55254 9.3489 3.62938
35 6 0.463211 5.22784 7.98649
36 6 4.25906 4.50354 0.713094
37 4 0.166479 7.45285 2.0919
38 4 4.74139 1.87258 6.88119
39 4 6.8233 2.46131 2.38963
40 4 6.86865 7.39296 6.352
41 4 5.18013 6.73532 2.93457
42 4 8.59199 2.85399 6.08692
43 4 1.7761 1.86699 1.40472
44 4 3.21343 8.00372 7.44313
45 1 4.57243 0.530623 12.3021
46 1 0.893611 9.16909 13.2479
47 1 2.99946 5.25309 8.98743
48 1 2.4715 4.31091 16.5636
49 2 3.44438 8.56669 11.6752
50 2 1.76107 1.08224 13.7425
51 2 4.10978 3.86645 9.73676
52 2 1.46718 5.9991 15.9909
53 2 2.10597 8.31251 11.8763
54 2 3.08223 1.23509 13.676
55 2 5.26197 3.45837 9.27309
56 2 9.1486 6.39543 16.4023
57 2 2.93087 6.80778 10.2521
58 2 2.41259 2.90044 15.1981
59 2 4.49684 1.7875 10.7625
60 2 0.771277 7.68645 14.5072
61 5 5.73784 0.582364 13.7599
62 5 8.44455 9.32059 11.9179
63 5 6.24437 5.70689 16.1597
64 5 8.12663 3.97531 9.47075
65 5 7.74774 0.35614 14.2285
66 5 6.4331 9.43602 11.3063
67 5 4.26114 5.09189 15.6724
68 5 1.093 4.63668 10.0505
69 3 3.85801 7.61038 10.822
70 3 1.48489 2.00317 14.7957
71 3 3.61466 2.80238 10.5606
72 3 1.86177 6.96759 15.0263
73 3 1.87079 7.12557 11.1341
74 3 3.33867 2.44399 14.3237
75 3 5.52082 2.2712 10.0375
76 3 8.80124 7.35485 15.494
77 6 6.89689 0.31561 13.3931
78 6 7.26166 9.22304 12.1693
79 6 5.103 5.25054 16.5817
80 6 9.17455 4.57001 9.23918
81 4 4.79599 7.95254 10.2873
82 4 9.3677 2.13915 15.1084
83 4 2.86843 2.97777 11.3003
84 4 2.59855 6.52896 14.3555
85 4 0.832757 6.95872 10.8007
86 4 4.40121 2.65687 14.6629
87 4 6.35503 1.65864 9.76978
88 4 7.7801 7.85314 15.4558
89 1 8.64607 10.2017 3.77853
90 1 5.03936 18.8651 4.71237
91 1 7.08743 15.0183 0.53815
92 1 6.6363 13.9943 8.05004
93 2 7.72718 18.3767 3.18056
94 2 6.10444 10.8219 5.28616
95 2 8.05434 13.3856 1.03166
96 2 5.45439 15.5299 7.33679
97 2 6.41268 18.0717 3.39233
98 2 7.38333 11.1976 4.95959
99 2 0.439277 13.0034 0.715308
100 2 4.32036 16.1574 7.81561
101 2 7.14818 16.4822 1.8291
102 2 6.70297 12.6815 6.61823
103 2 8.51778 11.5496 2.48874
104 2 5.02889 17.4882 6.02482
105 5 1.21406 10.4683 5.24806
106 5 3.62805 18.9066 3.17937
107 5 1.5027 15.2844 7.54105
108 5 3.26169 13.9033 0.99955
109 5 3.07416 10.0179 5.88167
110 5 1.59766 19.0475 2.73656
111 5 8.44827 14.8278 7.09772
112 5 5.22411 14.308 1.50876
113 3 8.08557 17.4612 2.15088
114 3 5.75824 11.7189 6.34496
115 3 7.67028 12.6042 2.09203
116 3 5.85532 16.4392 6.25419
117 3 6.23415 16.895 2.75135
118 3 7.75602 12.1978 5.83431
119 3 0.599658 11.9436 1.59081
120 3 3.94568 17.1212 6.87568
121 6 2.33601 10.0994 4.93743
122 6 2.46405 19.2699 3.53323
123 6 0.398917 15.0105 7.86711
124 6 4.36655 14.3191 0.673798
125 4 0.199464 17.1467 2.19112
126 4 4.75346 12.2073 6.30231
127 4 6.61787 12.6059 2.222
128 4 6.89345 16.557 5.81196
129 4 5.23263 16.5213 2.84357
130 4 8.45851 12.8455 5.49235
131 4 1.35639 11.2566 1.35622
132 4 3.37781 17.9229 7.28619
133 1 4.43435 10.1767 12.2335
134 1 0.837901 18.8199 13.3686
135 1 2.86729 14.9385 9.08658
136 1 2.41676 14.0389 16.506
137 2 3.43106 18.3063 11.707
138 2 1.93128 10.6549 13.9479
139 2 3.89029 13.4449 9.63304
140 2 1.4454 15.5163 15.9876
141 2 2.08363 17.9997 12.026
142 2 3.2007 11.0485 13.5463
143 2 5.20468 13.0712 9.20508
144 2 9.17623 15.9208 16.4027
145 2 2.98875 16.4281 10.4185
146 2 2.43886 12.6752 15.166
147 2 4.63273 11.6496 11.0632
148 2 0.80597 17.5356 14.749
149 5 5.9802 10.2942 13.7783
150 5 8.44711 18.8306 11.7954
151 5 6.30469 15.4299 16.1727
152 5 8.18859 13.8245 9.44769
153 5 7.99968 10.0618 14.1745
154 5 6.4041 18.9326 11.3609
155 5 4.41152 15.0167 15.6486
156 5 1.22865 14.0745 9.94429
157 3 3.89897 17.3173 10.9246
158 3 1.58054 11.5599 14.9303
159 3 3.58578 12.5103 10.6579
160 3 1.71935 16.5562 14.9384
161 3 1.95077 16.9555 11.1526
162 3 3.45446 12.1481 14.3531
163 3 5.47472 11.9905 10.0209
164 3 8.79247 17.0589 15.7014
165 6 7.03726 9.78404 13.5209
166 6 7.29254 18.9716 12.1354
167 6 5.32366 14.7134 16.3906
168 6 9.21185 14.3793 9.26443
169 4 4.93255 17.4325 10.5955
170 4 9.46568 11.476 15.226
171 4 3.06684 12.9934 11.4355
172 4 2.76747 16.8499 14.6805
173 4 1.15115 16.2314 11.3069
174 4 4.13835 12.8728 14.0324
175 4 6.49571 11.5308 9.93564
176 4 7.83422 17.4556 15.8727
177 7 7.45696 13.3101 14.3618
178 8 7.14014 13.2301 15.2859
179 8 6.78393 13.8059 13.8643
180 7 6.91981 15.5613 12.5143
181 8 6.78803 16.5137 12.7639
182 8 7.79034 15.5504 12.1349
183 7 5.26845 4.87244 12.8506
184 8 4.40615 4.85425 13.2757
185 8 5.39944 5.52489 12.1318
186 7 7.1893 5.82657 11.3978
187 8 7.59757 5.67308 12.2827
188 8 7.95061 6.00204 10.8302
189 7 2.82265 5.06831 4.3731
190 8 2.38598 5.87196 4.63231
191 8 2.66498 4.47789 3.64838
192 7 4.62539 2.90147 4.01632
193 8 4.88235 2.62814 3.12042
194 8 5.18939 3.68657 4.09573
ITEM: TIMESTEP
90
ITEM: NUMBER OF ATOMS
194
ITEM: BOX BOUNDS xy xz yz pp pp pp
-4.4563694751564853e-03 9.5492704780236259e+00 0.0000000000000000e+00
-9.6923454716915103e-03 1.9396691445471706e+01 6.3101390854846495e-01
-8.5303918268060386e-03 1.7071345491826794e+01 0.0000000000000000e+00
ITEM: ATOMS id type x y z
1 1 8.74363 0.503041 3.69443
2 1 4.94524 9.2302 4.78506
3 1 7.01904 5.40482 0.429005
4 1 6.63464 4.31042 8.07689
5 2 7.75516 8.68163 3.20542
6 2 6.24149 0.935679 5.46768
7 2 8.06792 3.77309 1.0787
8 2 5.60741 5.98864 7.40196
9 2 6.4874 8.23609 3.6581
10 2 7.33269 1.44138 4.92056
11 2 0.496504 3.45234 0.743817
12 2 4.34221 6.40481 7.8214
13 2 7.14757 6.69223 1.99138
14 2 6.55795 2.82429 6.77789
15 2 8.71038 1.88854 2.39607
16 2 4.89455 7.89607 6.12886
17 5 1.15237 0.793423 5.28761
18 5 3.65832 8.99583 3.26415
19 5 1.49824 5.7582 7.52579
20 5 3.17924 4.16328 1.14301
21 5 3.1371 0.314361 5.72988
22 5 1.65926 9.41849 2.82679
23 5 8.53797 4.97989 7.13254
24 5 5.13774 4.60999 1.48337
25 3 8.0747 7.68799 2.25086
26 3 5.76147 1.81534 6.50903
27 3 7.82437 2.81866 2.11872
28 3 5.84813 6.94605 6.37868
29 3 6.22988 7.07069 2.99323
30 3 7.58771 2.53705 5.8059
31 3 0.793137 2.36785 1.54059
32 3 4.00941 7.4052 7.06985
33 6 2.22473 0.37016 4.88178
34 6 2.55154 9.35003 3.63139
35 6 0.459764 5.22797 7.98533
36 6 4.26005 4.50365 0.715046
37 4 0.163979 7.45638 2.0983
38 4 4.74585 1.86661 6.87817
39 4 6.82176 2.45923 2.38458
40 4 6.86907 7.39491 6.35418
41 4 5.1801 6.73405 2.94165
42 4 8.59502 2.85297 6.08143
43 4 1.77757 1.86359 1.40529
44 4 3.21909 7.99981 7.44887
45 1 4.57295 0.530411 12.3023
46 1 0.893407 9.16924 13.247
47 1 2.99994 5.25192 8.98671
48 1 2.47194 4.31136 16.5639
49 2 3.44192 8.56474 11.6732
50 2 1.76173 1.08387 13.7442
51 2 4.11075 3.86609 9.73787
52 2 1.46616 6.00044 15.9901
53 2 2.1056 8.31312 11.875
54 2 3.08138 1.23578 13.677
55 2 5.26186 3.45701 9.27463
56 2 9.14848 6.39569 16.4016
57 2 2.93123 6.80625 10.2503
58 2 2.41185 2.89934 15.1956
59 2 4.49689 1.78569 10.7617
60 2 0.770826 7.68773 14.5062
61 5 5.73709 0.58016 13.7595
62 5 8.4444 9.32497 11.9161
63 5 6.2417 5.70814 16.1603
64 5 8.12836 3.9732 9.47009
65 5 7.74635 0.357053 14.2288
66 5 6.43448 9.43651 11.3067
67 5 4.26163 5.09164 15.6736
68 5 1.09337 4.63813 10.0512
69 3 3.85563 7.61006 10.8229
70 3 1.48373 2.00267 14.7942
71 3 3.61715 2.80309 10.5594
72 3 1.8608 6.9673 15.0264
73 3 1.87074 7.1268 11.1327
74 3 3.33816 2.44203 14.3246
75 3 5.52103 2.27291 10.0358
76 3 8.80278 7.35583 15.4924
77 6 6.89528 0.315054 13.3908
78 6 7.26187 9.22152 12.171
79 6 5.10043 5.25093 16.5826
80 6 9.17692 4.57056 9.24011
81 4 4.79908 7.95128 10.2859
82 4 9.36599 2.14649 15.1033
83 4 2.8742 2.97357 11.2964
84 4 2.59729 6.53067 14.3581
85 4 0.83384 6.96443 10.7925
86 4 4.40497 2.65508 14.6676
87 4 6.34615 1.64924 9.77122
88 4 7.77321 7.85288 15.4577
89 1 8.64605 10.2014 3.77918
90 1 5.0394 18.8652 4.71157
91 1 7.0873 15.0174 0.538355
92 1 6.63681 13.9943 8.05047
93 2 7.72633 18.376 3.17929
94 2 6.10609 10.8223 5.28592
95 2 8.05463 13.3849 1.03294
96 2 5.45262 15.5288 7.33606
97 2 6.41423 18.0712 3.39058
98 2 7.38455 11.1969 4.95977
99 2 0.437303 13.0027 0.716021
100 2 4.31879 16.1558 7.81578
101 2 7.14924 16.4802 1.82961
102 2 6.70406 12.6838 6.6182
103 2 8.5166 11.5472 2.48873
104 2 5.02836 17.4903 6.02259
105 5 1.21435 10.4691 5.24841
106 5 3.62606 18.9101 3.17793
107 5 1.50314 15.2846 7.53939
108 5 3.26197 13.9045 1.00017
109 5 3.07396 10.0172 5.88173
110 5 1.59777 19.0475 2.73703
111 5 8.44889 14.8273 7.09845
112 5 5.22477 14.3094 1.50958
113 3 8.0861 17.4622 2.15152
114 3 5.7606 11.7213 6.34461
115 3 7.66888 12.6048 2.09156
116 3 5.8532 16.44 6.25166
117 3 6.23445 16.898 2.75212
118 3 7.75674 12.1986 5.83435
119 3 0.599634 11.9417 1.59155
120 3 3.94662 17.1232 6.87492
121 6 2.33678 10.0997 4.93669
122 6 2.46617 19.2712 3.53301
123 6 0.39734 15.011 7.87034
124 6 4.366 14.3194 0.673818
125 4 0.196611 17.1446 2.1942
126 4 4.75147 12.2085 6.29646
127 4 6.62111 12.6029 2.21754
128 4 6.89948 16.5536 5.81024
129 4 5.23481 16.5196 2.83656
130 4 8.44935 12.8377 5.49192
131 4 1.35255 11.2595 1.35282
132 4 3.38275 17.9198 7.29113
133 1 4.43386 10.176 12.2333
134 1 0.836893 18.8197 13.3686
135 1 2.86634 14.9369 9.08676
136 1 2.41685 14.0391 16.5056
137 2 3.43008 18.305 11.7067
138 2 1.93297 10.6538 13.9492
139 2 3.89112 13.4457 9.63352
140 2 1.44491 15.5164 15.9869
141 2 2.08592 17.9985 12.0238
142 2 3.20018 11.0471 13.5462
143 2 5.20442 13.0711 9.20487
144 2 9.17495 15.9198 16.4033
145 2 2.98792 16.4273 10.4206
146 2 2.43942 12.6762 15.166
147 2 4.63319 11.6477 11.0643
148 2 0.805536 17.538 14.7493
149 5 5.9793 10.2932 13.779
150 5 8.44619 18.8327 11.7948
151 5 6.30507 15.4313 16.1741
152 5 8.1891 13.8233 9.44869
153 5 8.00104 10.0623 14.1733
154 5 6.4047 18.9306 11.361
155 5 4.4109 15.0176 15.6489
156 5 1.22965 14.0731 9.94256
157 3 3.89564 17.3181 10.9273
158 3 1.58047 11.5584 14.9302
159 3 3.58516 12.5105 10.6596
160 3 1.72001 16.555 14.9384
161 3 1.95124 16.9546 11.1507
162 3 3.45511 12.1497 14.3537
163 3 5.47546 11.9891 10.0206
164 3 8.79092 17.0587 15.7031
165 6 7.03721 9.78088 13.5207
166 6 7.29203 18.9715 12.1372
167 6 5.3253 14.7129 16.3896
168 6 9.21452 14.3822 9.26307
169 4 4.93041 17.4294 10.5993
170 4 9.46779 11.4769 15.22
171 4 3.06921 12.9933 11.4304
172 4 2.76961 16.8545 14.6795
173 4 1.14833 16.2332 11.306
174 4 4.13639 12.8659 14.0248
175 4 6.50185 11.528 9.93822
176 4 7.84091 17.4562 15.8764
177 7 7.4587 13.3089 14.3615
178 8 7.14443 13.2333 15.2901
179 8 6.79126 13.8195 13.871
180 7 6.92043 15.5609 12.5144
181 8 6.78197 16.5155 12.7659
182 8 7.7845 15.5487 12.1305
183 7 5.26753 4.8718 12.8497
184 8 4.40906 4.85689 13.2794
185 8 5.38865 5.51236 12.1175
186 7 7.19039 5.82928 11.3994
187 8 7.59406 5.66992 12.288
188 8 7.95177 5.99643 10.8301
189 7 2.82098 5.07111 4.37193
190 8 2.37218 5.86703 4.62707
191 8 2.66985 4.48601 3.6464
192 7 4.62523 2.90272 4.01241
193 8 4.88253 2.62237 3.12048
194 8 5.18176 3.68829 4.09768
ITEM: TIMESTEP
91
ITEM: NUMBER OF ATOMS
194
ITEM: BOX BOUNDS xy xz yz pp pp pp
-4.3954464339686083e-03 9.5492009380322784e+00 0.0000000000000000e+00
-9.5598413860962239e-03 1.9396558941386111e+01 6.3100529159830554e-01
-8.4137728131636891e-03 1.7071228872813151e+01 0.0000000000000000e+00
ITEM: ATOMS id type x y z
1 1 8.74455 0.502968 3.69401
2 1 4.94436 9.23122 4.78517
3 1 7.01813 5.40497 0.428445
4 1 6.63532 4.31073 8.0778
5 2 7.75488 8.681 3.20709
6 2 6.24174 0.93282 5.46949
7 2 8.06842 3.7737 1.07863
8 2 5.60552 5.99114 7.4011
9 2 6.48793 8.23733 3.65922
10 2 7.3327 1.44061 4.92225
11 2 0.496409 3.45323 0.744788
12 2 4.34308 6.4055 7.8199
13 2 7.1485 6.68986 1.99307
14 2 6.55905 2.82509 6.77874
15 2 8.71103 1.88765 2.39565
16 2 4.89369 7.89721 6.13163
17 5 1.15245 0.79401 5.28809
18 5 3.65786 8.99639 3.26357
19 5 1.49903 5.76035 7.52657
20 5 3.17899 4.1644 1.1441
21 5 3.13516 0.314579 5.72796
22 5 1.66123 9.41847 2.82801
23 5 8.53875 4.97801 7.13335
24 5 5.13666 4.61112 1.48331
25 3 8.07504 7.68707 2.25103
26 3 5.76577 1.81294 6.50886
27 3 7.82626 2.81744 2.11889
28 3 5.8458 6.94801 6.37893
29 3 6.23123 7.06944 2.99395
30 3 7.58736 2.53974 5.80899
31 3 0.793458 2.36762 1.54165
32 3 4.01027 7.40649 7.06886
33 6 2.2273 0.37051 4.88233
34 6 2.55056 9.35114 3.63337
35 6 0.456326 5.22816 7.98393
36 6 4.26103 4.50371 0.717106
37 4 0.161906 7.45989 2.10456
38 4 4.75023 1.86042 6.87509
39 4 6.8202 2.45754 2.37937
40 4 6.86928 7.3965 6.3563
41 4 5.18027 6.7327 2.94884
42 4 8.59809 2.85187 6.07562
43 4 1.77872 1.86025 1.40598
44 4 3.22452 7.99619 7.4546
45 1 4.57346 0.530201 12.3026
46 1 0.8932 9.16938 13.246
47 1 3.00042 5.25075 8.98599
48 1 2.47239 4.31182 16.5643
49 2 3.43943 8.5628 11.6712
50 2 1.76237 1.08554 13.746
51 2 4.1116 3.86569 9.73902
52 2 1.46515 6.00182 15.9892
53 2 2.10524 8.31366 11.8736
54 2 3.08059 1.23655 13.6779
55 2 5.26184 3.45554 9.27618
56 2 9.14832 6.39594 16.4008
57 2 2.93155 6.80471 10.2486
58 2 2.41111 2.89823 15.1932
59 2 4.49695 1.7839 10.7609
60 2 0.770444 7.68899 14.5053
61 5 5.73636 0.577941 13.7592
62 5 8.44425 9.32936 11.9143
63 5 6.23894 5.70935 16.161
64 5 8.1301 3.97111 9.46942
65 5 7.74502 0.357976 14.2291
66 5 6.43582 9.43699 11.307
67 5 4.26212 5.0914 15.6748
68 5 1.09381 4.6396 10.052
69 3 3.85334 7.6098 10.8238
70 3 1.48251 2.00212 14.7927
71 3 3.6197 2.80386 10.5581
72 3 1.85979 6.96693 15.0265
73 3 1.87072 7.12809 11.1313
74 3 3.33775 2.44007 14.3256
75 3 5.52123 2.27471 10.034
76 3 8.80425 7.35687 15.4907
77 6 6.89363 0.314539 13.3886
78 6 7.26212 9.21999 12.1726
79 6 5.09793 5.25142 16.5832
80 6 9.17923 4.57106 9.24111
81 4 4.80168 7.94953 10.2846
82 4 9.36436 2.15389 15.098
83 4 2.87966 2.96943 11.2926
84 4 2.59608 6.53267 14.3605
85 4 0.835141 6.97019 10.7844
86 4 4.40823 2.65314 14.6719
87 4 6.33741 1.63969 9.77258
88 4 7.76684 7.85223 15.4598
89 1 8.64603 10.2011 3.77984
90 1 5.03944 18.8653 4.71078
91 1 7.08717 15.0165 0.538564
92 1 6.63731 13.9942 8.0509
93 2 7.72548 18.3752 3.17796
94 2 6.10772 10.8228 5.28577
95 2 8.05494 13.3842 1.03425
96 2 5.4509 15.5279 7.33522
97 2 6.41578 18.0706 3.38886
98 2 7.38579 11.1961 4.95998
99 2 0.435271 13.0019 0.716779
100 2 4.31719 16.1542 7.81593
101 2 7.15033 16.4781 1.83017
102 2 6.70518 12.686 6.61815
103 2 8.51542 11.5449 2.48862
104 2 5.02776 17.4922 6.02042
105 5 1.21464 10.4699 5.24874
106 5 3.62402 18.9136 3.17652
107 5 1.50362 15.2849 7.53772
108 5 3.26225 13.9057 1.00078
109 5 3.07381 10.0165 5.88177
110 5 1.59783 19.0475 2.73752
111 5 8.44946 14.8267 7.09915
112 5 5.22547 14.3108 1.5104
113 3 8.08661 17.4631 2.15221
114 3 5.76295 11.7237 6.3442
115 3 7.6675 12.6055 2.09111
116 3 5.85111 16.4408 6.24919
117 3 6.2347 16.901 2.75288
118 3 7.75735 12.1993 5.83441
119 3 0.59961 11.9399 1.59233
120 3 3.94767 17.1252 6.87416
121 6 2.33747 10.0999 4.93605
122 6 2.46843 19.2724 3.53265
123 6 0.395806 15.0116 7.87362
124 6 4.3654 14.3196 0.673955
125 4 0.193815 17.1425 2.19711
126 4 4.74969 12.2093 6.29068
127 4 6.62408 12.5995 2.2134
128 4 6.90504 16.5498 5.80891
129 4 5.23688 16.5175 2.82933
130 4 8.4409 12.8306 5.49126
131 4 1.34908 11.2621 1.34934
132 4 3.38743 17.9169 7.29612
133 1 4.43339 10.1752 12.2331
134 1 0.835877 18.8194 13.3687
135 1 2.86539 14.9354 9.08694
136 1 2.41695 14.0393 16.5051
137 2 3.42905 18.3038 11.7065
138 2 1.93469 10.6527 13.9505
139 2 3.89204 13.4466 9.63403
140 2 1.44449 15.5166 15.9861
141 2 2.08832 17.9974 12.0215
142 2 3.19963 11.0458 13.546
143 2 5.20409 13.0711 9.20472
144 2 9.17356 15.9189 16.4038
145 2 2.98709 16.4265 10.4227
146 2 2.43996 12.6771 15.1659
147 2 4.63359 11.6459 11.0654
148 2 0.80506 17.5402 14.7497
149 5 5.97835 10.2922 13.7798
150 5 8.44527 18.8349 11.7941
151 5 6.30545 15.4327 16.1756
152 5 8.18955 13.822 9.44971
153 5 8.00244 10.0628 14.1722
154 5 6.40526 18.9285 11.361
155 5 4.41024 15.0186 15.6492
156 5 1.23069 14.0718 9.94082
157 3 3.89234 17.3189 10.9299
158 3 1.58042 11.557 14.93
159 3 3.58462 12.5106 10.6613
160 3 1.72073 16.5536 14.9386
161 3 1.95165 16.9537 11.1489
162 3 3.45572 12.1514 14.3542
163 3 5.47627 11.9877 10.0203
164 3 8.78945 17.0585 15.7048
165 6 7.03712 9.77775 13.5205
166 6 7.29151 18.9714 12.1389
167 6 5.32698 14.7126 16.3885
168 6 9.21714 14.385 9.26172
169 4 4.92806 17.4259 10.6028
170 4 9.4699 11.4782 15.2143
171 4 3.07119 12.9933 11.4257
172 4 2.77145 16.8587 14.6785
173 4 1.14541 16.2352 11.3052
174 4 4.1349 12.8592 14.017
175 4 6.50757 11.5253 9.9409
176 4 7.84722 17.4571 15.8802
177 7 7.46043 13.3078 14.3612
178 8 7.14876 13.2365 15.2938
179 8 6.79878 13.8331 13.8778
180 7 6.92103 15.5606 12.5146
181 8 6.77599 16.5165 12.7677
182 8 7.77889 15.5468 12.1261
183 7 5.26661 4.87115 12.8488
184 8 4.41206 4.85983 13.2828
185 8 5.37757 5.49956 12.1035
186 7 7.19149 5.832 11.401
187 8 7.59027 5.66681 12.2928
188 8 7.95279 5.99072 10.83
189 7 2.81936 5.07392 4.37081
190 8 2.35801 5.86199 4.62141
191 8 2.67437 4.49437 3.64418
192 7 4.62507 2.90399 4.00848
193 8 4.88253 2.61659 3.12069
194 8 5.17395 3.68999 4.09975
ITEM: TIMESTEP
92
ITEM: NUMBER OF ATOMS
194
ITEM: BOX BOUNDS xy xz yz pp pp pp
-4.3298766774713116e-03 9.5491260940945732e+00 0.0000000000000000e+00
-9.4172309638640428e-03 1.9396416330963877e+01 6.3099601741709777e-01
-8.2882590472976858e-03 1.7071103359047285e+01 0.0000000000000000e+00
ITEM: ATOMS id type x y z
1 1 8.74547 0.502909 3.6936
2 1 4.94347 9.23224 4.78529
3 1 7.01722 5.40512 0.427902
4 1 6.63601 4.31106 8.07871
5 2 7.75454 8.68029 3.20876
6 2 6.24186 0.929982 5.47136
7 2 8.06899 3.77425 1.07861
8 2 5.60358 5.9937 7.40019
9 2 6.48848 8.2386 3.6603
10 2 7.33279 1.43993 4.92402
11 2 0.496259 3.45413 0.745801
12 2 4.344 6.40609 7.81843
13 2 7.14941 6.68753 1.99484
14 2 6.56024 2.82593 6.77954
15 2 8.71176 1.88676 2.39518
16 2 4.89283 7.89833 6.13446
17 5 1.15253 0.794586 5.28852
18 5 3.65739 8.99696 3.26301
19 5 1.4998 5.76247 7.52743
20 5 3.17873 4.16554 1.14516
21 5 3.13323 0.314796 5.726
22 5 1.66316 9.41846 2.82923
23 5 8.53951 4.97614 7.13418
24 5 5.13565 4.61226 1.48328
25 3 8.07533 7.68619 2.25122
26 3 5.77008 1.81048 6.50862
27 3 7.82807 2.81627 2.11904
28 3 5.84354 6.94998 6.37922
29 3 6.23255 7.06819 2.9946
30 3 7.58693 2.54241 5.81212
31 3 0.793789 2.36737 1.54274
32 3 4.01111 7.40785 7.0678
33 6 2.22988 0.370919 4.88307
34 6 2.5496 9.35224 3.63529
35 6 0.452909 5.22844 7.98231
36 6 4.262 4.50374 0.719268
37 4 0.160306 7.46337 2.11068
38 4 4.75452 1.854 6.87198
39 4 6.81864 2.45623 2.37397
40 4 6.86927 7.39772 6.35836
41 4 5.18066 6.73127 2.9561
42 4 8.60118 2.85072 6.06952
43 4 1.77955 1.85697 1.40678
44 4 3.2297 7.99289 7.46031
45 1 4.57397 0.529992 12.3028
46 1 0.892988 9.16953 13.245
47 1 3.0009 5.24961 8.98527
48 1 2.47284 4.31229 16.5647
49 2 3.43691 8.56087 11.6692
50 2 1.76298 1.08725 13.7479
51 2 4.11233 3.86525 9.74022
52 2 1.46415 6.00323 15.9883
53 2 2.10489 8.31414 11.8723
54 2 3.07987 1.2374 13.6787
55 2 5.26189 3.45397 9.27775
56 2 9.14812 6.39619 16.4
57 2 2.93181 6.80317 10.2469
58 2 2.41037 2.89711 15.1907
59 2 4.49701 1.78214 10.7602
60 2 0.770132 7.69025 14.5044
61 5 5.73567 0.575704 13.7587
62 5 8.44409 9.33376 11.9124
63 5 6.23608 5.71053 16.1618
64 5 8.13185 3.96902 9.46872
65 5 7.74374 0.35891 14.2295
66 5 6.43714 9.43747 11.3074
67 5 4.2626 5.09115 15.676
68 5 1.09432 4.64108 10.0528
69 3 3.85114 7.60959 10.8246
70 3 1.48122 2.00152 14.7911
71 3 3.62231 2.80469 10.5568
72 3 1.85872 6.9665 15.0266
73 3 1.87072 7.12943 11.1298
74 3 3.33743 2.4381 14.3266
75 3 5.52144 2.27659 10.0322
76 3 8.80565 7.35798 15.489
77 6 6.89195 0.314067 13.3865
78 6 7.2624 9.21847 12.1742
79 6 5.09551 5.252 16.5836
80 6 9.18145 4.57149 9.24218
81 4 4.80374 7.94729 10.2834
82 4 9.36281 2.16134 15.0927
83 4 2.88477 2.96538 11.289
84 4 2.59495 6.53496 14.3629
85 4 0.836661 6.976 10.7763
86 4 4.41094 2.65103 14.6759
87 4 6.32883 1.62999 9.77383
88 4 7.76107 7.85117 15.4621
89 1 8.64602 10.2009 3.78051
90 1 5.03948 18.8654 4.70999
91 1 7.08703 15.0156 0.538779
92 1 6.6378 13.9942 8.05133
93 2 7.72465 18.3744 3.17656
94 2 6.10931 10.8233 5.28572
95 2 8.0553 13.3834 1.0356
96 2 5.44923 15.527 7.33428
97 2 6.41734 18.07 3.38718
98 2 7.38704 11.1953 4.9602
99 2 0.433186 13.0012 0.717579
100 2 4.31554 16.1526 7.81604
101 2 7.15145 16.4761 1.8308
102 2 6.70632 12.6882 6.61806
103 2 8.51422 11.5427 2.48843
104 2 5.0271 17.4942 6.01829
105 5 1.21493 10.4707 5.24905
106 5 3.62194 18.9171 3.17515
107 5 1.50413 15.2852 7.53604
108 5 3.26252 13.9068 1.00137
109 5 3.07374 10.0157 5.88177
110 5 1.59784 19.0475 2.73804
111 5 8.44997 14.8261 7.09982
112 5 5.22621 14.3122 1.51123
113 3 8.0871 17.4641 2.15294
114 3 5.76527 11.7262 6.34372
115 3 7.66614 12.606 2.09067
116 3 5.84905 16.4415 6.24678
117 3 6.2349 16.9041 2.75361
118 3 7.75784 12.2 5.83449
119 3 0.599581 11.938 1.59312
120 3 3.94883 17.1272 6.87342
121 6 2.33808 10.1003 4.9355
122 6 2.47084 19.2734 3.53216
123 6 0.394322 15.0121 7.87694
124 6 4.36475 14.3197 0.674211
125 4 0.191103 17.1404 2.19986
126 4 4.74817 12.2096 6.28496
127 4 6.62672 12.5959 2.20959
128 4 6.91005 16.5456 5.80798
129 4 5.23883 16.5153 2.8219
130 4 8.43323 12.8242 5.49033
131 4 1.34603 11.2644 1.34578
132 4 3.39184 17.9141 7.30116
133 1 4.43293 10.1744 12.2329
134 1 0.834852 18.8192 13.3687
135 1 2.86445 14.9338 9.08712
136 1 2.41706 14.0395 16.5046
137 2 3.42798 18.3026 11.7063
138 2 1.93645 10.6517 13.9518
139 2 3.89303 13.4473 9.63458
140 2 1.44414 15.517 15.9852
141 2 2.09082 17.9961 12.0192
142 2 3.19905 11.0445 13.546
143 2 5.2037 13.071 9.20464
144 2 9.17207 15.9179 16.4044
145 2 2.98626 16.4258 10.4249
146 2 2.44049 12.6779 15.1657
147 2 4.63391 11.6441 11.0663
148 2 0.804543 17.5425 14.7501
149 5 5.97738 10.2912 13.7806
150 5 8.44435 18.837 11.7935
151 5 6.30583 15.434 16.1771
152 5 8.18997 13.8208 9.45075
153 5 8.00387 10.0633 14.1711
154 5 6.40577 18.9264 11.3611
155 5 4.40954 15.0195 15.6495
156 5 1.23177 14.0704 9.93908
157 3 3.88907 17.3197 10.9325
158 3 1.58038 11.5556 14.9299
159 3 3.58414 12.5107 10.6629
160 3 1.72148 16.5521 14.9388
161 3 1.952 16.9526 11.1471
162 3 3.45629 12.153 14.3547
163 3 5.47716 11.9863 10.0199
164 3 8.78806 17.0582 15.7064
165 6 7.03698 9.77464 13.5203
166 6 7.29099 18.9713 12.1406
167 6 5.32868 14.7124 16.3872
168 6 9.21972 14.3879 9.26037
169 4 4.92551 17.422 10.6062
170 4 9.47197 11.4799 15.2088
171 4 3.07274 12.9932 11.4214
172 4 2.77297 16.8626 14.6777
173 4 1.14239 16.2375 11.3044
174 4 4.13391 12.8527 14.0089
175 4 6.51283 11.5229 9.94367
176 4 7.8531 17.4584 15.8839
177 7 7.46214 13.3067 14.3609
178 8 7.15315 13.2398 15.2969
179 8 6.8065 13.8467 13.8848
180 7 6.92159 15.5604 12.5147
181 8 6.77013 16.5169 12.7693
182 8 7.77357 15.5449 12.1214
183 7 5.26571 4.87051 12.8479
184 8 4.41512 4.86304 13.2861
185 8 5.36619 5.48648 12.0899
186 7 7.19262 5.83474 11.4026
187 8 7.58621 5.66374 12.2972
188 8 7.95368 5.98492 10.8299
189 7 2.81778 5.07674 4.36974
190 8 2.34347 5.85686 4.61534
191 8 2.67852 4.50291 3.64164
192 7 4.62492 2.90527 4.00452
193 8 4.88238 2.6108 3.12103
194 8 5.166 3.69172 4.10195
ITEM: TIMESTEP
93
ITEM: NUMBER OF ATOMS
194
ITEM: BOX BOUNDS xy xz yz pp pp pp
-4.2599187002005934e-03 9.5490462412664918e+00 0.0000000000000000e+00
-9.2650764156427812e-03 1.9396264176415656e+01 6.3098612256628872e-01
-8.1543453399959276e-03 1.7070969445339983e+01 0.0000000000000000e+00
ITEM: ATOMS id type x y z
1 1 8.74638 0.502865 3.69319
2 1 4.94259 9.23327 4.78541
3 1 7.01631 5.40527 0.427373
4 1 6.63669 4.31139 8.07963
5 2 7.75415 8.67949 3.21043
6 2 6.24186 0.927166 5.47328
7 2 8.06961 3.77473 1.07863
8 2 5.60162 5.99634 7.39925
9 2 6.48905 8.23987 3.66135
10 2 7.33298 1.43932 4.92587
11 2 0.496054 3.45503 0.746856
12 2 4.34496 6.40658 7.81697
13 2 7.15031 6.68524 1.99668
14 2 6.56154 2.82678 6.78028
15 2 8.71256 1.88587 2.39467
16 2 4.892 7.89943 6.13735
17 5 1.15261 0.79515 5.28891
18 5 3.65693 8.99754 3.26247
19 5 1.50055 5.76455 7.52836
20 5 3.17845 4.16668 1.14619
21 5 3.13131 0.315013 5.72399
22 5 1.66505 9.41844 2.83045
23 5 8.54024 4.97426 7.13503
24 5 5.13471 4.61342 1.4833
25 3 8.07559 7.68534 2.25145
26 3 5.77439 1.80797 6.50832
27 3 7.82979 2.81517 2.11915
28 3 5.84134 6.95195 6.37955
29 3 6.23385 7.06695 2.99518
30 3 7.58643 2.54505 5.81528
31 3 0.794132 2.36711 1.54384
32 3 4.01191 7.40928 7.06667
33 6 2.23248 0.371388 4.884
34 6 2.54867 9.35331 3.63717
35 6 0.449527 5.2288 7.98047
36 6 4.26294 4.50372 0.721528
37 4 0.159218 7.4668 2.11663
38 4 4.75871 1.84736 6.86885
39 4 6.81712 2.45531 2.3684
40 4 6.869 7.39857 6.36035
41 4 5.18129 6.72975 2.96344
42 4 8.60429 2.84953 6.06314
43 4 1.78001 1.85377 1.40769
44 4 3.23459 7.98994 7.46601
45 1 4.57447 0.529785 12.303
46 1 0.892772 9.16967 13.2439
47 1 3.00139 5.24848 8.98456
48 1 2.4733 4.31277 16.5651
49 2 3.43436 8.55894 11.6673
50 2 1.76357 1.08898 13.7498
51 2 4.11294 3.86477 9.74145
52 2 1.46317 6.00466 15.9873
53 2 2.10454 8.31454 11.8709
54 2 3.07921 1.23833 13.6796
55 2 5.26202 3.45231 9.27932
56 2 9.14787 6.39644 16.3991
57 2 2.93201 6.80163 10.2453
58 2 2.40962 2.89599 15.1881
59 2 4.49708 1.78041 10.7594
60 2 0.769891 7.69151 14.5036
61 5 5.73501 0.573451 13.7583
62 5 8.44394 9.33816 11.9105
63 5 6.23314 5.71167 16.1626
64 5 8.13362 3.96695 9.46801
65 5 7.7425 0.359852 14.2298
66 5 6.43842 9.43793 11.3078
67 5 4.26309 5.0909 15.6773
68 5 1.0949 4.64259 10.0536
69 3 3.84905 7.60944 10.8254
70 3 1.47987 2.00088 14.7895
71 3 3.62498 2.80558 10.5555
72 3 1.85759 6.96599 15.0267
73 3 1.87075 7.13083 11.1284
74 3 3.33722 2.43613 14.3276
75 3 5.52164 2.27854 10.0304
76 3 8.80697 7.35915 15.4873
77 6 6.89023 0.313637 13.3844
78 6 7.26274 9.21695 12.1758
79 6 5.09317 5.25269 16.5837
80 6 9.18359 4.57185 9.24332
81 4 4.80523 7.94454 10.2823
82 4 9.36133 2.16883 15.0873
83 4 2.88948 2.96144 11.2855
84 4 2.59391 6.53753 14.365
85 4 0.838394 6.98186 10.7684
86 4 4.41306 2.64876 14.6795
87 4 6.32044 1.62019 9.77494
88 4 7.75597 7.84968 15.4645
89 1 8.646 10.2006 3.78119
90 1 5.03952 18.8655 4.7092
91 1 7.0869 15.0147 0.538999
92 1 6.6383 13.9941 8.05176
93 2 7.72383 18.3735 3.17509
94 2 6.11088 10.8239 5.28577
95 2 8.05568 13.3827 1.03698
96 2 5.44761 15.5262 7.33324
97 2 6.41891 18.0694 3.38553
98 2 7.3883 11.1944 4.96044
99 2 0.431049 13.0004 0.718423
100 2 4.31384 16.1509 7.81613
101 2 7.15259 16.4742 1.83149
102 2 6.70747 12.6904 6.61794
103 2 8.51302 11.5405 2.48813
104 2 5.02636 17.4961 6.01622
105 5 1.21522 10.4715 5.24934
106 5 3.61982 18.9207 3.17381
107 5 1.50468 15.2854 7.53434
108 5 3.26278 13.908 1.00195
109 5 3.07372 10.015 5.88174
110 5 1.59781 19.0475 2.73859
111 5 8.45043 14.8255 7.10047
112 5 5.22699 14.3137 1.51207
113 3 8.08758 17.465 2.1537
114 3 5.76758 11.7286 6.34317
115 3 7.66482 12.6066 2.09024
116 3 5.84704 16.4421 6.24444
117 3 6.23505 16.9071 2.75431
118 3 7.75822 12.2006 5.8346
119 3 0.599542 11.9361 1.59395
120 3 3.9501 17.1291 6.87269
121 6 2.33862 10.1006 4.93505
122 6 2.47337 19.2744 3.53154
123 6 0.392896 15.0127 7.88029
124 6 4.36406 14.3198 0.674585
125 4 0.188504 17.1382 2.20245
126 4 4.74693 12.2094 6.27933
127 4 6.62898 12.5918 2.2061
128 4 6.91443 16.5411 5.80748
129 4 5.24065 16.5128 2.8143
130 4 8.42643 12.8185 5.4891
131 4 1.3434 11.2663 1.34212
132 4 3.39596 17.9116 7.30625
133 1 4.43249 10.1736 12.2327
134 1 0.833819 18.8189 13.3687
135 1 2.86352 14.9322 9.08728
136 1 2.41718 14.0397 16.5042
137 2 3.42687 18.3014 11.7062
138 2 1.93823 10.6506 13.9532
139 2 3.89411 13.4481 9.63517
140 2 1.44385 15.5174 15.9842
141 2 2.09343 17.9949 12.0168
142 2 3.19843 11.0432 13.5459
143 2 5.20325 13.0709 9.20463
144 2 9.17048 15.917 16.4049
145 2 2.98542 16.4251 10.4272
146 2 2.441 12.6785 15.1655
147 2 4.63417 11.6423 11.0672
148 2 0.803985 17.5447 14.7506
149 5 5.97637 10.2902 13.7814
150 5 8.44343 18.8392 11.7929
151 5 6.30621 15.4353 16.1787
152 5 8.19034 13.8195 9.45181
153 5 8.00534 10.0639 14.17
154 5 6.40624 18.9243 11.3611
155 5 4.4088 15.0203 15.6498
156 5 1.2329 14.0691 9.93732
157 3 3.88582 17.3205 10.9349
158 3 1.58038 11.5542 14.9297
159 3 3.58374 12.5109 10.6645
160 3 1.72228 16.5506 14.9391
161 3 1.9523 16.9515 11.1452
162 3 3.45683 12.1547 14.3553
163 3 5.47812 11.9848 10.0196
164 3 8.78677 17.0579 15.708
165 6 7.03679 9.77155 13.5202
166 6 7.29047 18.9712 12.1423
167 6 5.3304 14.7123 16.3857
168 6 9.22225 14.3906 9.25902
169 4 4.92276 17.4177 10.6094
170 4 9.47395 11.4821 15.2036
171 4 3.07385 12.9931 11.4177
172 4 2.77414 16.8661 14.677
173 4 1.13928 16.2399 11.3036
174 4 4.13343 12.8465 14.0006
175 4 6.51756 11.5206 9.94654
176 4 7.85848 17.4602 15.8877
177 7 7.46384 13.3055 14.3606
178 8 7.15761 13.2432 15.2994
179 8 6.81441 13.8602 13.8921
180 7 6.92212 15.5601 12.5149
181 8 6.7644 16.5166 12.7708
182 8 7.76862 15.543 12.1166
183 7 5.26482 4.86987 12.8469
184 8 4.4182 4.86652 13.2893
185 8 5.35454 5.47312 12.0766
186 7 7.19376 5.83749 11.4042
187 8 7.58187 5.66073 12.301
188 8 7.95445 5.97901 10.83
189 7 2.81626 5.07956 4.36872
190 8 2.32854 5.85166 4.60888
191 8 2.6823 4.51156 3.63874
192 7 4.62478 2.90655 4.00054
193 8 4.88209 2.60503 3.12147
194 8 5.15794 3.6935 4.10424
ITEM: TIMESTEP
94
ITEM: NUMBER OF ATOMS
194
ITEM: BOX BOUNDS xy xz yz pp pp pp
-4.1858507325205352e-03 9.5489616971312827e+00 0.0000000000000000e+00
-9.1039828763506137e-03 1.9396103082876362e+01 6.3097564639875903e-01
-8.0125642804027564e-03 1.7070827664280390e+01 0.0000000000000000e+00
ITEM: ATOMS id type x y z
1 1 8.74728 0.502834 3.69279
2 1 4.94171 9.2343 4.78553
3 1 7.0154 5.40542 0.42686
4 1 6.63737 4.31173 8.08056
5 2 7.75371 8.67861 3.21211
6 2 6.24175 0.924371 5.47527
7 2 8.0703 3.77515 1.07869
8 2 5.59963 5.99904 7.39827
9 2 6.48964 8.24116 3.66237
10 2 7.33326 1.4388 4.92781
11 2 0.495798 3.45594 0.747952
12 2 4.34596 6.40697 7.81554
13 2 7.15121 6.68299 1.99859
14 2 6.56294 2.82767 6.78096
15 2 8.71345 1.88499 2.39411
16 2 4.89118 7.90051 6.1403
17 5 1.1527 0.795702 5.28926
18 5 3.65647 8.99813 3.26197
19 5 1.50127 5.7666 7.52937
20 5 3.17816 4.16783 1.14719
21 5 3.1294 0.315227 5.72194
22 5 1.6669 9.41843 2.83167
23 5 8.54094 4.97237 7.13589
24 5 5.13384 4.61459 1.48335
25 3 8.07581 7.68453 2.25171
26 3 5.77871 1.80541 6.50794
27 3 7.83141 2.81412 2.11923
28 3 5.83921 6.95391 6.37991
29 3 6.23512 7.06572 2.99569
30 3 7.58587 2.54765 5.81846
31 3 0.794488 2.36683 1.54495
32 3 4.01267 7.41076 7.06548
33 6 2.23507 0.371918 4.88511
34 6 2.54778 9.35437 3.63899
35 6 0.446192 5.22925 7.97842
36 6 4.26385 4.50367 0.72388
37 4 0.158672 7.47014 2.12241
38 4 4.76281 1.84051 6.8657
39 4 6.81566 2.45477 2.36267
40 4 6.86848 7.39904 6.36227
41 4 5.18216 6.72814 2.97085
42 4 8.6074 2.84832 6.05652
43 4 1.78012 1.85066 1.40872
44 4 3.23919 7.98737 7.4717
45 1 4.57496 0.529578 12.3032
46 1 0.892553 9.16981 13.2429
47 1 3.00188 5.24737 8.98384
48 1 2.47375 4.31327 16.5655
49 2 3.43178 8.55702 11.6653
50 2 1.76412 1.09075 13.7518
51 2 4.11344 3.86427 9.74272
52 2 1.4622 6.00612 15.9863
53 2 2.10419 8.31488 11.8695
54 2 3.07862 1.23933 13.6804
55 2 5.26224 3.45055 9.2809
56 2 9.14757 6.3967 16.3982
57 2 2.93216 6.80008 10.2437
58 2 2.40886 2.89486 15.1855
59 2 4.49715 1.77871 10.7587
60 2 0.769723 7.69275 14.5028
61 5 5.73437 0.57118 13.7578
62 5 8.44378 9.34257 11.9085
63 5 6.2301 5.71278 16.1635
64 5 8.1354 3.96488 9.46729
65 5 7.74131 0.360802 14.2301
66 5 6.43967 9.4384 11.3081
67 5 4.26356 5.09066 15.6787
68 5 1.09557 4.64411 10.0544
69 3 3.84708 7.60933 10.826
70 3 1.47846 2.00021 14.7879
71 3 3.62771 2.80651 10.5541
72 3 1.85641 6.96542 15.0268
73 3 1.87081 7.13228 11.1268
74 3 3.33712 2.43417 14.3287
75 3 5.52184 2.28055 10.0285
76 3 8.80821 7.3604 15.4856
77 6 6.8885 0.313251 13.3825
78 6 7.26312 9.21543 12.1773
79 6 5.0909 5.25347 16.5835
80 6 9.18564 4.57214 9.24453
81 4 4.80611 7.9413 10.2815
82 4 9.35992 2.17634 15.0817
83 4 2.89378 2.9576 11.2821
84 4 2.59298 6.54035 14.367
85 4 0.840335 6.98776 10.7605
86 4 4.41455 2.6463 14.6826
87 4 6.31224 1.61031 9.77588
88 4 7.75158 7.84776 15.4671
89 1 8.64599 10.2004 3.78188
90 1 5.03956 18.8656 4.70841
91 1 7.08677 15.0138 0.539223
92 1 6.63879 13.9941 8.05218
93 2 7.72303 18.3726 3.17357
94 2 6.11242 10.8245 5.28591
95 2 8.05608 13.382 1.0384
96 2 5.44603 15.5256 7.33208
97 2 6.42048 18.0689 3.38392
98 2 7.38958 11.1935 4.9607
99 2 0.428865 12.9997 0.71931
100 2 4.31211 16.1491 7.81618
101 2 7.15377 16.4722 1.83224
102 2 6.70865 12.6926 6.61779
103 2 8.51181 11.5384 2.48774
104 2 5.02555 17.498 6.01419
105 5 1.21551 10.4722 5.2496
106 5 3.61768 18.9243 3.17249
107 5 1.50526 15.2857 7.53263
108 5 3.26303 13.9092 1.00251
109 5 3.07378 10.0142 5.88167
110 5 1.59774 19.0475 2.73916
111 5 8.45084 14.8248 7.10109
112 5 5.2278 14.3151 1.5129
113 3 8.08803 17.466 2.1545
114 3 5.76986 11.7311 6.34254
115 3 7.66353 12.607 2.08984
116 3 5.84507 16.4427 6.24216
117 3 6.23515 16.9101 2.75497
118 3 7.75847 12.2012 5.83474
119 3 0.599492 11.9343 1.59479
120 3 3.95148 17.1311 6.87198
121 6 2.33909 10.1011 4.9347
122 6 2.47602 19.2753 3.53079
123 6 0.391532 15.0133 7.88367
124 6 4.36333 14.3198 0.675077
125 4 0.186044 17.1361 2.20489
126 4 4.746 12.2088 6.27379
127 4 6.63083 12.5875 2.20292
128 4 6.91813 16.5362 5.8074
129 4 5.24233 16.5101 2.80655
130 4 8.42057 12.8138 5.48755
131 4 1.34124 11.2678 1.33837
132 4 3.39978 17.9093 7.31139
133 1 4.43205 10.1728 12.2325
134 1 0.832777 18.8187 13.3687
135 1 2.86259 14.9306 9.08745
136 1 2.41731 14.0399 16.5037
137 2 3.42572 18.3002 11.7061
138 2 1.94005 10.6496 13.9545
139 2 3.89526 13.4487 9.63579
140 2 1.44364 15.518 15.983
141 2 2.09612 17.9936 12.0145
142 2 3.19778 11.0419 13.5458
143 2 5.20274 13.0708 9.20468
144 2 9.16879 15.9161 16.4055
145 2 2.98458 16.4244 10.4294
146 2 2.44149 12.6791 15.1653
147 2 4.63436 11.6407 11.0679
148 2 0.803388 17.5468 14.7512
149 5 5.97534 10.2892 13.7821
150 5 8.44253 18.8413 11.7924
151 5 6.30658 15.4365 16.1802
152 5 8.19068 13.8182 9.45289
153 5 8.00684 10.0644 14.1689
154 5 6.40667 18.9222 11.3611
155 5 4.40802 15.0211 15.65
156 5 1.23407 14.0678 9.93556
157 3 3.88262 17.3212 10.9373
158 3 1.58041 11.5529 14.9295
159 3 3.58342 12.5111 10.6661
160 3 1.72313 16.5489 14.9394
161 3 1.95253 16.9503 11.1434
162 3 3.45733 12.1564 14.3559
163 3 5.47917 11.9832 10.0193
164 3 8.78559 17.0575 15.7095
165 6 7.03657 9.76849 13.5201
166 6 7.28994 18.9711 12.1439
167 6 5.33215 14.7123 16.3841
168 6 9.22471 14.3934 9.2577
169 4 4.91981 17.4131 10.6124
170 4 9.4758 11.4845 15.1986
171 4 3.07447 12.9932 11.4144
172 4 2.77496 16.8693 14.6765
173 4 1.1361 16.2427 11.3029
174 4 4.13347 12.8407 13.992
175 4 6.52175 11.5187 9.94949
176 4 7.86332 17.4625 15.8916
177 7 7.46553 13.3044 14.3604
178 8 7.16215 13.2466 15.3012
179 8 6.82254 13.8737 13.8995
180 7 6.9226 15.5599 12.5151
181 8 6.75882 16.5155 12.772
182 8 7.76409 15.541 12.1116
183 7 5.26395 4.86923 12.846
184 8 4.42127 4.87026 13.2922
185 8 5.34262 5.45948 12.0637
186 7 7.19492 5.84025 11.4059
187 8 7.57726 5.65779 12.3042
188 8 7.95511 5.97301 10.8301
189 7 2.81479 5.08239 4.36776
190 8 2.31323 5.84643 4.60204
191 8 2.6857 4.52028 3.63541
192 7 4.62463 2.90784 3.99654
193 8 4.88169 2.59928 3.122
194 8 5.14982 3.6954 4.10661
ITEM: TIMESTEP
95
ITEM: NUMBER OF ATOMS
194
ITEM: BOX BOUNDS xy xz yz pp pp pp
-4.1079699240418321e-03 9.5488728008673700e+00 0.0000000000000000e+00
-8.9345966291816126e-03 1.9395933696629193e+01 6.3096463094332622e-01
-7.8634846729297436e-03 1.7070678584672915e+01 0.0000000000000000e+00
ITEM: ATOMS id type x y z
1 1 8.74818 0.502817 3.6924
2 1 4.94083 9.23533 4.78566
3 1 7.01449 5.40558 0.42636
4 1 6.63805 4.31207 8.08148
5 2 7.75323 8.67763 3.21379
6 2 6.24152 0.921598 5.4773
7 2 8.07104 3.7755 1.0788
8 2 5.59762 6.00182 7.39725
9 2 6.49025 8.24244 3.66336
10 2 7.33363 1.43836 4.92983
11 2 0.495491 3.45685 0.749088
12 2 4.347 6.40727 7.81413
13 2 7.1521 6.68077 2.00056
14 2 6.56444 2.82858 6.7816
15 2 8.71442 1.88411 2.39351
16 2 4.89038 7.90158 6.14331
17 5 1.15278 0.796238 5.28957
18 5 3.656 8.99872 3.26149
19 5 1.50196 5.76862 7.53046
20 5 3.17785 4.16899 1.14817
21 5 3.12752 0.315437 5.71987
22 5 1.66872 9.41842 2.83288
23 5 8.5416 4.97048 7.13676
24 5 5.13304 4.61577 1.48344
25 3 8.07598 7.68376 2.25201
26 3 5.78303 1.8028 6.50751
27 3 7.83293 2.81313 2.11928
28 3 5.83715 6.95587 6.38031
29 3 6.23637 7.0645 2.99614
30 3 7.58524 2.55021 5.82166
31 3 0.79486 2.36653 1.54609
32 3 4.0134 7.4123 7.06423
33 6 2.23764 0.372508 4.88639
34 6 2.54692 9.35539 3.64075
35 6 0.442918 5.22979 7.97617
36 6 4.26473 4.50358 0.726317
37 4 0.158693 7.47339 2.12801
38 4 4.76679 1.83347 6.86255
39 4 6.81428 2.45461 2.35677
40 4 6.86768 7.39914 6.36411
41 4 5.18327 6.72642 2.9783
42 4 8.6105 2.84711 6.04968
43 4 1.77984 1.84766 1.40985
44 4 3.24345 7.98523 7.47738
45 1 4.57545 0.529371 12.3034
46 1 0.892329 9.16995 13.2419
47 1 3.00236 5.24628 8.98312
48 1 2.47421 4.31377 16.5658
49 2 3.42919 8.55512 11.6634
50 2 1.76464 1.09253 13.7539
51 2 4.11381 3.86373 9.74402
52 2 1.46124 6.00761 15.9853
53 2 2.10385 8.31516 11.8681
54 2 3.0781 1.24041 13.6812
55 2 5.26253 3.4487 9.28247
56 2 9.14723 6.39695 16.3972
57 2 2.93225 6.79854 10.2422
58 2 2.4081 2.89373 15.1829
59 2 4.49723 1.77704 10.758
60 2 0.769628 7.69398 14.502
61 5 5.73375 0.568891 13.7573
62 5 8.44361 9.34699 11.9065
63 5 6.22697 5.71384 16.1645
64 5 8.13721 3.96282 9.46655
65 5 7.74017 0.361759 14.2304
66 5 6.44089 9.43885 11.3085
67 5 4.26402 5.09041 15.6801
68 5 1.09631 4.64564 10.0553
69 3 3.84521 7.60927 10.8266
70 3 1.47699 1.9995 14.7863
71 3 3.6305 2.80748 10.5527
72 3 1.85518 6.96479 15.0269
73 3 1.87089 7.13379 11.1253
74 3 3.33714 2.4322 14.3298
75 3 5.52203 2.2826 10.0266
76 3 8.80936 7.36171 15.4838
77 6 6.88674 0.312911 13.3807
78 6 7.26354 9.21391 12.1787
79 6 5.08873 5.25434 16.5831
80 6 9.18759 4.57237 9.24579
81 4 4.80637 7.93755 10.2809
82 4 9.35858 2.18387 15.0761
83 4 2.89762 2.9539 11.279
84 4 2.59217 6.54341 14.3688
85 4 0.842478 6.99371 10.7527
86 4 4.4154 2.64366 14.6854
87 4 6.30425 1.60037 9.77665
88 4 7.74797 7.84539 15.4697
89 1 8.64598 10.2001 3.78257
90 1 5.0396 18.8657 4.70762
91 1 7.08664 15.0129 0.539451
92 1 6.63927 13.994 8.05261
93 2 7.72226 18.3716 3.17199
94 2 6.11393 10.8252 5.28615
95 2 8.05652 13.3813 1.03985
96 2 5.44451 15.525 7.33082
97 2 6.42205 18.0683 3.38235
98 2 7.39087 11.1926 4.96098
99 2 0.426637 12.9989 0.72024
100 2 4.31033 16.1472 7.81619
101 2 7.15497 16.4703 1.83307
102 2 6.70984 12.6947 6.61761
103 2 8.51059 11.5364 2.48725
104 2 5.02468 17.4999 6.01221
105 5 1.21581 10.473 5.24984
106 5 3.61551 18.9279 3.17121
107 5 1.50586 15.286 7.53091
108 5 3.26327 13.9104 1.00306
109 5 3.07389 10.0134 5.88157
110 5 1.59762 19.0475 2.73977
111 5 8.45119 14.8242 7.10169
112 5 5.22864 14.3166 1.51373
113 3 8.08846 17.4669 2.15533
114 3 5.77211 11.7336 6.34184
115 3 7.66229 12.6075 2.08945
116 3 5.84315 16.4433 6.23994
117 3 6.23521 16.9131 2.75559
118 3 7.75859 12.2018 5.83491
119 3 0.599427 11.9324 1.59566
120 3 3.95297 17.133 6.87128
121 6 2.33947 10.1015 4.93445
122 6 2.47878 19.2762 3.52991
123 6 0.390238 15.0138 7.88706
124 6 4.36257 14.3198 0.675684
125 4 0.183748 17.1339 2.20719
126 4 4.74542 12.2077 6.26836
127 4 6.6322 12.5828 2.20007
128 4 6.9211 16.531 5.80775
129 4 5.24388 16.5072 2.79867
130 4 8.41569 12.8099 5.48563
131 4 1.33956 11.269 1.33452
132 4 3.40328 17.9074 7.31658
133 1 4.43163 10.172 12.2323
134 1 0.831727 18.8184 13.3687
135 1 2.86166 14.9291 9.08761
136 1 2.41745 14.0401 16.5032
137 2 3.42453 18.299 11.7061
138 2 1.94188 10.6486 13.9558
139 2 3.89649 13.4493 9.63645
140 2 1.44349 15.5186 15.9817
141 2 2.0989 17.9923 12.0121
142 2 3.19711 11.0407 13.5458
143 2 5.20218 13.0707 9.20481
144 2 9.16701 15.9152 16.406
145 2 2.98374 16.4238 10.4317
146 2 2.44196 12.6795 15.165
147 2 4.63448 11.639 11.0686
148 2 0.802751 17.5489 14.7518
149 5 5.97428 10.2882 13.7829
150 5 8.44162 18.8435 11.7918
151 5 6.30696 15.4377 16.1818
152 5 8.19098 13.8169 9.454
153 5 8.00836 10.0648 14.1678
154 5 6.40705 18.92 11.3611
155 5 4.4072 15.0219 15.6503
156 5 1.23529 14.0665 9.9338
157 3 3.87944 17.322 10.9397
158 3 1.58048 11.5516 14.9293
159 3 3.58319 12.5112 10.6676
160 3 1.72401 16.5472 14.9399
161 3 1.95269 16.949 11.1416
162 3 3.45779 12.158 14.3565
163 3 5.48029 11.9817 10.0191
164 3 8.78451 17.0571 15.7109
165 6 7.03629 9.76546 13.5201
166 6 7.28942 18.971 12.1455
167 6 5.3339 14.7124 16.3823
168 6 9.22709 14.3961 9.25639
169 4 4.91666 17.4081 10.6152
170 4 9.4775 11.4874 15.194
171 4 3.07459 12.9932 11.4118
172 4 2.7754 16.872 14.6761
173 4 1.13284 16.2456 11.3022
174 4 4.13406 12.8353 13.9833
175 4 6.52535 11.517 9.95253
176 4 7.86757 17.4652 15.8955
177 7 7.4672 13.3032 14.3602
178 8 7.16679 13.25 15.3023
179 8 6.83087 13.8872 13.9071
180 7 6.92304 15.5598 12.5153
181 8 6.75341 16.5136 12.773
182 8 7.76002 15.539 12.1063
183 7 5.26309 4.86859 12.845
184 8 4.42429 4.87426 13.2951
185 8 5.33046 5.44556 12.0513
186 7 7.1961 5.84302 11.4076
187 8 7.57238 5.65492 12.3069
188 8 7.9557 5.96691 10.8302
189 7 2.81336 5.08524 4.36685
190 8 2.29754 5.84118 4.59484
191 8 2.68873 4.52902 3.63161
192 7 4.62447 2.90913 3.99253
193 8 4.8812 2.59356 3.12258
194 8 5.14168 3.69744 4.10904
ITEM: TIMESTEP
96
ITEM: NUMBER OF ATOMS
194
ITEM: BOX BOUNDS xy xz yz pp pp pp
-4.0265913034112089e-03 9.5487799120610291e+00 0.0000000000000000e+00
-8.7576028431950448e-03 1.9395756702843208e+01 6.3095312075761745e-01
-7.7077095460751366e-03 1.7070522809546063e+01 0.0000000000000000e+00
ITEM: ATOMS id type x y z
1 1 8.74907 0.502812 3.69201
2 1 4.93996 9.23636 4.7858
3 1 7.01359 5.40574 0.425875
4 1 6.63873 4.31242 8.08241
5 2 7.7527 8.67657 3.21546
6 2 6.24117 0.918848 5.47939
7 2 8.07185 3.77578 1.07896
8 2 5.59559 6.00465 7.39618
9 2 6.49088 8.24373 3.66432
10 2 7.33408 1.438 4.93195
11 2 0.495135 3.45776 0.750264
12 2 4.34807 6.40747 7.81274
13 2 7.15298 6.6786 2.00261
14 2 6.56604 2.82952 6.78218
15 2 8.71546 1.88323 2.39286
16 2 4.8896 7.90264 6.14637
17 5 1.15287 0.796759 5.28983
18 5 3.65553 8.99933 3.26105
19 5 1.50261 5.77059 7.53163
20 5 3.17752 4.17016 1.14911
21 5 3.12567 0.315644 5.71776
22 5 1.67049 9.41841 2.8341
23 5 8.54223 4.96859 7.13763
24 5 5.13232 4.61698 1.48357
25 3 8.0761 7.68304 2.25235
26 3 5.78735 1.80014 6.50701
27 3 7.83435 2.81221 2.11929
28 3 5.83516 6.95783 6.38075
29 3 6.23759 7.06329 2.99653
30 3 7.58455 2.55272 5.82486
31 3 0.795247 2.36623 1.54723
32 3 4.01409 7.41389 7.06293
33 6 2.2402 0.37316 4.88784
34 6 2.54612 9.35639 3.64246
35 6 0.439717 5.23041 7.97373
36 6 4.26558 4.50344 0.728832
37 4 0.1593 7.47653 2.13341
38 4 4.77066 1.82624 6.85941
39 4 6.813 2.45483 2.35073
40 4 6.86659 7.39888 6.36587
41 4 5.18465 6.72458 2.98579
42 4 8.61356 2.84591 6.04264
43 4 1.77918 1.84477 1.41109
44 4 3.24738 7.98353 7.48305
45 1 4.57593 0.529164 12.3036
46 1 0.8921 9.17009 13.2409
47 1 3.00286 5.2452 8.9824
48 1 2.47467 4.31428 16.5662
49 2 3.42657 8.55324 11.6614
50 2 1.76513 1.09433 13.7561
51 2 4.11408 3.86316 9.74536
52 2 1.46031 6.00912 15.9841
53 2 2.10351 8.31536 11.8667
54 2 3.07765 1.24156 13.682
55 2 5.2629 3.44677 9.28404
56 2 9.14685 6.39721 16.3961
57 2 2.93229 6.79699 10.2408
58 2 2.40733 2.89259 15.1802
59 2 4.49732 1.77542 10.7573
60 2 0.769608 7.6952 14.5013
61 5 5.73316 0.566584 13.7567
62 5 8.44344 9.35142 11.9045
63 5 6.22375 5.71488 16.1655
64 5 8.13903 3.96077 9.46579
65 5 7.73907 0.362723 14.2308
66 5 6.44208 9.4393 11.3088
67 5 4.26447 5.09016 15.6815
68 5 1.09713 4.6472 10.0563
69 3 3.84345 7.60925 10.827
70 3 1.47545 1.99877 14.7847
71 3 3.63334 2.80849 10.5512
72 3 1.85388 6.96411 15.027
73 3 1.871 7.13534 11.1237
74 3 3.33727 2.43025 14.331
75 3 5.52222 2.28468 10.0247
76 3 8.81041 7.36309 15.4821
77 6 6.88496 0.312616 13.379
78 6 7.26401 9.2124 12.1801
79 6 5.08664 5.25531 16.5825
80 6 9.18945 4.57253 9.24711
81 4 4.80599 7.93332 10.2805
82 4 9.35731 2.19139 15.0704
83 4 2.90098 2.95035 11.2761
84 4 2.59151 6.54671 14.3704
85 4 0.844813 6.99971 10.7451
86 4 4.41559 2.64083 14.6878
87 4 6.29648 1.59041 9.7772
88 4 7.74515 7.84259 15.4725
89 1 8.64598 10.1999 3.78328
90 1 5.03964 18.8658 4.70683
91 1 7.08651 15.012 0.539682
92 1 6.63975 13.9939 8.05303
93 2 7.72151 18.3705 3.17035
94 2 6.11542 10.8259 5.28649
95 2 8.05697 13.3806 1.04132
96 2 5.44303 15.5246 7.32944
97 2 6.42361 18.0677 3.38082
98 2 7.39217 11.1917 4.96128
99 2 0.424367 12.9981 0.721212
100 2 4.30852 16.1453 7.81616
101 2 7.15619 16.4684 1.83396
102 2 6.71106 12.6968 6.6174
103 2 8.50936 11.5344 2.48666
104 2 5.02374 17.5018 6.01028
105 5 1.2161 10.4738 5.25006
106 5 3.61332 18.9315 3.16995
107 5 1.50648 15.2862 7.52919
108 5 3.2635 13.9116 1.00359
109 5 3.07407 10.0125 5.88144
110 5 1.59746 19.0476 2.7404
111 5 8.45149 14.8235 7.10226
112 5 5.22952 14.3181 1.51456
113 3 8.08886 17.4678 2.15619
114 3 5.77432 11.7361 6.34107
115 3 7.66109 12.6078 2.08908
116 3 5.84128 16.4437 6.23779
117 3 6.23522 16.916 2.75615
118 3 7.75859 12.2022 5.83512
119 3 0.599345 11.9306 1.59655
120 3 3.95456 17.1349 6.87061
121 6 2.33977 10.102 4.93431
122 6 2.48164 19.2769 3.5289
123 6 0.38902 15.0144 7.89045
124 6 4.36179 14.3198 0.676406
125 4 0.181639 17.1317 2.20934
126 4 4.7452 12.2061 6.26305
127 4 6.63307 12.5779 2.19754
128 4 6.92329 16.5255 5.80853
129 4 5.2453 16.5041 2.79069
130 4 8.41185 12.807 5.48333
131 4 1.33837 11.2696 1.33059
132 4 3.40647 17.9057 7.32181
133 1 4.43122 10.1712 12.2322
134 1 0.830667 18.8182 13.3687
135 1 2.86074 14.9275 9.08776
136 1 2.41759 14.0403 16.5027
137 2 3.42332 18.2979 11.7061
138 2 1.94374 10.6476 13.9572
139 2 3.89779 13.4498 9.63715
140 2 1.4434 15.5194 15.9803
141 2 2.10176 17.991 12.0096
142 2 3.19641 11.0395 13.5458
143 2 5.20155 13.0705 9.205
144 2 9.16514 15.9143 16.4066
145 2 2.9829 16.4232 10.4341
146 2 2.44241 12.6798 15.1646
147 2 4.63453 11.6374 11.0692
148 2 0.802078 17.5509 14.7524
149 5 5.97319 10.2872 13.7837
150 5 8.44072 18.8456 11.7912
151 5 6.30734 15.4389 16.1834
152 5 8.19126 13.8156 9.45511
153 5 8.00992 10.0653 14.1667
154 5 6.40739 18.9179 11.361
155 5 4.40634 15.0226 15.6506
156 5 1.23656 14.0652 9.93202
157 3 3.87631 17.3228 10.9419
158 3 1.58059 11.5503 14.9291
159 3 3.58305 12.5114 10.669
160 3 1.72493 16.5455 14.9404
161 3 1.95279 16.9477 11.1398
162 3 3.45821 12.1597 14.357
163 3 5.4815 11.9801 10.0188
164 3 8.78353 17.0567 15.7123
165 6 7.03598 9.76246 13.5202
166 6 7.28888 18.9708 12.1471
167 6 5.33567 14.7125 16.3805
168 6 9.2294 14.3988 9.25512
169 4 4.91334 17.4027 10.6178
170 4 9.479 11.4906 15.1896
171 4 3.07419 12.9934 11.4097
172 4 2.77547 16.8743 14.6759
173 4 1.12953 16.2487 11.3015
174 4 4.13518 12.8302 13.9743
175 4 6.52835 11.5156 9.95563
176 4 7.87121 17.4685 15.8996
177 7 7.46886 13.3021 14.36
178 8 7.17152 13.2536 15.3029
179 8 6.83942 13.9006 13.915
180 7 6.92343 15.5597 12.5156
181 8 6.7482 16.511 12.7737
182 8 7.75645 15.537 12.1008
183 7 5.26224 4.86795 12.844
184 8 4.42724 4.87849 13.2978
185 8 5.31806 5.43136 12.0392
186 7 7.19729 5.84581 11.4093
187 8 7.56725 5.65213 12.3091
188 8 7.95621 5.96071 10.8304
189 7 2.81199 5.08809 4.366
190 8 2.28148 5.8359 4.5873
191 8 2.69138 4.53773 3.6273
192 7 4.62431 2.91041 3.9885
193 8 4.88065 2.58788 3.12319
194 8 5.13357 3.69968 4.11153
ITEM: TIMESTEP
97
ITEM: NUMBER OF ATOMS
194
ITEM: BOX BOUNDS xy xz yz pp pp pp
-3.9420464010540002e-03 9.5486834091343251e+00 0.0000000000000000e+00
-8.5737225778625969e-03 1.9395572822577876e+01 6.3094116273327017e-01
-7.5458735160776058e-03 1.7070360973516067e+01 0.0000000000000000e+00
ITEM: ATOMS id type x y z
1 1 8.74996 0.502819 3.69163
2 1 4.93909 9.2374 4.78593
3 1 7.01269 5.40589 0.425403
4 1 6.63941 4.31278 8.08335
5 2 7.75212 8.67541 3.21712
6 2 6.24073 0.916119 5.48153
7 2 8.07272 3.776 1.07915
8 2 5.59354 6.00754 7.39508
9 2 6.49153 8.24501 3.66524
10 2 7.33462 1.43773 4.93415
11 2 0.494733 3.45866 0.751478
12 2 4.34917 6.40758 7.81136
13 2 7.15386 6.67646 2.00472
14 2 6.56772 2.83048 6.78272
15 2 8.71659 1.88235 2.39217
16 2 4.88884 7.90368 6.14947
17 5 1.15298 0.797262 5.29004
18 5 3.65505 8.99994 3.26063
19 5 1.50322 5.77253 7.53287
20 5 3.17718 4.17134 1.15003
21 5 3.12384 0.315845 5.71563
22 5 1.67222 9.4184 2.8353
23 5 8.54281 4.96668 7.1385
24 5 5.13168 4.61819 1.48376
25 3 8.07618 7.68235 2.25272
26 3 5.79166 1.79743 6.50646
27 3 7.83567 2.81135 2.11927
28 3 5.83325 6.95979 6.38122
29 3 6.23878 7.06211 2.99686
30 3 7.58381 2.55517 5.82806
31 3 0.79565 2.36591 1.54839
32 3 4.01473 7.41552 7.06159
33 6 2.24271 0.373873 4.88945
34 6 2.54536 9.35736 3.64411
35 6 0.4366 5.23114 7.97109
36 6 4.26637 4.50327 0.73142
37 4 0.160501 7.47955 2.13861
38 4 4.77442 1.81883 6.85629
39 4 6.81183 2.45541 2.34453
40 4 6.86522 7.39825 6.36754
41 4 5.18628 6.72262 2.9933
42 4 8.61658 2.84475 6.03542
43 4 1.77815 1.84201 1.41243
44 4 3.25096 7.9823 7.4887
45 1 4.5764 0.528954 12.3038
46 1 0.891867 9.17022 13.2398
47 1 3.00335 5.24413 8.98168
48 1 2.47513 4.3148 16.5666
49 2 3.42393 8.55137 11.6595
50 2 1.76557 1.09615 13.7583
51 2 4.11423 3.86256 9.74673
52 2 1.45938 6.01064 15.983
53 2 2.10316 8.31549 11.8653
54 2 3.07727 1.24277 13.6827
55 2 5.26336 3.44475 9.28561
56 2 9.14641 6.39748 16.395
57 2 2.93227 6.79546 10.2395
58 2 2.40655 2.89145 15.1775
59 2 4.49742 1.77383 10.7566
60 2 0.769663 7.69641 14.5007
61 5 5.73259 0.564257 13.7561
62 5 8.44327 9.35585 11.9024
63 5 6.22045 5.71588 16.1666
64 5 8.14088 3.95873 9.46502
65 5 7.73801 0.363693 14.2311
66 5 6.44324 9.43974 11.3092
67 5 4.26491 5.08991 15.6829
68 5 1.09803 4.64877 10.0573
69 3 3.84181 7.60927 10.8274
70 3 1.47386 1.99801 14.7831
71 3 3.63624 2.80953 10.5497
72 3 1.85253 6.96337 15.0271
73 3 1.87113 7.13694 11.122
74 3 3.33752 2.42829 14.3322
75 3 5.52239 2.28679 10.0227
76 3 8.81136 7.36453 15.4803
77 6 6.88317 0.312368 13.3774
78 6 7.26454 9.21089 12.1814
79 6 5.08464 5.25638 16.5816
80 6 9.1912 4.57261 9.24847
81 4 4.80497 7.9286 10.2803
82 4 9.3561 2.1989 15.0645
83 4 2.90384 2.94695 11.2734
84 4 2.59102 6.55022 14.3718
85 4 0.847329 7.00574 10.7376
86 4 4.41512 2.63782 14.6898
87 4 6.28894 1.58047 9.77752
88 4 7.74317 7.83934 15.4753
89 1 8.64597 10.1996 3.78399
90 1 5.03968 18.8659 4.70605
91 1 7.08639 15.0111 0.539916
92 1 6.64023 13.9939 8.05345
93 2 7.72079 18.3694 3.16865
94 2 6.11687 10.8268 5.28693
95 2 8.05745 13.3799 1.04282
96 2 5.4416 15.5243 7.32796
97 2 6.42516 18.0672 3.37934
98 2 7.3935 11.1908 4.9616
99 2 0.422059 12.9973 0.722225
100 2 4.30667 16.1434 7.8161
101 2 7.15744 16.4666 1.83493
102 2 6.7123 12.6988 6.61715
103 2 8.50812 11.5325 2.48598
104 2 5.02274 17.5036 6.00841
105 5 1.2164 10.4746 5.25025
106 5 3.61111 18.9351 3.16872
107 5 1.50712 15.2865 7.52747
108 5 3.26371 13.9128 1.0041
109 5 3.07431 10.0116 5.88128
110 5 1.59727 19.0476 2.74107
111 5 8.45174 14.8228 7.10282
112 5 5.23042 14.3197 1.51539
113 3 8.08924 17.4687 2.15707
114 3 5.7765 11.7387 6.34022
115 3 7.65994 12.6081 2.08874
116 3 5.83948 16.4441 6.23571
117 3 6.2352 16.9189 2.75666
118 3 7.75845 12.2027 5.83535
119 3 0.599243 11.9288 1.59746
120 3 3.95625 17.1368 6.86996
121 6 2.34 10.1026 4.93427
122 6 2.48458 19.2776 3.52778
123 6 0.387882 15.0151 7.89383
124 6 4.36098 14.3196 0.67724
125 4 0.179737 17.1295 2.21136
126 4 4.74536 12.2041 6.25787
127 4 6.63342 12.5726 2.19531
128 4 6.92467 16.5197 5.80975
129 4 5.24657 16.501 2.78263
130 4 8.40908 12.8051 5.48063
131 4 1.33769 11.2698 1.32656
132 4 3.40933 17.9044 7.32707
133 1 4.43082 10.1704 12.232
134 1 0.829598 18.8179 13.3687
135 1 2.85982 14.9259 9.0879
136 1 2.41775 14.0404 16.5023
137 2 3.42207 18.2967 11.7062
138 2 1.94562 10.6467 13.9585
139 2 3.89917 13.4503 9.63789
140 2 1.44337 15.5203 15.9788
141 2 2.10469 17.9897 12.0072
142 2 3.19568 11.0384 13.5459
143 2 5.20088 13.0704 9.20527
144 2 9.16317 15.9135 16.4071
145 2 2.98207 16.4225 10.4365
146 2 2.44283 12.68 15.1642
147 2 4.63452 11.6359 11.0697
148 2 0.801368 17.5528 14.7532
149 5 5.97209 10.2861 13.7844
150 5 8.43983 18.8477 11.7907
151 5 6.30772 15.44 16.1851
152 5 8.19152 13.8142 9.45624
153 5 8.01151 10.0658 14.1655
154 5 6.40768 18.9158 11.3609
155 5 4.40545 15.0233 15.6509
156 5 1.23787 14.0639 9.93023
157 3 3.87322 17.3235 10.9441
158 3 1.58075 11.5491 14.9289
159 3 3.583 12.5116 10.6703
160 3 1.72589 16.5437 14.941
161 3 1.95281 16.9462 11.138
162 3 3.45859 12.1613 14.3576
163 3 5.48278 11.9785 10.0185
164 3 8.78267 17.0562 15.7135
165 6 7.03562 9.7595 13.5203
166 6 7.28835 18.9707 12.1486
167 6 5.33745 14.7128 16.3784
168 6 9.23162 14.4015 9.25388
169 4 4.90985 17.3971 10.6202
170 4 9.48027 11.4942 15.1855
171 4 3.07327 12.9936 11.4083
172 4 2.77517 16.8762 14.676
173 4 1.12615 16.2521 11.3009
174 4 4.13683 12.8256 13.9651
175 4 6.53073 11.5145 9.9588
176 4 7.8742 17.4723 15.9037
177 7 7.4705 13.3009 14.3598
178 8 7.17635 13.2571 15.3028
179 8 6.84819 13.9139 13.923
180 7 6.92376 15.5596 12.5158
181 8 6.74318 16.5077 12.7743
182 8 7.75339 15.5351 12.095
183 7 5.26142 4.86732 12.8429
184 8 4.43008 4.88296 13.3005
185 8 5.30544 5.41688 12.0277
186 7 7.1985 5.8486 11.4111
187 8 7.56189 5.64942 12.3106
188 8 7.95668 5.95441 10.8307
189 7 2.81066 5.09096 4.3652
190 8 2.26505 5.83062 4.57941
191 8 2.69366 4.54639 3.62246
192 7 4.62413 2.91168 3.98445
193 8 4.88005 2.58226 3.1238
194 8 5.1255 3.70214 4.11405
ITEM: TIMESTEP
98
ITEM: NUMBER OF ATOMS
194
ITEM: BOX BOUNDS xy xz yz pp pp pp
-3.8546818099414182e-03 9.5485836877023083e+00 0.0000000000000000e+00
-8.3837096528167621e-03 1.9395382809652830e+01 6.3092880589236677e-01
-7.3786400319306722e-03 1.7070193740031918e+01 0.0000000000000000e+00
ITEM: ATOMS id type x y z
1 1 8.75084 0.502838 3.69125
2 1 4.93823 9.23843 4.78608
3 1 7.01178 5.40605 0.424943
4 1 6.64009 4.31314 8.08429
5 2 7.75151 8.67418 3.21878
6 2 6.24018 0.913413 5.48371
7 2 8.07364 3.77614 1.0794
8 2 5.59148 6.01048 7.39393
9 2 6.49219 8.24629 3.66612
10 2 7.33524 1.43755 4.93644
11 2 0.494286 3.45957 0.75273
12 2 4.35029 6.4076 7.81001
13 2 7.15473 6.67436 2.00689
14 2 6.5695 2.83146 6.78321
15 2 8.71779 1.88147 2.39144
16 2 4.8881 7.90473 6.15262
17 5 1.15309 0.797746 5.29021
18 5 3.65457 9.00057 3.26025
19 5 1.50379 5.77442 7.53418
20 5 3.17683 4.17253 1.15092
21 5 3.12206 0.316039 5.71349
22 5 1.67389 9.4184 2.8365
23 5 8.54335 4.96476 7.13936
24 5 5.13113 4.61943 1.48399
25 3 8.0762 7.68171 2.25313
26 3 5.79596 1.79468 6.50585
27 3 7.83688 2.81055 2.1192
28 3 5.83141 6.96174 6.38173
29 3 6.23994 7.06094 2.99714
30 3 7.58301 2.55755 5.83125
31 3 0.796069 2.36557 1.54956
32 3 4.01534 7.41719 7.0602
33 6 2.24519 0.374647 4.8912
34 6 2.54465 9.35829 3.6457
35 6 0.433579 5.23196 7.96829
36 6 4.26713 4.50306 0.734072
37 4 0.162298 7.48243 2.1436
38 4 4.77806 1.81126 6.8532
39 4 6.81079 2.45635 2.3382
40 4 6.86357 7.39726 6.36913
41 4 5.18817 6.72053 3.00083
42 4 8.61954 2.84364 6.02806
43 4 1.77673 1.83937 1.41385
44 4 3.25418 7.98156 7.49433
45 1 4.57687 0.528743 12.304
46 1 0.891629 9.17035 13.2388
47 1 3.00384 5.24309 8.98097
48 1 2.47559 4.31532 16.567
49 2 3.42128 8.54954 11.6576
50 2 1.76599 1.09798 13.7606
51 2 4.11428 3.86194 9.74812
52 2 1.45848 6.01218 15.9818
53 2 2.1028 8.31556 11.8638
54 2 3.07696 1.24405 13.6834
55 2 5.26389 3.44266 9.28715
56 2 9.14593 6.39775 16.3939
57 2 2.93219 6.79392 10.2382
58 2 2.40576 2.89031 15.1748
59 2 4.49754 1.7723 10.7559
60 2 0.769793 7.69762 14.5001
61 5 5.73205 0.561911 13.7554
62 5 8.44309 9.36028 11.9003
63 5 6.21706 5.71684 16.1677
64 5 8.14275 3.9567 9.46424
65 5 7.73699 0.364668 14.2314
66 5 6.44437 9.44017 11.3096
67 5 4.26532 5.08965 15.6843
68 5 1.09901 4.65036 10.0583
69 3 3.84029 7.60933 10.8277
70 3 1.4722 1.99723 14.7815
71 3 3.6392 2.8106 10.5482
72 3 1.85111 6.96258 15.0272
73 3 1.8713 7.13858 11.1203
74 3 3.33789 2.42635 14.3335
75 3 5.52256 2.28892 10.0208
76 3 8.8122 7.36603 15.4786
77 6 6.88137 0.312166 13.3759
78 6 7.26511 9.20938 12.1827
79 6 5.08274 5.25753 16.5806
80 6 9.19284 4.57262 9.24989
81 4 4.80332 7.92342 10.2804
82 4 9.35496 2.20639 15.0586
83 4 2.90618 2.94371 11.271
84 4 2.59069 6.55394 14.3729
85 4 0.850015 7.01181 10.7302
86 4 4.41399 2.63463 14.6914
87 4 6.28163 1.57058 9.7776
88 4 7.74203 7.83568 15.4782
89 1 8.64597 10.1994 3.78471
90 1 5.03972 18.8659 4.70526
91 1 7.08626 15.0101 0.540152
92 1 6.64071 13.9938 8.05387
93 2 7.72009 18.3683 3.16689
94 2 6.11829 10.8276 5.28747
95 2 8.05794 13.3792 1.04435
96 2 5.44021 15.5241 7.32637
97 2 6.42671 18.0666 3.3779
98 2 7.39483 11.1898 4.96194
99 2 0.419718 12.9965 0.723279
100 2 4.30478 16.1414 7.81599
101 2 7.15872 16.4648 1.83596
102 2 6.71356 12.7009 6.61687
103 2 8.50687 11.5307 2.48519
104 2 5.02168 17.5054 6.00658
105 5 1.2167 10.4753 5.25041
106 5 3.60891 18.9388 3.1675
107 5 1.50778 15.2867 7.52574
108 5 3.2639 13.914 1.0046
109 5 3.07462 10.0107 5.88108
110 5 1.59703 19.0477 2.74176
111 5 8.45193 14.8221 7.10335
112 5 5.23135 14.3212 1.51622
113 3 8.08959 17.4696 2.15796
114 3 5.77865 11.7412 6.33929
115 3 7.65885 12.6084 2.08842
116 3 5.83773 16.4445 6.23369
117 3 6.23513 16.9218 2.75709
118 3 7.75818 12.203 5.83561
119 3 0.599122 11.927 1.59838
120 3 3.95805 17.1386 6.86935
121 6 2.34014 10.1032 4.93433
122 6 2.48759 19.2782 3.52653
123 6 0.386829 15.0157 7.8972
124 6 4.36015 14.3195 0.678185
125 4 0.178061 17.1272 2.21324
126 4 4.7459 12.2016 6.25283
127 4 6.63322 12.5671 2.19338
128 4 6.92522 16.5136 5.81139
129 4 5.24771 16.4977 2.77451
130 4 8.40738 12.8042 5.47754
131 4 1.3375 11.2696 1.32244
132 4 3.41187 17.9035 7.33235
133 1 4.43044 10.1696 12.2319
134 1 0.82852 18.8177 13.3686
135 1 2.85891 14.9244 9.08805
136 1 2.41791 14.0406 16.5018
137 2 3.42081 18.2957 11.7064
138 2 1.94752 10.6457 13.9598
139 2 3.90061 13.4507 9.63868
140 2 1.44341 15.5213 15.9771
141 2 2.1077 17.9883 12.0047
142 2 3.19493 11.0373 13.5459
143 2 5.20016 13.0702 9.2056
144 2 9.16112 15.9127 16.4076
145 2 2.98123 16.422 10.4389
146 2 2.44323 12.6801 15.1637
147 2 4.63443 11.6344 11.0702
148 2 0.800625 17.5547 14.754
149 5 5.97096 10.2851 13.7851
150 5 8.43894 18.8499 11.7901
151 5 6.3081 15.4411 16.1868
152 5 8.19176 13.8129 9.45739
153 5 8.01312 10.0662 14.1644
154 5 6.40793 18.9136 11.3609
155 5 4.40453 15.024 15.6513
156 5 1.23922 14.0626 9.92844
157 3 3.87018 17.3243 10.9461
158 3 1.58096 11.548 14.9287
159 3 3.58304 12.5118 10.6716
160 3 1.72687 16.5418 14.9416
161 3 1.95277 16.9448 11.1363
162 3 3.45894 12.1629 14.3582
163 3 5.48415 11.9768 10.0182
164 3 8.78192 17.0557 15.7147
165 6 7.03521 9.75657 13.5205
166 6 7.28781 18.9705 12.15
167 6 5.33922 14.7132 16.3763
168 6 9.23374 14.404 9.25268
169 4 4.9062 17.3911 10.6225
170 4 9.48129 11.4982 15.1817
171 4 3.0718 12.994 11.4075
172 4 2.77449 16.8776 14.6761
173 4 1.12271 16.2556 11.3002
174 4 4.13901 12.8214 13.9558
175 4 6.53248 11.5137 9.96203
176 4 7.87655 17.4765 15.908
177 7 7.47213 13.2998 14.3596
178 8 7.18128 13.2607 15.302
179 8 6.85719 13.9271 13.9311
180 7 6.92405 15.5596 12.5161
181 8 6.73839 16.5036 12.7746
182 8 7.75084 15.5332 12.089
183 7 5.26061 4.86668 12.8419
184 8 4.43279 4.88765 13.303
185 8 5.29262 5.40213 12.0165
186 7 7.19972 5.85141 11.4129
187 8 7.5563 5.64679 12.3116
188 8 7.95711 5.948 10.8311
189 7 2.80939 5.09384 4.36447
190 8 2.24828 5.82531 4.5712
191 8 2.69557 4.55498 3.61707
192 7 4.62394 2.91295 3.9804
193 8 4.87942 2.5767 3.12438
194 8 5.11753 3.70486 4.11659
ITEM: TIMESTEP
99
ITEM: NUMBER OF ATOMS
194
ITEM: BOX BOUNDS xy xz yz pp pp pp
-3.7648574469475449e-03 9.5484811585884675e+00 0.0000000000000000e+00
-8.1883468664116776e-03 1.9395187446866423e+01 6.3091610114152163e-01
-7.2066980472715869e-03 1.7070021798047261e+01 0.0000000000000000e+00
ITEM: ATOMS id type x y z
1 1 8.75172 0.502866 3.69087
2 1 4.93736 9.23947 4.78622
3 1 7.01089 5.40621 0.424496
4 1 6.64077 4.31351 8.08523
5 2 7.75086 8.67286 3.22043
6 2 6.23953 0.910729 5.48593
7 2 8.07462 3.77622 1.07969
8 2 5.58942 6.01348 7.39275
9 2 6.49286 8.24756 3.66697
10 2 7.33593 1.43744 4.93883
11 2 0.493798 3.46047 0.754018
12 2 4.35144 6.40753 7.80868
13 2 7.1556 6.67229 2.00912
14 2 6.57137 2.83246 6.78366
15 2 8.71907 1.88059 2.39066
16 2 4.88739 7.90577 6.1558
17 5 1.15321 0.798209 5.29034
18 5 3.65408 9.00121 3.2599
19 5 1.50431 5.77628 7.53557
20 5 3.17646 4.17372 1.15178
21 5 3.12032 0.316226 5.71133
22 5 1.67552 9.4184 2.83769
23 5 8.54384 4.96283 7.14021
24 5 5.13065 4.62067 1.48426
25 3 8.07618 7.68112 2.25359
26 3 5.80025 1.79188 6.50519
27 3 7.83799 2.80982 2.11909
28 3 5.82964 6.96369 6.38228
29 3 6.24108 7.05981 2.99736
30 3 7.58218 2.55987 5.83442
31 3 0.796505 2.36523 1.55073
32 3 4.0159 7.41889 7.05877
33 6 2.24761 0.375481 4.89309
34 6 2.54401 9.3592 3.64722
35 6 0.430665 5.23287 7.96531
36 6 4.26783 4.50281 0.736782
37 4 0.164685 7.48516 2.14836
38 4 4.7816 1.80353 6.85016
39 4 6.80989 2.45763 2.33174
40 4 6.86164 7.39594 6.37062
41 4 5.19031 6.71829 3.00837
42 4 8.62241 2.8426 6.02058
43 4 1.77494 1.83687 1.41537
44 4 3.25704 7.98131 7.49993
45 1 4.57733 0.528528 12.3042
46 1 0.891387 9.17048 13.2378
47 1 3.00434 5.24206 8.98025
48 1 2.47606 4.31586 16.5674
49 2 3.41862 8.54773 11.6557
50 2 1.76636 1.09981 13.7629
51 2 4.11421 3.86128 9.74955
52 2 1.45759 6.01373 15.9805
53 2 2.10244 8.31555 11.8623
54 2 3.07672 1.24539 13.6841
55 2 5.26449 3.4405 9.28869
56 2 9.14541 6.39802 16.3927
57 2 2.93205 6.7924 10.237
58 2 2.40496 2.88916 15.172
59 2 4.49767 1.77081 10.7553
60 2 0.769999 7.69881 14.4995
61 5 5.73152 0.559544 13.7547
62 5 8.44291 9.36473 11.8982
63 5 6.21358 5.71777 16.1689
64 5 8.14464 3.95468 9.46345
65 5 7.73601 0.365646 14.2317
66 5 6.44547 9.44059 11.31
67 5 4.26572 5.08938 15.6858
68 5 1.10007 4.65196 10.0593
69 3 3.83888 7.60941 10.8279
70 3 1.47049 1.99643 14.7798
71 3 3.6422 2.81169 10.5467
72 3 1.84964 6.96175 15.0272
73 3 1.87148 7.14027 11.1186
74 3 3.33837 2.42441 14.3348
75 3 5.52272 2.29104 10.0189
76 3 8.81294 7.36759 15.4768
77 6 6.87957 0.31201 13.3746
78 6 7.26572 9.20788 12.1839
79 6 5.08093 5.25877 16.5793
80 6 9.19437 4.57256 9.25134
81 4 4.80104 7.9178 10.2807
82 4 9.35387 2.21384 15.0525
83 4 2.90799 2.94065 11.2688
84 4 2.59056 6.55785 14.3738
85 4 0.852857 7.01792 10.7229
86 4 4.41222 2.63127 14.6926
87 4 6.27455 1.56079 9.77741
88 4 7.74175 7.83161 15.4811
89 1 8.64597 10.1991 3.78543
90 1 5.03976 18.866 4.70447
91 1 7.08614 15.0092 0.540389
92 1 6.64118 13.9937 8.05429
93 2 7.71944 18.3671 3.16509
94 2 6.11969 10.8286 5.2881
95 2 8.05844 13.3785 1.04591
96 2 5.43888 15.524 7.32467
97 2 6.42823 18.0661 3.37652
98 2 7.39618 11.1889 4.9623
99 2 0.417346 12.9957 0.724374
100 2 4.30285 16.1393 7.81583
101 2 7.16002 16.4631 1.83708
102 2 6.71484 12.7029 6.61656
103 2 8.50561 11.529 2.4843
104 2 5.02055 17.5072 6.00479
105 5 1.217 10.4761 5.25055
106 5 3.6067 18.9425 3.16631
107 5 1.50845 15.287 7.52402
108 5 3.26407 13.9152 1.00507
109 5 3.07499 10.0098 5.88085
110 5 1.59676 19.0478 2.74248
111 5 8.45207 14.8214 7.10387
112 5 5.23231 14.3228 1.51703
113 3 8.08991 17.4704 2.15887
114 3 5.78076 11.7437 6.33829
115 3 7.65781 12.6085 2.08813
116 3 5.83604 16.4448 6.23174
117 3 6.23502 16.9246 2.75745
118 3 7.75779 12.2033 5.8359
119 3 0.598979 11.9252 1.59932
120 3 3.95995 17.1404 6.86876
121 6 2.3402 10.1038 4.9345
122 6 2.49067 19.2788 3.52516
123 6 0.385867 15.0164 7.90055
124 6 4.35931 14.3193 0.679236
125 4 0.176624 17.125 2.21501
126 4 4.74683 12.1987 6.24794
127 4 6.63246 12.5612 2.19174
128 4 6.92493 16.5073 5.81344
129 4 5.24872 16.4944 2.76636
130 4 8.40678 12.8043 5.47404
131 4 1.3378 11.2688 1.31825
132 4 3.41408 17.9029 7.33765
133 1 4.43007 10.1688 12.2317
134 1 0.827433 18.8174 13.3685
135 1 2.858 14.9228 9.08818
136 1 2.41808 14.0407 16.5013
137 2 3.41952 18.2946 11.7066
138 2 1.94943 10.6448 13.9612
139 2 3.90212 13.4511 9.63951
140 2 1.4435 15.5224 15.9754
141 2 2.11076 17.9869 12.0022
142 2 3.19417 11.0362 13.546
143 2 5.19939 13.07 9.20599
144 2 9.15899 15.9119 16.4082
145 2 2.9804 16.4214 10.4413
146 2 2.44361 12.6801 15.1632
147 2 4.63428 11.633 11.0705
148 2 0.79985 17.5566 14.7549
149 5 5.96982 10.284 13.7859
150 5 8.43807 18.852 11.7896
151 5 6.30849 15.4421 16.1885
152 5 8.19198 13.8116 9.45854
153 5 8.01476 10.0667 14.1633
154 5 6.40814 18.9115 11.3607
155 5 4.40358 15.0246 15.6516
156 5 1.24063 14.0614 9.92663
157 3 3.86718 17.325 10.9481
158 3 1.58123 11.5469 14.9284
159 3 3.58318 12.512 10.6729
160 3 1.72788 16.54 14.9423
161 3 1.95265 16.9432 11.1345
162 3 3.45924 12.1645 14.3588
163 3 5.48558 11.9751 10.018
164 3 8.78128 17.0552 15.7158
165 6 7.03477 9.75369 13.5208
166 6 7.28726 18.9703 12.1514
167 6 5.34099 14.7137 16.374
168 6 9.23576 14.4065 9.25154
169 4 4.90242 17.3848 10.6247
170 4 9.48203 11.5025 15.1782
171 4 3.06979 12.9944 11.4074
172 4 2.77345 16.8785 14.6765
173 4 1.11923 16.2593 11.2995
174 4 4.14169 12.8176 13.9462
175 4 6.53361 11.5132 9.9653
176 4 7.87824 17.4813 15.9123
177 7 7.47374 13.2986 14.3595
178 8 7.18631 13.2644 15.3007
179 8 6.86644 13.9402 13.9395
180 7 6.92428 15.5596 12.5165
181 8 6.73381 16.4989 12.7746
182 8 7.7488 15.5313 12.0827
183 7 5.25982 4.86605 12.8408
184 8 4.43534 4.89256 13.3056
185 8 5.27961 5.3871 12.0058
186 7 7.20094 5.85422 11.4147
187 8 7.55051 5.64423 12.3122
188 8 7.95753 5.94148 10.8315
189 7 2.80815 5.09674 4.36379
190 8 2.23118 5.81996 4.56267
191 8 2.69714 4.56347 3.61113
192 7 4.62372 2.91419 3.97635
193 8 4.87881 2.5712 3.1249
194 8 5.10967 3.70786 4.11912
ITEM: TIMESTEP
100
ITEM: NUMBER OF ATOMS
194
ITEM: BOX BOUNDS xy xz yz pp pp pp
-3.6729444116190280e-03 9.5483762453806449e+00 0.0000000000000000e+00
-7.9884413386679398e-03 1.9394987541338679e+01 6.3090310096902569e-01
-7.0307579216333238e-03 1.7069845857921621e+01 0.0000000000000000e+00
ITEM: ATOMS id type x y z
1 1 8.75259 0.502905 3.6905
2 1 4.9365 9.24051 4.78637
3 1 7.00999 5.40637 0.42406
4 1 6.64145 4.31388 8.08617
5 2 7.75017 8.67145 3.22207
6 2 6.23879 0.908067 5.48819
7 2 8.07565 3.77622 1.08003
8 2 5.58735 6.01652 7.39153
9 2 6.49354 8.24881 3.66778
10 2 7.33671 1.43742 4.9413
11 2 0.49327 3.46136 0.755341
12 2 4.3526 6.40738 7.80737
13 2 7.15647 6.67026 2.01141
14 2 6.57333 2.83349 6.78407
15 2 8.72042 1.8797 2.38984
16 2 4.8867 7.90682 6.15902
17 5 1.15335 0.798652 5.29042
18 5 3.65358 9.00185 3.25958
19 5 1.50477 5.77809 7.53703
20 5 3.17607 4.17492 1.15261
21 5 3.11864 0.316404 5.70917
22 5 1.67709 9.41841 2.83886
23 5 8.54427 4.96089 7.14105
24 5 5.13027 4.62193 1.4846
25 3 8.07611 7.68057 2.25409
26 3 5.80453 1.78903 6.50448
27 3 7.83899 2.80916 2.11894
28 3 5.82795 6.96563 6.38285
29 3 6.24218 7.0587 2.99754
30 3 7.58131 2.56212 5.83756
31 3 0.796957 2.36487 1.55191
32 3 4.0164 7.42062 7.05731
33 6 2.24996 0.376376 4.8951
34 6 2.54342 9.36006 3.64868
35 6 0.427868 5.23389 7.96219
36 6 4.26847 4.50252 0.739542
37 4 0.167647 7.48774 2.15291
38 4 4.78502 1.79566 6.84716
39 4 6.80914 2.45926 2.32517
40 4 6.85944 7.39427 6.37202
41 4 5.19271 6.71589 3.0159
42 4 8.62518 2.84165 6.013
43 4 1.77279 1.8345 1.41696
44 4 3.25955 7.98158 7.50549
45 1 4.57778 0.52831 12.3044
46 1 0.891139 9.17061 13.2367
47 1 3.00483 5.24104 8.97953
48 1 2.47652 4.3164 16.5678
49 2 3.41595 8.54595 11.6539
50 2 1.76669 1.10164 13.7653
51 2 4.11405 3.86061 9.75099
52 2 1.45672 6.01529 15.9793
53 2 2.10206 8.31548 11.8608
54 2 3.07656 1.2468 13.6847
55 2 5.26517 3.43827 9.2902
56 2 9.14483 6.39831 16.3914
57 2 2.93186 6.79088 10.2358
58 2 2.40414 2.88802 15.1693
59 2 4.49782 1.76937 10.7546
60 2 0.770281 7.69999 14.499
61 5 5.73101 0.557157 13.754
62 5 8.44272 9.36917 11.896
63 5 6.21003 5.71867 16.1701
64 5 8.14656 3.95267 9.46264
65 5 7.73507 0.366628 14.232
66 5 6.44654 9.44099 11.3104
67 5 4.26609 5.08911 15.6873
68 5 1.10121 4.65358 10.0604
69 3 3.83758 7.60951 10.8279
70 3 1.46871 1.99561 14.7782
71 3 3.64526 2.81279 10.5451
72 3 1.8481 6.96087 15.0273
73 3 1.87169 7.14199 11.1168
74 3 3.33897 2.42247 14.3362
75 3 5.52287 2.29315 10.0169
76 3 8.81358 7.3692 15.4751
77 6 6.87777 0.311902 13.3734
78 6 7.26639 9.20638 12.185
79 6 5.07922 5.26011 16.5778
80 6 9.19579 4.57243 9.25283
81 4 4.79817 7.91175 10.2813
82 4 9.35282 2.22124 15.0463
83 4 2.90927 2.93777 11.2668
84 4 2.59063 6.56194 14.3745
85 4 0.855838 7.02406 10.7158
86 4 4.40983 2.62773 14.6935
87 4 6.2677 1.55113 9.77694
88 4 7.74231 7.82714 15.484
89 1 8.64598 10.1989 3.78617
90 1 5.0398 18.8661 4.70368
91 1 7.08602 15.0083 0.540628
92 1 6.64164 13.9937 8.05471
93 2 7.71882 18.3659 3.16323
94 2 6.12106 10.8296 5.28882
95 2 8.05895 13.3779 1.04749
96 2 5.43759 15.5241 7.32286
97 2 6.42974 18.0656 3.37518
98 2 7.39755 11.1879 4.96269
99 2 0.414946 12.9949 0.725508
100 2 4.3009 16.1373 7.81562
101 2 7.16135 16.4614 1.83826
102 2 6.71613 12.7049 6.61621
103 2 8.50434 11.5273 2.48331
104 2 5.01938 17.509 6.00306
105 5 1.21731 10.4769 5.25066
106 5 3.60451 18.9462 3.16513
107 5 1.50912 15.2872 7.52231
108 5 3.26423 13.9165 1.00554
109 5 3.07542 10.0089 5.88058
110 5 1.59645 19.0479 2.74323
111 5 8.45216 14.8207 7.10438
112 5 5.23329 14.3244 1.51785
113 3 8.0902 17.4712 2.1598
114 3 5.78282 11.7463 6.3372
115 3 7.65683 12.6086 2.08787
116 3 5.83441 16.445 6.22987
117 3 6.23487 16.9273 2.75773
118 3 7.75727 12.2035 5.83622
119 3 0.598815 11.9235 1.60027
120 3 3.96193 17.1422 6.8682
121 6 2.34018 10.1045 4.93478
122 6 2.49379 19.2792 3.52368
123 6 0.384999 15.0171 7.90386
124 6 4.35847 14.319 0.680391
125 4 0.175442 17.1228 2.21664
126 4 4.74816 12.1954 6.24322
127 4 6.63114 12.5552 2.19039
128 4 6.92378 16.5007 5.81588
129 4 5.24959 16.4911 2.7582
130 4 8.40725 12.8054 5.47014
131 4 1.33858 11.2676 1.31399
132 4 3.41599 17.9027 7.34295
133 1 4.42971 10.1679 12.2316
134 1 0.826336 18.8172 13.3685
135 1 2.8571 14.9213 9.08831
136 1 2.41826 14.0409 16.5008
137 2 3.41822 18.2936 11.7069
138 2 1.95134 10.6438 13.9625
139 2 3.90369 13.4514 9.64038
140 2 1.44364 15.5236 15.9735
141 2 2.11388 17.9854 11.9998
142 2 3.19339 11.0352 13.5462
143 2 5.19858 13.0698 9.20646
144 2 9.15678 15.9111 16.4087
145 2 2.97957 16.4208 10.4438
146 2 2.44396 12.6799 15.1626
147 2 4.63406 11.6316 11.0708
148 2 0.799045 17.5583 14.7559
149 5 5.96866 10.283 13.7866
150 5 8.43719 18.8542 11.7891
151 5 6.30889 15.4431 16.1902
152 5 8.1922 13.8103 9.45971
153 5 8.01642 10.0671 14.1621
154 5 6.4083 18.9093 11.3606
155 5 4.4026 15.0252 15.6519
156 5 1.24208 14.0601 9.92481
157 3 3.86423 17.3257 10.9499
158 3 1.58154 11.5458 14.9282
159 3 3.58341 12.5123 10.674
160 3 1.72891 16.5381 14.9431
161 3 1.95246 16.9416 11.1328
162 3 3.45952 12.166 14.3593
163 3 5.48709 11.9734 10.0178
164 3 8.78076 17.0546 15.7169
165 6 7.03428 9.75085 13.5212
166 6 7.28672 18.9701 12.1527
167 6 5.34276 14.7142 16.3715
168 6 9.23767 14.409 9.25045
169 4 4.89852 17.3782 10.6267
170 4 0.561328 11.5071 15.1751
171 4 3.06724 12.995 11.408
172 4 2.77207 16.879 14.6771
173 4 1.11569 16.2632 11.2989
174 4 4.14485 12.8143 13.9366
175 4 6.53413 11.513 9.96861
176 4 7.87929 17.4867 15.9168
177 7 7.47533 13.2975 14.3594
178 8 7.19144 13.268 15.2989
179 8 6.87593 13.9532 13.9479
180 7 6.92447 15.5596 12.5168
181 8 6.72946 16.4936 12.7745
182 8 7.74723 15.5294 12.0761
183 7 5.25905 4.86542 12.8397
184 8 4.43771 4.89768 13.308
185 8 5.26642 5.37182 11.9956
186 7 7.20218 5.85704 11.4166
187 8 7.54455 5.64175 12.3122
188 8 7.95794 5.93486 10.832
189 7 2.80696 5.09966 4.36317
190 8 2.2138 5.81457 4.55383
191 8 2.69838 4.57187 3.60464
192 7 4.62349 2.91543 3.97229
193 8 4.87821 2.56579 3.12534
194 8 5.10196 3.71117 4.12164
