LAMMPS (11 Feb 2026 - Development - patch_11Feb2026-156-g48a5c9ef8e)
  using 1 OpenMP thread(s) per MPI task
variable        T   equal  298
variable        dt  equal  0.5
variable        P   equal  1.0
variable        nsteps  equal 100
variable        thermo_freq equal 1
variable        dump_freq equal 1


processors      * * * map xyz

units           real
atom_style      full
boundary        p p p

read_data       initial.data
Reading data file ...
  orthogonal box = (0 0 0) to (39.461426 39.461426 39.461426)
  1 by 1 by 1 MPI processor grid
  reading atoms ...
  6144 atoms
  reading velocities ...
  6144 velocities
  scanning bonds ...
  2 = max bonds/atom
  scanning angles ...
  1 = max angles/atom
  orthogonal box = (0 0 0) to (39.461426 39.461426 39.461426)
  1 by 1 by 1 MPI processor grid
  reading bonds ...
  4096 bonds
  reading angles ...
  2048 angles
Finding 1-2 1-3 1-4 neighbors ...
  special bond factors lj:    0        0        0       
  special bond factors coul:  0        0        0       
     2 = max # of 1-2 neighbors
     1 = max # of 1-3 neighbors
     1 = max # of 1-4 neighbors
     2 = max # of special neighbors
  special bonds CPU = 0.001 seconds
  read_data CPU = 0.053 seconds
#read_restart    restart.old

pair_style      mbx 9.0

bond_style      none
angle_style     none
dihedral_style  none
improper_style  none

pair_coeff      * * 1 h2o 1 2 2 json mbx.json

neighbor        2.0 bin
neigh_modify    every 1 delay 10

timestep        ${dt}
timestep        0.5

compute         mbx all pair mbx
variable        e1bpip    equal c_mbx[1]
variable        e2bpip    equal c_mbx[2]
variable        e3bpip    equal c_mbx[3]
variable        e4bpip    equal c_mbx[4]
variable        edisp     equal c_mbx[5]
variable        ebuck     equal c_mbx[6]
variable        eperm     equal c_mbx[7]
variable        eind      equal c_mbx[8]
variable        eele      equal c_mbx[9]
variable        etot      equal c_mbx[10]

fix             1 all npt temp ${T} ${T} $(200.0*dt) iso 1.0 1.0 $(2000.0*dt)
fix             1 all npt temp 298 ${T} $(200.0*dt) iso 1.0 1.0 $(2000.0*dt)
fix             1 all npt temp 298 298 $(200.0*dt) iso 1.0 1.0 $(2000.0*dt)
fix             1 all npt temp 298 298 100 iso 1.0 1.0 $(2000.0*dt)
fix             1 all npt temp 298 298 100 iso 1.0 1.0 1000

velocity        all create ${T} 428459 rot yes dist gaussian
velocity        all create 298 428459 rot yes dist gaussian
velocity        all zero linear
velocity        all zero angular

thermo_style    custom step time temp etotal ke pe enthalpy density lx ly lz vol pxx pyy pzz press
thermo          ${thermo_freq}
thermo          1
thermo_modify   flush yes

fix             thermo_print all print ${thermo_freq} "$(step) $(0.001*time) $(temp) $(etotal) $(ke) $(pe) $(enthalpy) $(density) $(lx) $(ly) $(lz) $(vol) $(pxx) $(pyy) $(pzz) $(press)" file thermo.out screen no title "# step time temp etotal ke pe enthalpy density lx ly lz vol pxx pyy pzz press"
fix             thermo_print all print 1 "$(step) $(0.001*time) $(temp) $(etotal) $(ke) $(pe) $(enthalpy) $(density) $(lx) $(ly) $(lz) $(vol) $(pxx) $(pyy) $(pzz) $(press)" file thermo.out screen no title "# step time temp etotal ke pe enthalpy density lx ly lz vol pxx pyy pzz press"
fix             verbose_mbx_thermo_print all print ${thermo_freq} "$(step) $(0.001*time) $(temp) $(etotal) $(ke) $(pe) $(enthalpy) $(density) $(lx) $(ly) $(lz) $(vol) $(pxx) $(pyy) $(pzz) $(press) $(v_e1bpip) $(v_e2bpip) $(v_e3bpip) $(v_e4bpip) $(v_edisp) $(v_ebuck) $(v_eperm) $(v_eind) $(v_eele) $(v_etot)" file mbx_thermo.out screen no title "# step time temp etotal ke pe enthalpy density lx ly lz vol pxx pyy pzz press e1bpip e2bpip e3bpip e4bpip edisp ebuck eperm eind eele etot"
fix             verbose_mbx_thermo_print all print 1 "$(step) $(0.001*time) $(temp) $(etotal) $(ke) $(pe) $(enthalpy) $(density) $(lx) $(ly) $(lz) $(vol) $(pxx) $(pyy) $(pzz) $(press) $(v_e1bpip) $(v_e2bpip) $(v_e3bpip) $(v_e4bpip) $(v_edisp) $(v_ebuck) $(v_eperm) $(v_eind) $(v_eele) $(v_etot)" file mbx_thermo.out screen no title "# step time temp etotal ke pe enthalpy density lx ly lz vol pxx pyy pzz press e1bpip e2bpip e3bpip e4bpip edisp ebuck eperm eind eele etot"

dump            1 all custom ${dump_freq} dump.lammpstrj id mol type q x y z
dump            1 all custom 1 dump.lammpstrj id mol type q x y z
dump_modify     1 append no sort id format line "%d %d %d %8.4f %15.8f %15.8f %15.8f"

restart         10 restart.1 restart.2

run             ${nsteps} upto
run             100 upto

CITE-CITE-CITE-CITE-CITE-CITE-CITE-CITE-CITE-CITE-CITE-CITE-CITE

Your simulation uses code contributions which should be cited:

- pair mbx command:

@article{10.1063/5.0156036,
 author = {Riera, Marc and Knight, Christopher and Bull-Vulpe, Ethan F. and Zhu, Xuanyu and Agnew, Henry and Smith, Daniel G. A. and Simmonett, Andrew C. and Paesani, Francesco},
 title = "{MBX: A many-body energy and force calculator for data-driven many-body simulations}",
 journal = {The Journal of Chemical Physics},
 volume = {159},
 number = {5},
 pages = {054802},
 year = {2023},
 doi = {10.1063/5.0156036},
 version = {1.3.7}
}

CITE-CITE-CITE-CITE-CITE-CITE-CITE-CITE-CITE-CITE-CITE-CITE-CITE

Generated 0 of 1 mixed pair_coeff terms from geometric mixing rule
WARNING: Bonds are defined but no bond style is set (src/force.cpp:198)
WARNING: Likewise 1-2 special neighbor interactions != 1.0 (src/force.cpp:200)
WARNING: Angles are defined but no angle style is set (src/force.cpp:203)
WARNING: Likewise 1-3 special neighbor interactions != 1.0 (src/force.cpp:205)
Neighbor list info ...
  update: every = 1 steps, delay = 10 steps, check = yes
  max neighbors/atom: 2000, page size: 100000
  master list distance cutoff = 11
  ghost atom cutoff = 11
  binsize = 5.5, bins = 8 8 8
  1 neighbor lists, perpetual/occasional/extra = 1 0 0
  (1) pair mbx, perpetual
      attributes: half, newton on
      pair build: half/bin/newton
      stencil: half/bin/3d
      bin: standard
Per MPI rank memory allocation (min/avg/max) = 21.51 | 21.51 | 21.51 Mbytes
   Step          Time           Temp          TotEng         KinEng         PotEng        Enthalpy       Density           Lx             Ly             Lz           Volume          Pxx            Pyy            Pzz           Press     
         0   0              298           -13918.204      5456.7126     -19374.917     -15015.24       0.99702167     39.461426      39.461426      39.461426      61449.496     -1562.2041     -1111.8111     -998.36638     -1224.1272    
         1   0.5            298.3014      -13918.382      5462.2315     -19380.614     -14934.679      0.99702178     39.461425      39.461425      39.461425      61449.489     -1570.516      -1154.1508     -677.43974     -1134.0355    
         2   1              298.56341     -13918.326      5467.0293     -19385.356     -14765.343      0.9970221      39.46142       39.46142       39.46142       61449.469     -1440.7325     -1125.6872     -269.0125      -945.14405    
         3   1.5            298.80396     -13918.197      5471.434      -19389.631     -14527.67       0.9970226      39.461414      39.461414      39.461414      61449.439     -1178.4918     -1015.7953      154.04315     -680.08131    
         4   2              299.10704     -13918.216      5476.9838     -19395.2       -14252.385      0.99702322     39.461406      39.461406      39.461406      61449.4       -807.41296     -823.0579       511.82322     -372.88255    
         5   2.5            299.46939     -13918.384      5483.6188     -19402.002     -13973.923      0.99702391     39.461396      39.461396      39.461396      61449.358     -369.73665     -556.84253      740.65907     -61.973372    
         6   3              299.79855     -13918.486      5489.646      -19408.132     -13726.007      0.99702461     39.461387      39.461387      39.461387      61449.315      78.550026     -240.91757      806.70479      214.77908    
         7   3.5            300.05142     -13918.41       5494.2765     -19412.686     -13539.396      0.99702527     39.461378      39.461378      39.461378      61449.274      480.12476      82.23163       706.41517      422.92385    
         8   4              300.31306     -13918.264      5499.0674     -19417.331     -13439.075      0.99702585     39.461371      39.461371      39.461371      61449.238      790.40891      353.61005      460.09618      534.70505    
         9   4.5            300.72023     -13918.222      5506.523      -19424.745     -13439.5        0.99702634     39.461364      39.461364      39.461364      61449.208      984.56862      512.98495      104.99873      534.1841     
        10   5              301.32081     -13918.416      5517.5204     -19435.936     -13540.26       0.99702673     39.461359      39.461359      39.461359      61449.184      1053.3843      522.71853     -310.20056      421.96741    
        11   5.5            301.96755     -13918.857      5529.3629     -19448.22      -13724.827      0.99702704     39.461355      39.461355      39.461355      61449.165      995.62167      384.83826     -730.93128      216.50955    
        12   6              302.33044     -13919.285      5536.0077     -19455.293     -13963.485      0.99702731     39.461352      39.461352      39.461352      61449.148      817.54683      137.9304      -1103.4404     -49.321061    
        13   6.5            302.10415     -13919.314      5531.8642     -19451.178     -14221.242      0.99702758     39.461348      39.461348      39.461348      61449.131      537.84024     -165.16709     -1383.3966     -336.90781    
        14   7              301.28367     -13918.869      5516.8404     -19435.709     -14467.223      0.99702793     39.461343      39.461343      39.461343      61449.11       189.05046     -481.59439     -1543.1088     -611.88425    
        15   7.5            300.21226     -13918.317      5497.2216     -19415.538     -14678.752      0.99702838     39.461337      39.461337      39.461337      61449.082     -186.38078     -788.0644      -1571.1656     -848.53692    
        16   8              299.31864     -13918.082      5480.8584     -19398.94      -14838.655      0.99702899     39.461329      39.461329      39.461329      61449.045     -542.66433     -1073.2165     -1465.807      -1027.2293    
        17   8.5            298.80692     -13918.237      5471.4882     -19389.725     -14930.904      0.99702979     39.461319      39.461319      39.461319      61448.995     -835.80008     -1323.1295     -1231.0531     -1129.9942    
        18   9              298.59453     -13918.502      5467.599      -19386.101     -14940.876      0.9970308      39.461306      39.461306      39.461306      61448.933     -1027.0518     -1513.7093     -881.71713     -1140.8261    
        19   9.5            298.5         -13918.641      5465.8681     -19384.509     -14860.421      0.99703201     39.461289      39.461289      39.461289      61448.858     -1087.1703     -1613.8553     -451.66251     -1050.896     
        20   10             298.4205      -13918.669      5464.4125     -19383.081     -14692.786      0.99703343     39.461271      39.461271      39.461271      61448.771     -1002.7605     -1593.82        5.1526461     -863.80927    
        21   10.5           298.35105     -13918.65       5463.1408     -19381.79      -14453.65       0.997035       39.46125       39.46125       39.46125       61448.674     -781.50378     -1434.6962      425.23693     -596.98769    
        22   11             298.34074     -13918.622      5462.952      -19381.574     -14169.19       0.99703668     39.461228      39.461228      39.461228      61448.571     -453.52874     -1137.5525      752.27901     -279.60074    
        23   11.5           298.44751     -13918.678      5464.907      -19383.585     -13872.472      0.99703841     39.461205      39.461205      39.461205      61448.464     -67.386066     -727.75545      949.82123      51.559905    
        24   12             298.66933     -13918.879      5468.9688     -19387.847     -13598.214      0.99704013     39.461182      39.461182      39.461182      61448.358      320.56318     -250.8746       1003.7737      357.82076    
        25   12.5           298.90672     -13919.133      5473.3156     -19392.449     -13377.927      0.99704179     39.461161      39.461161      39.461161      61448.256      659.79419      235.48294      916.4746       603.91724    
        26   13             299.03212     -13919.247      5475.6119     -19394.859     -13237.186      0.99704333     39.46114       39.46114       39.46114       61448.161      914.63629      669.22168      699.42224      761.0934     
        27   13.5           299.02613     -13919.133      5475.5022     -19394.635     -13194.643      0.99704474     39.461122      39.461122      39.461122      61448.074      1062.5428      991.79335      370.98321      808.43978    
        28   14             299.02193     -13918.994      5475.4252     -19394.419     -13260.168      0.997046       39.461105      39.461105      39.461105      61447.997      1086.1125      1159.2443     -39.849227      735.16919    
        29   14.5           299.15549     -13919.106      5477.8709     -19396.977     -13430.653      0.99704712     39.46109       39.46109       39.46109       61447.927      970.29692      1153.1827     -488.31551      545.0547     
        30   15             299.37858     -13919.433      5481.956      -19401.389     -13686.838      0.99704814     39.461077      39.461077      39.461077      61447.865      709.70313      984.50311     -915.56006      259.54872    
        31   15.5           299.48064     -13919.679      5483.8248     -19403.503     -13995.755      0.99704911     39.461064      39.461064      39.461064      61447.805      319.40089      687.11589     -1261.1926     -84.891955    
        32   16             299.29642     -13919.639      5480.4515     -19400.09      -14318.19       0.9970501      39.461051      39.461051      39.461051      61447.744     -160.44546      305.07396     -1478.8369     -444.73612    
        33   16.5           298.8586      -13919.398      5472.4346     -19391.833     -14616.087      0.99705117     39.461037      39.461037      39.461037      61447.678     -668.96544     -119.97312     -1543.3306     -777.42306    
        34   17             298.34905     -13919.193      5463.1041     -19382.297     -14856.46       0.99705239     39.461021      39.461021      39.461021      61447.603     -1134.83       -553.50945     -1449.3055     -1045.8816    
        35   17.5           297.93898     -13919.133      5455.5952     -19374.728     -15012.848      0.99705379     39.461002      39.461002      39.461002      61447.516     -1490.2773     -962.11455     -1208.9914     -1220.4611    
        36   18             297.70148     -13919.173      5451.2463     -19370.419     -15066.92       0.99705542     39.460981      39.460981      39.460981      61447.415     -1684.9578     -1304.3394     -852.97596     -1280.7577    
        37   18.5           297.62818     -13919.286      5449.9041     -19369.191     -15011.253      0.99705729     39.460956      39.460956      39.460956      61447.3       -1694.8784     -1530.6165     -430.04714     -1218.514     
        38   19             297.65414     -13919.454      5450.3795     -19369.833     -14851.052      0.99705938     39.460928      39.460928      39.460928      61447.171     -1523.137      -1595.308      -0.24258484    -1039.5625    
        39   19.5           297.69306     -13919.539      5451.0922     -19370.631     -14604.6        0.99706167     39.460898      39.460898      39.460898      61447.031     -1195.5398     -1475.6203      377.7924      -764.4559     
        40   20             297.72965     -13919.454      5451.7623     -19371.217     -14302.876      0.99706409     39.460866      39.460866      39.460866      61446.881     -756.25859     -1185.9482      658.62742     -427.85978    
        41   20.5           297.8695      -13919.326      5454.323      -19373.648     -13986.335      0.9970666      39.460833      39.460833      39.460833      61446.727     -262.99597     -776.75901      815.42794     -74.77568     
        42   21             298.24602     -13919.368      5461.2175     -19380.585     -13697.514      0.99706911     39.4608        39.4608        39.4608        61446.572      222.47318     -318.18815      838.41837      247.5678     
        43   21.5           298.86198     -13919.675      5472.4964     -19392.171     -13472.366      0.99707158     39.460767      39.460767      39.460767      61446.419      648.38701      118.81336      730.26182      499.15406    
        44   22             299.52597     -13920.093      5484.6549     -19404.748     -13334.286      0.99707396     39.460736      39.460736      39.460736      61446.273      984.67698      473.25987      503.18495      653.70727    
        45   22.5           299.96704     -13920.359      5492.7313     -19413.09      -13293.46       0.99707622     39.460706      39.460706      39.460706      61446.134      1222.5178      697.52364      178.65016      699.56386    
        46   23             300.02318     -13920.386      5493.7593     -19414.146     -13349.911      0.99707836     39.460678      39.460678      39.460678      61446.002      1360.4513      761.17832     -211.82581      636.60128    
        47   23.5           299.71753     -13920.258      5488.1625     -19408.42      -13495.974      0.99708037     39.460652      39.460652      39.460652      61445.878      1389.1803      658.18918     -626.97678      473.46423    
        48   24             299.21047     -13920.045      5478.8776     -19398.922     -13716.92       0.9970823      39.460626      39.460626      39.460626      61445.759      1289.6838      411.57592     -1021.2479      226.67059    
        49   24.5           298.72688     -13919.845      5470.0226     -19389.868     -13991.095      0.99708418     39.460601      39.460601      39.460601      61445.643      1048.3424      68.110602     -1354.9792     -79.508754    
        50   25             298.46382     -13919.808      5465.2057     -19385.014     -14289.998      0.99708608     39.460576      39.460576      39.460576      61445.526      676.97475     -315.19884     -1601.0844     -413.10284    
        51   25.5           298.47474     -13920.024      5465.4057     -19385.43      -14578.913      0.99708806     39.46055       39.46055       39.46055       61445.404      222.12049     -685.39729     -1742.532      -735.26961    
        52   26             298.61234     -13920.386      5467.9253     -19388.312     -14819.862      0.99709017     39.460522      39.460522      39.460522      61445.274     -242.49013     -1001.2676     -1767.4902     -1003.7493    
        53   26.5           298.62532     -13920.605      5468.1629     -19388.768     -14978.176      0.99709246     39.460492      39.460492      39.460492      61445.133     -636.452       -1232.1957     -1671.8752     -1180.1743    
        54   27             298.37319     -13920.519      5463.5461     -19384.065     -15030.818      0.99709498     39.460459      39.460459      39.460459      61444.978     -897.49549     -1352.2852     -1467.273      -1239.0179    
        55   27.5           297.94077     -13920.322      5455.628      -19375.95      -14971.446      0.99709772     39.460423      39.460423      39.460423      61444.809     -997.88447     -1337.4395     -1183.6319     -1172.9853    
        56   28             297.51266     -13920.29       5447.7889     -19368.079     -14809.202      0.99710068     39.460384      39.460384      39.460384      61444.627     -943.61793     -1170.6808     -861.61601     -991.97157    
        57   28.5           297.18724     -13920.393      5441.8301     -19362.223     -14564.421      0.99710382     39.460342      39.460342      39.460342      61444.433     -760.95893     -854.61249     -540.52117     -718.69753    
        58   29             296.97777     -13920.416      5437.9945     -19358.411     -14266.098      0.99710709     39.460299      39.460299      39.460299      61444.231     -483.86319     -422.16672     -251.25398     -385.76129    
        59   29.5           296.93817     -13920.335      5437.2693     -19357.605     -13950.451      0.99711044     39.460255      39.460255      39.460255      61444.025     -149.02666      65.493337     -17.29035      -33.60789     
        60   30             297.17616     -13920.348      5441.6272     -19361.975     -13656.607      0.99711379     39.460211      39.460211      39.460211      61443.819      206.31132      535.35113      141.30356      294.322      
        61   30.5           297.71846     -13920.607      5451.5574     -19372.165     -13419.254      0.99711709     39.460167      39.460167      39.460167      61443.615      548.91374      923.33738      206.2149       559.48867    
        62   31             298.40657     -13921.032      5464.1574     -19385.189     -13262.52       0.99712028     39.460125      39.460125      39.460125      61443.419      853.85462      1186.776       163.98929      734.87329    
        63   31.5           298.95599     -13921.411      5474.2179     -19395.629     -13198.209      0.99712334     39.460085      39.460085      39.460085      61443.23       1103.1241      1305.2056      12.871342      807.06701    
        64   32             299.11332     -13921.612      5477.0987     -19398.71      -13227.851      0.99712625     39.460046      39.460046      39.460046      61443.051      1277.6428      1275.838      -230.8396       774.21373    
        65   32.5           298.77851     -13921.548      5470.968      -19392.516     -13345.455      0.99712902     39.46001       39.46001       39.46001       61442.88       1351.0718      1110.7527     -533.11746      642.90233    
        66   33             298.08467     -13921.135      5458.2631     -19379.398     -13539.77       0.99713167     39.459975      39.459975      39.459975      61442.717      1293.7915      834.94707     -851.95689      425.59388    
        67   33.5           297.42189     -13920.581      5446.1268     -19366.708     -13795.118      0.99713424     39.459941      39.459941      39.459941      61442.559      1086.8053      482.10458     -1148.8709      140.013      
        68   34             297.23972     -13920.432      5442.791      -19363.223     -14088.622      0.99713678     39.459907      39.459907      39.459907      61442.402      738.13844      90.210673     -1391.4385     -187.69646    
        69   34.5           297.65596     -13920.954      5450.4128     -19371.366     -14385.137      0.99713936     39.459873      39.459873      39.459873      61442.243      292.2339      -299.753       -1546.5423     -518.02048    
        70   35             298.2858      -13921.738      5461.946      -19383.684     -14638.77       0.99714204     39.459838      39.459838      39.459838      61442.078     -177.21833     -644.76315     -1578.609      -800.19682    
        71   35.5           298.54474     -13922.14       5466.6874     -19388.827     -14804.813      0.99714486     39.459801      39.459801      39.459801      61441.904     -590.30876     -903.68344     -1461.1679     -985.05337    
        72   36             298.13191     -13921.916      5459.1281     -19381.044     -14854.953      0.99714787     39.459761      39.459761      39.459761      61441.719     -887.45124     -1043.486      -1192.8437     -1041.2603    
        73   36.5           297.2275      -13921.398      5442.5672     -19363.966     -14785.348      0.99715106     39.459719      39.459719      39.459719      61441.522     -1043.8103     -1045.5414     -803.13692     -964.16289    
        74   37             296.26647     -13921.087      5424.9698     -19346.057     -14613.703      0.99715444     39.459674      39.459674      39.459674      61441.314     -1065.068      -910.10024     -343.70654     -772.95824    
        75   37.5           295.57481     -13921.118      5412.3047     -19333.422     -14370.192      0.99715796     39.459628      39.459628      39.459628      61441.097     -972.24494     -658.09429      126.83373     -501.1685     
        76   38             295.24446     -13921.235      5406.2556     -19327.49      -14090.441      0.99716156     39.45958       39.45958       39.45958       61440.875     -790.5345      -329.57659      553.606       -188.83503    
        77   38.5           295.27772     -13921.255      5406.8647     -19328.12      -13812.396      0.99716521     39.459532      39.459532      39.459532      61440.65      -546.88773      22.46515       888.88544      121.48762    
        78   39             295.70619     -13921.306      5414.7105     -19336.016     -13572.923      0.99716883     39.459485      39.459485      39.459485      61440.427     -270.23701      342.9367       1093.7014      388.80036    
        79   39.5           296.51451     -13921.572      5429.5115     -19351.083     -13401.711      0.99717238     39.459438      39.459438      39.459438      61440.208      10.983502      587.19111      1142.35        580.17486    
        80   40             297.52382     -13922.001      5447.9933     -19369.994     -13315.451      0.99717582     39.459392      39.459392      39.459392      61439.996      272.00759      729.04555      1029.7162      676.92311    
        81   40.5           298.42412     -13922.414      5464.4788     -19386.893     -13316.659      0.99717914     39.459349      39.459349      39.459349      61439.792      492.25007      760.39762      775.46918      676.03896    
        82   41             298.90474     -13922.713      5473.2794     -19395.992     -13396.564      0.99718234     39.459306      39.459306      39.459306      61439.595      654.1938       685.78842      421.61184      587.19802    
        83   41.5           298.76134     -13922.773      5470.6535     -19393.427     -13539.554      0.99718543     39.459266      39.459266      39.459266      61439.405      742.63107      517.55013      22.874525      427.68524    
        84   42             298.01492     -13922.385      5456.9858     -19379.371     -13728.439      0.99718843     39.459226      39.459226      39.459226      61439.219      744.2867       273.39402     -368.32812      216.45087    
        85   42.5           297.04079     -13921.602      5439.1483     -19360.751     -13948.623      0.9971914      39.459187      39.459187      39.459187      61439.036      648.20373     -23.897718     -714.77284     -30.155607    
        86   43             296.47506     -13921.006      5428.7892     -19349.796     -14186.991      0.99719438     39.459148      39.459148      39.459148      61438.853      449.97189     -345.67252     -994.84922     -296.84995    
        87   43.5           296.77449     -13921.207      5434.2721     -19355.479     -14424.392      0.99719741     39.459108      39.459108      39.459108      61438.666      161.29399     -655.86143     -1190.164      -561.57715    
        88   44             297.79256     -13922.102      5452.9141     -19375.016     -14629.83       0.99720054     39.459066      39.459066      39.459066      61438.473     -181.62669     -912.78255     -1275.1696     -789.85962    
        89   44.5           298.86503     -13922.947      5472.5523     -19395.5       -14765.874      0.99720382     39.459023      39.459023      39.459023      61438.272     -521.68148     -1077.5664     -1223.0062     -940.75138    
        90   45             299.35279     -13923.159      5481.4837     -19404.642     -14803.705      0.99720727     39.458978      39.458978      39.458978      61438.059     -799.90638     -1125.2285     -1023.087      -982.74064    
        91   45.5           299.0852      -13922.83       5476.5838     -19399.414     -14735.615      0.9972109      39.45893       39.45893       39.45893       61437.835     -977.67477     -1049.9853     -693.6946      -907.11823    
        92   46             298.32866     -13922.422      5462.7308     -19385.153     -14576.353      0.9972147      39.45888       39.45888       39.45888       61437.601     -1046.6062     -862.81781     -280.06543     -729.82979    
        93   46.5           297.46837     -13922.176      5446.9778     -19369.154     -14355.653      0.99721864     39.458828      39.458828      39.458828      61437.359     -1022.4122     -587.54157      158.58218     -483.79054    
        94   47             296.80461     -13922.009      5434.8238     -19356.833     -14109.766      0.99722266     39.458775      39.458775      39.458775      61437.111     -931.27569     -259.87912      562.50249     -209.55077    
        95   47.5           296.5635      -13921.862      5430.4086     -19352.271     -13875.605      0.99722672     39.458721      39.458721      39.458721      61436.86      -797.43254      72.831176      879.48158      51.626736    
        96   48             296.91184     -13921.898      5436.7872     -19358.685     -13685.252      0.99723077     39.458668      39.458668      39.458668      61436.611     -635.91885      359.47726      1068.7908      264.11639    
        97   48.5           297.84028     -13922.308      5453.7879     -19376.096     -13559.773      0.99723478     39.458615      39.458615      39.458615      61436.364     -451.48914      560.35507      1104.9978      404.62124    
        98   49             299.04499     -13922.99       5475.8476     -19398.838     -13505.262      0.99723871     39.458563      39.458563      39.458563      61436.122     -243.95498      658.44788      984.17752      466.22347    
        99   49.5           300.02274     -13923.548      5493.7512     -19417.299     -13514.944      0.99724255     39.458512      39.458512      39.458512      61435.885     -17.947661      657.26056      728.81097      456.04129    
       100   50             300.3666      -13923.676      5500.0477     -19423.724     -13576.773      0.99724632     39.458463      39.458463      39.458463      61435.653      209.18053      567.97432      384.38153      387.17879    
Loop time of 647.964 on 1 procs for 100 steps with 6144 atoms

Performance: 0.007 ns/day, 3599.798 hours/ns, 0.154 timesteps/s, 948.201 atom-step/s
99.5% CPU use with 1 MPI tasks x 1 OpenMP threads

MPI task timing breakdown:
Section |  min time  |  avg time  |  max time  |%varavg| %total
---------------------------------------------------------------
Pair    | 644.59     | 644.59     | 644.59     |   0.0 | 99.48
Bond    | 3.3286e-05 | 3.3286e-05 | 3.3286e-05 |   0.0 |  0.00
Neigh   | 0.33442    | 0.33442    | 0.33442    |   0.0 |  0.05
Comm    | 0.020052   | 0.020052   | 0.020052   |   0.0 |  0.00
Output  | 1.3504     | 1.3504     | 1.3504     |   0.0 |  0.21
Modify  | 1.6614     | 1.6614     | 1.6614     |   0.0 |  0.26
Other   |            | 0.005419   |            |       |  0.00

Nlocal:           6144 ave        6144 max        6144 min
Histogram: 1 0 0 0 0 0 0 0 0 0
Nghost:          17137 ave       17137 max       17137 min
Histogram: 1 0 0 0 0 0 0 0 0 0
Neighs:    1.70443e+06 ave 1.70443e+06 max 1.70443e+06 min
Histogram: 1 0 0 0 0 0 0 0 0 0

Total # of neighbors = 1704434
Ave neighs/atom = 277.41439
Ave special neighs/atom = 2
Neighbor list builds = 10
Dangerous builds = 0

write_data      final.data nocoeff
System init for write_data ...
Generated 0 of 1 mixed pair_coeff terms from geometric mixing rule
WARNING: Bonds are defined but no bond style is set (src/force.cpp:198)
WARNING: Likewise 1-2 special neighbor interactions != 1.0 (src/force.cpp:200)
WARNING: Angles are defined but no angle style is set (src/force.cpp:203)
WARNING: Likewise 1-3 special neighbor interactions != 1.0 (src/force.cpp:205)
write_restart   restart.new
System init for write_restart ...
Generated 0 of 1 mixed pair_coeff terms from geometric mixing rule
WARNING: Bonds are defined but no bond style is set (src/force.cpp:198)
WARNING: Likewise 1-2 special neighbor interactions != 1.0 (src/force.cpp:200)
WARNING: Angles are defined but no angle style is set (src/force.cpp:203)
WARNING: Likewise 1-3 special neighbor interactions != 1.0 (src/force.cpp:205)
Total wall time: 0:10:54
