LAMMPS (10 Sep 2025 - Development - c68a6d42d5)
  using 1 OpenMP thread(s) per MPI task
variable        T   equal  298
variable        dt  equal  0.5
variable        P   equal  1.0
variable        nsteps  equal 100
variable        thermo_freq equal 1
variable        dump_freq equal 1


processors      * * * map xyz

units           real
atom_style      full
boundary        p p p

read_data       initial.data
Reading data file ...
  orthogonal box = (0 0 0) to (39.461426 39.461426 39.461426)
  1 by 1 by 1 MPI processor grid
  reading atoms ...
  6144 atoms
  reading velocities ...
  6144 velocities
  scanning bonds ...
  2 = max bonds/atom
  scanning angles ...
  1 = max angles/atom
  orthogonal box = (0 0 0) to (39.461426 39.461426 39.461426)
  1 by 1 by 1 MPI processor grid
  reading bonds ...
  4096 bonds
  reading angles ...
  2048 angles
Finding 1-2 1-3 1-4 neighbors ...
  special bond factors lj:    0        0        0       
  special bond factors coul:  0        0        0       
     2 = max # of 1-2 neighbors
     1 = max # of 1-3 neighbors
     1 = max # of 1-4 neighbors
     2 = max # of special neighbors
  special bonds CPU = 0.001 seconds
  read_data CPU = 0.053 seconds
#read_restart    restart.old

pair_style      mbx 9.0
pair_modify     mix arithmetic

bond_style      none
angle_style     none
dihedral_style  none
improper_style  none

pair_coeff      * * 1 h2o 1 2 2 json mbx.json

neighbor        2.0 bin
neigh_modify    every 1 delay 10

timestep        ${dt}
timestep        0.5

compute         mbx all pair mbx
variable        e1bpip    equal c_mbx[1]
variable        e2bpip    equal c_mbx[2]
variable        e3bpip    equal c_mbx[3]
variable        e4bpip    equal c_mbx[4]
variable        edisp     equal c_mbx[5]
variable        ebuck     equal c_mbx[6]
variable        eperm     equal c_mbx[7]
variable        eind      equal c_mbx[8]
variable        eele      equal c_mbx[9]
variable        etot      equal c_mbx[10]

fix             1 all npt temp ${T} ${T} $(200.0*dt) iso 1.0 1.0 $(2000.0*dt)
fix             1 all npt temp 298 ${T} $(200.0*dt) iso 1.0 1.0 $(2000.0*dt)
fix             1 all npt temp 298 298 $(200.0*dt) iso 1.0 1.0 $(2000.0*dt)
fix             1 all npt temp 298 298 100 iso 1.0 1.0 $(2000.0*dt)
fix             1 all npt temp 298 298 100 iso 1.0 1.0 1000

velocity        all create ${T} 428459 rot yes dist gaussian
velocity        all create 298 428459 rot yes dist gaussian
velocity        all zero linear
velocity        all zero angular

thermo_style    custom step time temp etotal ke pe enthalpy density lx ly lz vol pxx pyy pzz press
thermo          ${thermo_freq}
thermo          1
thermo_modify   flush yes

fix             thermo_print all print ${thermo_freq} "$(step) $(0.001*time) $(temp) $(etotal) $(ke) $(pe) $(enthalpy) $(density) $(lx) $(ly) $(lz) $(vol) $(pxx) $(pyy) $(pzz) $(press)" file thermo.out screen no title "# step time temp etotal ke pe enthalpy density lx ly lz vol pxx pyy pzz press"
fix             thermo_print all print 1 "$(step) $(0.001*time) $(temp) $(etotal) $(ke) $(pe) $(enthalpy) $(density) $(lx) $(ly) $(lz) $(vol) $(pxx) $(pyy) $(pzz) $(press)" file thermo.out screen no title "# step time temp etotal ke pe enthalpy density lx ly lz vol pxx pyy pzz press"
fix             verbose_mbx_thermo_print all print ${thermo_freq} "$(step) $(0.001*time) $(temp) $(etotal) $(ke) $(pe) $(enthalpy) $(density) $(lx) $(ly) $(lz) $(vol) $(pxx) $(pyy) $(pzz) $(press) $(v_e1bpip) $(v_e2bpip) $(v_e3bpip) $(v_e4bpip) $(v_edisp) $(v_ebuck) $(v_eperm) $(v_eind) $(v_eele) $(v_etot)" file mbx_thermo.out screen no title "# step time temp etotal ke pe enthalpy density lx ly lz vol pxx pyy pzz press e1bpip e2bpip e3bpip e4bpip edisp ebuck eperm eind eele etot"
fix             verbose_mbx_thermo_print all print 1 "$(step) $(0.001*time) $(temp) $(etotal) $(ke) $(pe) $(enthalpy) $(density) $(lx) $(ly) $(lz) $(vol) $(pxx) $(pyy) $(pzz) $(press) $(v_e1bpip) $(v_e2bpip) $(v_e3bpip) $(v_e4bpip) $(v_edisp) $(v_ebuck) $(v_eperm) $(v_eind) $(v_eele) $(v_etot)" file mbx_thermo.out screen no title "# step time temp etotal ke pe enthalpy density lx ly lz vol pxx pyy pzz press e1bpip e2bpip e3bpip e4bpip edisp ebuck eperm eind eele etot"

dump            1 all custom ${dump_freq} dump.lammpstrj id mol type q x y z
dump            1 all custom 1 dump.lammpstrj id mol type q x y z
dump_modify     1 append no sort id format line "%d %d %d %8.4f %15.8f %15.8f %15.8f"

restart         10 restart.1 restart.2

run             ${nsteps} upto
run             100 upto

CITE-CITE-CITE-CITE-CITE-CITE-CITE-CITE-CITE-CITE-CITE-CITE-CITE

Your simulation uses code contributions which should be cited:

- pair mbx command:

@article{10.1063/5.0156036,
 author = {Riera, Marc and Knight, Christopher and Bull-Vulpe, Ethan F. and Zhu, Xuanyu and Agnew, Henry and Smith, Daniel G. A. and Simmonett, Andrew C. and Paesani, Francesco},
 title = "{MBX: A many-body energy and force calculator for data-driven many-body simulations}",
 journal = {The Journal of Chemical Physics},
 volume = {159},
 number = {5},
 pages = {054802},
 year = {2023},
 doi = {10.1063/5.0156036},
}

CITE-CITE-CITE-CITE-CITE-CITE-CITE-CITE-CITE-CITE-CITE-CITE-CITE

Generated 0 of 1 mixed pair_coeff terms from arithmetic mixing rule
WARNING: Bonds are defined but no bond style is set (src/force.cpp:198)
WARNING: Likewise 1-2 special neighbor interactions != 1.0 (src/force.cpp:200)
WARNING: Angles are defined but no angle style is set (src/force.cpp:203)
WARNING: Likewise 1-3 special neighbor interactions != 1.0 (src/force.cpp:205)
Neighbor list info ...
  update: every = 1 steps, delay = 10 steps, check = yes
  max neighbors/atom: 2000, page size: 100000
  master list distance cutoff = 11
  ghost atom cutoff = 11
  binsize = 5.5, bins = 8 8 8
  1 neighbor lists, perpetual/occasional/extra = 1 0 0
  (1) pair mbx, perpetual
      attributes: half, newton on
      pair build: half/bin/newton
      stencil: half/bin/3d
      bin: standard
WARNING: Inconsistent image flags
For more information see https://docs.lammps.org/err0027 (src/domain.cpp:1052)
Per MPI rank memory allocation (min/avg/max) = 21.51 | 21.51 | 21.51 Mbytes
   Step          Time           Temp          TotEng         KinEng         PotEng        Enthalpy       Density           Lx             Ly             Lz           Volume          Pxx            Pyy            Pzz           Press     
         0   0              298           -13918.204      5456.7126     -19374.917     -15015.24       0.99702167     39.461426      39.461426      39.461426      61449.496     -1562.5265     -1111.7407     -998.11438     -1224.1272    
         1   0.5            298.30034     -13918.381      5462.2121     -19380.594     -14934.63       0.99702178     39.461425      39.461425      39.461425      61449.489     -1570.7743     -1154.1276     -677.04235     -1133.9814    
         2   1              298.56314     -13918.326      5467.0243     -19385.351     -14765.283      0.9970221      39.46142       39.46142       39.46142       61449.469     -1441.0177     -1125.7268     -268.48725     -945.07725    
         3   1.5            298.80584     -13918.198      5471.4685     -19389.667     -14527.626      0.9970226      39.461414      39.461414      39.461414      61449.439     -1178.7998     -1015.9284      154.63624     -680.03066    
         4   2              299.11139     -13918.218      5477.0633     -19395.282     -14252.355      0.99702322     39.461406      39.461406      39.461406      61449.4       -807.63507     -823.31087      512.40626     -372.84656    
         5   2.5            299.4756      -13918.386      5483.7325     -19402.119     -13973.88       0.99702391     39.461396      39.461396      39.461396      61449.358     -369.71915     -557.20818      741.1605      -61.92228     
         6   3              299.80556     -13918.489      5489.7744     -19408.264     -13725.909      0.99702461     39.461387      39.461387      39.461387      61449.315      78.931201     -241.335        807.07979      214.892      
         7   3.5            300.05802     -13918.413      5494.3973     -19412.81      -13539.203      0.99702527     39.461378      39.461378      39.461378      61449.274      480.90117      81.873181      706.65476      423.14304    
         8   4              300.31819     -13918.266      5499.1613     -19417.428     -13438.763      0.99702585     39.461371      39.461371      39.461371      61449.238      791.50378      353.44429      460.22119      535.05642    
         9   4.5            300.72323     -13918.224      5506.5779     -19424.802     -13439.077      0.99702634     39.461364      39.461364      39.461364      61449.208      985.81859      513.12245      105.03623      534.65909    
        10   5              301.32163     -13918.417      5517.5354     -19435.952     -13539.769      0.99702673     39.461359      39.461359      39.461359      61449.184      1054.5914      523.20226     -310.24385      422.51661    
        11   5.5            301.96697     -13918.857      5529.3523     -19448.209     -13724.352      0.99702703     39.461355      39.461355      39.461355      61449.165      996.59609      385.61362     -731.09229      217.03914    
        12   6              302.33011     -13919.285      5536.0017     -19455.286     -13963.133      0.9970273      39.461352      39.461352      39.461352      61449.148      818.1404       138.84969     -1103.7767     -48.92886     
        13   6.5            302.10595     -13919.315      5531.8971     -19451.212     -14221.11       0.99702758     39.461348      39.461348      39.461348      61449.131      537.96531     -164.29946     -1383.9469     -336.76035    
        14   7              301.28852     -13918.872      5516.929      -19435.801     -14467.361      0.99702792     39.461343      39.461343      39.461343      61449.11       188.70291     -480.96057     -1543.8471     -612.0349     
        15   7.5            300.21925     -13918.322      5497.3495     -19415.671     -14679.132      0.99702838     39.461337      39.461337      39.461337      61449.082     -187.11656     -787.76983     -1571.9822     -848.95621    
        16   8              299.32535     -13918.087      5480.9813     -19399.068     -14839.186      0.99702899     39.461329      39.461329      39.461329      61449.045     -543.64565     -1073.263      -1466.5406     -1027.8164    
        17   8.5            298.81074     -13918.24       5471.5582     -19389.798     -14931.467      0.99702978     39.461319      39.461319      39.461319      61448.996     -836.86954     -1323.4375     -1231.548      -1130.6183    
        18   9              298.59411     -13918.503      5467.5914     -19386.094     -14941.368      0.99703079     39.461306      39.461306      39.461306      61448.934     -1028.0816     -1514.1646     -881.87621     -1141.3741    
        19   9.5            298.49601     -13918.64       5465.7951     -19384.435     -14860.794      0.99703201     39.46129       39.46129       39.46129       61448.858     -1088.0829     -1614.379      -451.4774      -1051.3131    
        20   10             298.41522     -13918.668      5464.3157     -19382.983     -14693.042      0.99703342     39.461271      39.461271      39.461271      61448.772     -1003.499      -1594.4125      5.6232569     -864.0961     
        21   10.5           298.347       -13918.65       5463.0666     -19381.717     -14453.814      0.99703499     39.46125       39.46125       39.46125       61448.675     -782.01052     -1435.4041      425.90178     -597.17094    
        22   11             298.33946     -13918.624      5462.9284     -19381.553     -14169.277      0.99703667     39.461228      39.461228      39.461228      61448.571     -453.75579     -1138.3981      753.06682     -279.69568    
        23   11.5           298.44899     -13918.682      5464.9341     -19383.616     -13872.469      0.9970384      39.461205      39.461205      39.461205      61448.464     -67.322281     -728.68226      950.70583      51.567097    
        24   12             298.67236     -13918.883      5469.0243     -19387.908     -13598.095      0.99704013     39.461182      39.461182      39.461182      61448.358      320.84507     -251.73932      1004.7703      357.95869    
        25   12.5           298.90951     -13919.138      5473.3667     -19392.505     -13377.661      0.99704178     39.461161      39.461161      39.461161      61448.256      660.14026      234.88257      917.63587      604.21957    
        26   13             299.033       -13919.251      5475.6279     -19394.879     -13236.764      0.99704333     39.46114       39.46114       39.46114       61448.161      914.84305      669.06225      700.8019       761.56907    
        27   13.5           299.02395     -13919.136      5475.4623     -19394.598     -13194.089      0.99704473     39.461122      39.461122      39.461122      61448.074      1062.4237      992.15034      372.61235      809.06212    
        28   14             299.01642     -13918.996      5475.3244     -19394.32      -13259.551      0.99704599     39.461105      39.461105      39.461105      61447.997      1085.5321      1160.048      -38.003422      735.8589     
        29   14.5           299.14766     -13919.106      5477.7276     -19396.834     -13430.082      0.99704711     39.46109       39.46109       39.46109       61447.928      969.19099      1154.2308     -486.34666      545.69172    
        30   15             299.37071     -13919.433      5481.8118     -19401.245     -13686.444      0.99704813     39.461077      39.461077      39.461077      61447.865      708.06636      985.51305     -913.61655      259.98762    
        31   15.5           299.47534     -13919.679      5483.7277     -19403.407     -13995.657      0.9970491      39.461064      39.461064      39.461064      61447.805      317.28892      687.8067      -1259.4424     -84.782266    
        32   16             299.29515     -13919.642      5480.4283     -19400.07      -14318.444      0.99705009     39.461051      39.461051      39.461051      61447.744     -162.90433      305.24967     -1477.3935     -445.01607    
        33   16.5           298.86068     -13919.404      5472.4726     -19391.876     -14616.647      0.99705116     39.461037      39.461037      39.461037      61447.678     -671.55151     -120.36835     -1542.2067     -778.04217    
        34   17             298.35195     -13919.199      5463.1573     -19382.356     -14857.207      0.99705238     39.461021      39.461021      39.461021      61447.603     -1137.2804     -554.39528     -1448.4494     -1046.7083    
        35   17.5           297.93964     -13919.138      5455.6074     -19374.746     -15013.626      0.99705378     39.461002      39.461002      39.461002      61447.516     -1492.3423     -963.29769     -1208.3294     -1221.3231    
        36   18             297.69783     -13919.175      5451.1796     -19370.355     -15067.597      0.99705542     39.460981      39.460981      39.460981      61447.416     -1686.4455     -1305.6153     -852.46915     -1281.51      
        37   18.5           297.62037     -13919.286      5449.7611     -19369.047     -15011.756      0.99705728     39.460956      39.460956      39.460956      61447.301     -1695.6579     -1531.8487     -429.72032     -1219.0756    
        38   19             297.6447      -13919.452      5450.2067     -19369.659     -14851.378      0.99705938     39.460928      39.460928      39.460928      61447.172     -1523.1549     -1596.4526     -0.17875605    -1039.9287    
        39   19.5           297.68566     -13919.538      5450.9568     -19370.495     -14604.79       0.99706166     39.460898      39.460898      39.460898      61447.031     -1194.8092     -1476.7014      377.50383     -764.66893    
        40   20             297.72701     -13919.457      5451.7139     -19371.171     -14302.96       0.99706408     39.460866      39.460866      39.460866      61446.882     -754.87142     -1186.9542      657.97471     -427.95031    
        41   20.5           297.87198     -13919.331      5454.3685     -19373.699     -13986.291      0.99706659     39.460833      39.460833      39.460833      61446.727     -261.11795     -777.5824       814.53731     -74.721016    
        42   21             298.25177     -13919.374      5461.3228     -19380.697     -13697.278      0.99706911     39.4608        39.4608        39.4608        61446.572      224.60943     -318.63519      837.53761      247.83729    
        43   21.5           298.8682      -13919.68       5472.6103     -19392.291     -13471.868      0.99707158     39.460768      39.460768      39.460768      61446.42       650.52688      118.93515      729.68804      499.71669    
        44   22             299.53023     -13920.098      5484.7328     -19404.83      -13333.486      0.99707396     39.460736      39.460736      39.460736      61446.273      986.5809       474.06859      503.16675      654.60541    
        45   22.5           299.96787     -13920.362      5492.7465     -19413.109     -13292.379      0.99707622     39.460706      39.460706      39.460706      61446.134      1224.0091      699.0128       179.29912      700.77368    
        46   23             300.02043     -13920.388      5493.7089     -19414.097     -13348.65       0.99707835     39.460678      39.460678      39.460678      61446.003      1361.4218      763.19126     -210.58364      638.00982    
        47   23.5           299.71273     -13920.257      5488.0746     -19408.331     -13494.712      0.99708036     39.460652      39.460652      39.460652      61445.879      1389.5693      660.42996     -625.38379      474.87181    
        48   24             299.2068      -13920.044      5478.8104     -19398.854     -13715.874      0.99708229     39.460626      39.460626      39.460626      61445.76       1289.4631      413.68985     -1019.6452      227.83593    
        49   24.5           298.7277      -13919.846      5470.0377     -19389.884     -13990.472      0.99708417     39.460601      39.460601      39.460601      61445.644      1047.5135      69.750485     -1353.7038     -78.813265    
        50   25             298.4705      -13919.813      5465.328      -19385.141     -14289.922      0.99708607     39.460576      39.460576      39.460576      61445.527      675.59737     -314.28038     -1600.3555     -413.01283    
        51   25.5           298.48571     -13920.031      5465.6065     -19385.637     -14579.373      0.99708805     39.46055       39.46055       39.46055       61445.405      220.36027     -685.26048     -1742.4257     -735.77531    
        52   26             298.62419     -13920.393      5468.1422     -19388.535     -14820.739      0.99709016     39.460522      39.460522      39.460522      61445.275     -244.38388     -1001.8012     -1767.9759     -1004.7203    
        53   26.5           298.63467     -13920.61       5468.334      -19388.944     -14979.292      0.99709245     39.460492      39.460492      39.460492      61445.134     -638.22398     -1233.147      -1672.872      -1181.4143    
        54   27             298.37805     -13920.522      5463.6351     -19384.157     -15032.009      0.99709496     39.460459      39.460459      39.460459      61444.979     -898.9508      -1353.3875     -1468.6931     -1240.3438    
        55   27.5           297.94128     -13920.322      5455.6374     -19375.96      -14972.58       0.99709771     39.460423      39.460423      39.460423      61444.81      -998.85499     -1338.5188     -1185.3798     -1174.2512    
        56   28             297.51118     -13920.288      5447.7618     -19368.05      -14810.207      0.99710066     39.460384      39.460384      39.460384      61444.627     -944.02074     -1171.7012     -863.56072     -993.09421    
        57   28.5           297.18737     -13920.392      5441.8325     -19362.225     -14565.259      0.99710381     39.460342      39.460342      39.460342      61444.434     -760.81597     -855.63164     -542.4548      -719.63414    
        58   29             296.98255     -13920.418      5438.0819     -19358.5       -14266.743      0.99710708     39.460299      39.460299      39.460299      61444.232     -483.32243     -423.23951     -252.87711     -386.47969    
        59   29.5           296.94858     -13920.34       5437.46       -19357.8       -13950.857      0.99711042     39.460255      39.460255      39.460255      61444.026     -148.3352       64.402966     -18.233314     -34.055183    
        60   30             297.191       -13920.354      5441.899      -19362.253     -13656.697      0.99711378     39.460211      39.460211      39.460211      61443.82       206.8722       534.4027       141.41052      294.22847    
        61   30.5           297.73514     -13920.614      5451.8628     -19372.477     -13418.96       0.99711707     39.460167      39.460167      39.460167      61443.616      549.08418      922.74925      207.63912      559.82418    
        62   31             298.42207     -13921.039      5464.4413     -19385.48      -13261.816      0.99712027     39.460125      39.460125      39.460125      61443.419      853.45292      1186.7336      166.81181      735.66612    
        63   31.5           298.96762     -13921.416      5474.4307     -19395.847     -13197.127      0.99712333     39.460085      39.460085      39.460085      61443.231      1102.0658      1305.8134      16.964692      808.2813     
        64   32             299.11951     -13921.615      5477.212      -19398.827     -13226.532      0.99712624     39.460046      39.460046      39.460046      61443.052      1275.9053      1277.0283     -225.86712      775.68884    
        65   32.5           298.7799      -13921.548      5470.9934     -19392.542     -13344.141      0.997129       39.46001       39.46001       39.46001       61442.881      1348.641       1112.3433     -527.87597      644.36946    
        66   33             298.08427     -13921.134      5458.2556     -19379.39      -13538.751      0.99713165     39.459975      39.459975      39.459975      61442.718      1290.6596      836.69203     -847.16209      426.72984    
        67   33.5           297.42347     -13920.582      5446.1558     -19366.738     -13794.674      0.99713422     39.459941      39.459941      39.459941      61442.56       1083.0101      483.72419     -1145.2041      140.51009    
        68   34             297.24515     -13920.438      5442.8905     -19363.328     -14088.924      0.99713677     39.459908      39.459908      39.459908      61442.403      733.81792      91.469033     -1389.3692     -188.0274     
        69   34.5           297.66381     -13920.962      5450.5566     -19371.519     -14386.189      0.99713935     39.459874      39.459874      39.459874      61442.244      287.66707     -298.98543     -1546.235      -519.18446    
        70   35             298.29263     -13921.746      5462.0709     -19383.817     -14640.433      0.99714202     39.459838      39.459838      39.459838      61442.079     -181.68185     -644.48216     -1579.9681     -802.04405    
        71   35.5           298.54749     -13922.145      5466.7377     -19388.883     -14806.877      0.99714485     39.459801      39.459801      39.459801      61441.905     -594.33516     -903.781       -1463.9318     -987.34932    
        72   36             298.12916     -13921.92       5459.0777     -19380.998     -14857.162      0.99714785     39.459761      39.459761      39.459761      61441.72      -890.78118     -1043.7567     -1196.6268     -1043.7216    
        73   36.5           297.21946     -13921.401      5442.42       -19363.821     -14787.467      0.99715105     39.459719      39.459719      39.459719      61441.523     -1046.2648     -1045.8238     -807.48666     -966.52509    
        74   37             296.25467     -13921.089      5424.7537     -19345.843     -14615.535      0.99715442     39.459675      39.459675      39.459675      61441.315     -1066.5458     -910.34345     -348.11481     -775.00136    
        75   37.5           295.56166     -13921.12       5412.064      -19333.184     -14371.591      0.99715794     39.459628      39.459628      39.459628      61441.098     -972.7219      -658.34144      122.88101     -502.72744    
        76   38             295.23241     -13921.238      5406.0349     -19327.273     -14091.307      0.99716155     39.459581      39.459581      39.459581      61440.876     -790.08459     -329.87949      550.57127     -189.79761    
        77   38.5           295.26837     -13921.26       5406.6934     -19327.953     -13812.662      0.9971652      39.459533      39.459533      39.459533      61440.651     -545.66843      22.125258      887.13263      121.19649    
        78   39             295.69987     -13921.312      5414.5946     -19335.907     -13572.557      0.99716882     39.459485      39.459485      39.459485      61440.428     -268.4639       342.69153      1093.4202      389.21594    
        79   39.5           296.51027     -13921.579      5429.4339     -19351.013     -13400.715      0.99717238     39.459438      39.459438      39.459438      61440.209      13.04803       587.24995      1143.5851      581.29436    
        80   40             297.51969     -13922.009      5447.9176     -19369.927     -13313.879      0.99717582     39.459392      39.459392      39.459392      61439.996      274.0899       729.61717      1032.3545      678.6872     
        81   40.5           298.41769     -13922.422      5464.3609     -19386.783     -13314.623      0.99717914     39.459349      39.459349      39.459349      61439.792      494.09412      761.60091      779.26259      678.31921    
        82   41             298.89431     -13922.718      5473.0884     -19395.807     -13394.255      0.99718234     39.459306      39.459306      39.459306      61439.595      655.52882      687.64521      426.16848      589.78084    
        83   41.5           298.74715     -13922.776      5470.3937     -19393.17      -13537.26       0.99718542     39.459266      39.459266      39.459266      61439.405      743.12269      519.96617      27.65681       430.24856    
        84   42             297.99929     -13922.387      5456.6995     -19379.086     -13726.505      0.99718843     39.459226      39.459226      39.459226      61439.219      743.60402      276.18832     -363.95891      218.61114    
        85   42.5           297.02667     -13921.606      5438.8898     -19360.496     -13947.386      0.9971914      39.459187      39.459187      39.459187      61439.036      646.10968     -20.963747     -711.45807     -28.770715    
        86   43             296.46393     -13921.014      5428.5854     -19349.599     -14186.697      0.99719437     39.459148      39.459148      39.459148      61438.853      446.42424     -342.8815      -993.08562     -296.51429    
        87   43.5           296.76535     -13921.216      5434.1048     -19355.321     -14425.134      0.9971974      39.459108      39.459108      39.459108      61438.667      156.52385     -653.50866     -1190.2015     -562.39545    
        88   44             297.78321     -13922.11       5452.7429     -19374.853     -14631.558      0.99720053     39.459066      39.459066      39.459066      61438.474     -187.18507     -911.13585     -1277.0188     -791.7799     
        89   44.5           298.85417     -13922.952      5472.3534     -19395.306     -14768.441      0.99720381     39.459023      39.459023      39.459023      61438.272     -527.48852     -1076.837      -1226.5059     -943.61047    
        90   45             299.34059     -13923.163      5481.2603     -19404.424     -14806.898      0.99720726     39.458978      39.458978      39.458978      61438.059     -805.42574     -1125.5459     -1027.9247     -986.29878    
        91   45.5           299.07248     -13922.835      5476.3509     -19399.186     -14739.161      0.9972109      39.45893       39.45893       39.45893       61437.835     -982.40227     -1051.3669     -699.44265     -911.0706     
        92   46             298.31626     -13922.427      5462.5037     -19384.93      -14579.939      0.9972147      39.45888       39.45888       39.45888       61437.601     -1050.107      -865.18242     -286.19292     -733.82746    
        93   46.5           297.45711     -13922.181      5446.7717     -19368.952     -14358.969      0.99721864     39.458828      39.458828      39.458828      61437.358     -1024.3927     -590.72386      152.65771     -487.48627    
        94   47             296.79522     -13922.014      5434.6518     -19356.666     -14112.523      0.99722266     39.458775      39.458775      39.458775      61437.11      -931.56395     -263.61729      557.31497     -212.62209    
        95   47.5           296.55655     -13921.867      5430.2814     -19352.149     -13877.561      0.99722673     39.458721      39.458721      39.458721      61436.86      -796.02945      68.899476      875.47638      49.448801    
        96   48             296.90793     -13921.903      5436.7156     -19358.618     -13686.245      0.99723079     39.458667      39.458667      39.458667      61436.61      -633.02976      355.79453      1066.2772      263.01399    
        97   48.5           297.83976     -13922.314      5453.7785     -19376.092     -13559.764      0.9972348      39.458615      39.458615      39.458615      61436.363     -447.5525       557.34432      1104.1193      404.63705    
        98   49             299.04737     -13922.997      5475.8912     -19398.889     -13504.307      0.99723873     39.458563      39.458563      39.458563      61436.121     -239.53393      656.48168      984.94437      467.29737    
        99   49.5           300.0265      -13923.555      5493.8201     -19417.376     -13513.176      0.99724258     39.458512      39.458512      39.458512      61435.883     -13.639278      656.59321      731.11547      458.02313    
       100   50             300.37026     -13923.682      5500.1148     -19423.797     -13574.445      0.99724634     39.458462      39.458462      39.458462      61435.652      212.76348      568.64997      387.93658      389.78334    
Loop time of 657.83 on 1 procs for 100 steps with 6144 atoms

Performance: 0.007 ns/day, 3654.613 hours/ns, 0.152 timesteps/s, 933.979 atom-step/s
94.4% CPU use with 1 MPI tasks x 1 OpenMP threads

MPI task timing breakdown:
Section |  min time  |  avg time  |  max time  |%varavg| %total
---------------------------------------------------------------
Pair    | 621.23     | 621.23     | 621.23     |   0.0 | 94.44
Bond    | 3.1238e-05 | 3.1238e-05 | 3.1238e-05 |   0.0 |  0.00
Neigh   | 0.38677    | 0.38677    | 0.38677    |   0.0 |  0.06
Comm    | 0.024544   | 0.024544   | 0.024544   |   0.0 |  0.00
Output  | 28.643     | 28.643     | 28.643     |   0.0 |  4.35
Modify  | 7.5425     | 7.5425     | 7.5425     |   0.0 |  1.15
Other   |            | 0.006128   |            |       |  0.00

Nlocal:           6144 ave        6144 max        6144 min
Histogram: 1 0 0 0 0 0 0 0 0 0
Nghost:          17137 ave       17137 max       17137 min
Histogram: 1 0 0 0 0 0 0 0 0 0
Neighs:    1.70442e+06 ave 1.70442e+06 max 1.70442e+06 min
Histogram: 1 0 0 0 0 0 0 0 0 0

Total # of neighbors = 1704424
Ave neighs/atom = 277.41276
Ave special neighs/atom = 2
Neighbor list builds = 10
Dangerous builds = 0

write_data      final.data nocoeff
System init for write_data ...
Generated 0 of 1 mixed pair_coeff terms from arithmetic mixing rule
WARNING: Bonds are defined but no bond style is set (src/force.cpp:198)
WARNING: Likewise 1-2 special neighbor interactions != 1.0 (src/force.cpp:200)
WARNING: Angles are defined but no angle style is set (src/force.cpp:203)
WARNING: Likewise 1-3 special neighbor interactions != 1.0 (src/force.cpp:205)
write_restart   restart.new
System init for write_restart ...
Generated 0 of 1 mixed pair_coeff terms from arithmetic mixing rule
WARNING: Bonds are defined but no bond style is set (src/force.cpp:198)
WARNING: Likewise 1-2 special neighbor interactions != 1.0 (src/force.cpp:200)
WARNING: Angles are defined but no angle style is set (src/force.cpp:203)
WARNING: Likewise 1-3 special neighbor interactions != 1.0 (src/force.cpp:205)

[MBX] Total MBX fix/pair time= 664.628220 seconds
[MBX] Timing Summary
[MBX] kernel                      tmin          tavg          tmax         count   %total
[MBX] -----------------------------------------------------------------------------------
[MBX] INIT                :         1.349         1.349         1.349        11     0.20%
[MBX] UPDATE_XYZ          :      0.090112      0.090112      0.090112       101     0.01%
[MBX] ACCUMULATE_F        :       0.22556       0.22556       0.22556       505     0.03%
[MBX] E1B                 :       0.91804       0.91804       0.91804       101     0.14%
[MBX] E2B_LOCAL           :             0             0             0         0     0.00%
[MBX] E2B_GHOST           :        32.359        32.359        32.359       101     4.87%
[MBX] E3B_LOCAL           :             0             0             0         0     0.00%
[MBX] E3B_GHOST           :        255.79        255.79        255.79       101    38.49%
[MBX] E4B_LOCAL           :             0             0             0         0     0.00%
[MBX] E4B_GHOST           :        0.6113        0.6113        0.6113       101     0.09%
[MBX] DISP                :         31.32         31.32         31.32       101     4.71%
[MBX] DISP_PME            :        10.275        10.275        10.275       101     1.55%
[MBX] BUCK                :        26.866        26.866        26.866       202     4.04%
[MBX] ELE                 :        269.13        269.13        269.13       101    40.49%
[MBX] INIT_FULL           :             0             0             0         0     0.00%
[MBX] UPDATE_XYZ_FULL     :             0             0             0         0     0.00%
[MBX] ACCUMULATE_F_FULL   :             0             0             0         0     0.00%
[MBX] INIT_LOCAL          :        0.2666        0.2666        0.2666        11     0.04%
[MBX] UPDATE_XYZ_LOCAL    :       0.20345       0.20345       0.20345       101     0.03%
[MBX] ACCUMULATE_F_LOCAL  :        0.1449        0.1449        0.1449       404     0.02%


[MBX] Electrostatics Summary
[MBX] kernel                      tmin          tavg          tmax         count   %total
[MBX] -----------------------------------------------------------------------------------
[MBX] ELE_PERMDIP_REAL    :        21.373        21.373        21.373       101     3.22%
[MBX] ELE_PERMDIP_PME     :        7.6988        7.6988        7.6988       101     1.16%
[MBX] ELE_DIPFIELD_REAL   :        86.524        86.524        86.524      1212    13.02%
[MBX] ELE_DIPFIELD_PME    :        96.008        96.008        96.008      1212    14.45%
[MBX] ELE_GRAD_REAL       :        22.404        22.404        22.404       101     3.37%
[MBX] ELE_GRAD_PME        :         24.35         24.35         24.35       101     3.66%
[MBX] ELE_GRAD_FIN        :       0.37839       0.37839       0.37839       101     0.06%
[MBX] ELE_PME_SETUP       :    0.00019386    0.00019386    0.00019386      1414     0.00%
[MBX] ELE_PME_C           :        14.908        14.908        14.908       202     2.24%
[MBX] ELE_PME_D           :        104.21        104.21        104.21      1313    15.68%
[MBX] ELE_PME_E           :         8.618         8.618         8.618       101     1.30%
[MBX] DISP_PME_SETUP      :       0.28796       0.28796       0.28796       101     0.04%
[MBX] DISP_PME_E          :        9.6035        9.6035        9.6035       101     1.44%
[MBX] ELE_COMM_REVFOR     :       0.11793       0.11793       0.11793      1313     0.02%
[MBX] ELE_COMM_REVSET     :     0.0015103     0.0015103     0.0015103        11     0.00%
[MBX] ELE_COMM_REV        :     0.0010729     0.0010729     0.0010729      1302     0.00%
[MBX] ELE_COMM_FORSET     :     0.0065165     0.0065165     0.0065165        11     0.00%
[MBX] ELE_COMM_FOR        :      0.088027      0.088027      0.088027      1302     0.01%
Total wall time: 0:11:04
