LAMMPS (10 Sep 2025 - Development - c68a6d42d5)
  using 1 OpenMP thread(s) per MPI task
# Depositing TIP3P water into MOF with QeQ charges obtained with Ongari scheme
# Variable defiition
variable        mu index -5.0  #chemical potential of reservoir for gcmc (in kcal/mol for real units)
variable        disp index 0.1  # max MC translation distance for random molecular move
variable        temp index 1000.0  # simulation temperature
variable        dt  equal  0.2
variable        tfac equal 5.0/3.0
variable        pressure equal 1.0

processors * * * map xyz

units           real
atom_style      full
boundary        p p p

box             tilt large

The 'box' command has been removed and will be ignored

read_data       initial.data
Reading data file ...
  triclinic box = (0 0 0) to (8.9138002 19.386999 17.062815) with tilt (0 -8.2834166 0)
  1 by 1 by 1 MPI processor grid
  reading atoms ...
  212 atoms
  scanning bonds ...
  5 = max bonds/atom
  scanning angles ...
  10 = max angles/atom
  scanning dihedrals ...
  32 = max dihedrals/atom
  scanning impropers ...
  1 = max impropers/atom
  triclinic box = (0 0 0) to (8.9138002 19.386999 17.062815) with tilt (0 -8.2834166 0)
  1 by 1 by 1 MPI processor grid
  reading bonds ...
  256 bonds
  reading angles ...
  492 angles
  reading dihedrals ...
  912 dihedrals
  reading impropers ...
  48 impropers
Finding 1-2 1-3 1-4 neighbors ...
  special bond factors lj:    0        0        0       
  special bond factors coul:  0        0        0       
     5 = max # of 1-2 neighbors
     8 = max # of 1-3 neighbors
    24 = max # of 1-4 neighbors
    26 = max # of special neighbors
  special bonds CPU = 0.000 seconds
  read_data CPU = 0.010 seconds

group mof type 1 2 3 4 5 6
176 atoms in group mof
group h2o type 7 8
18 atoms in group h2o
group co2 type 9 10
18 atoms in group co2
#molecule h2o H2Otip4p.txt
## Bonded styles ##
bond_style      harmonic
angle_style     harmonic
dihedral_style  harmonic
improper_style  cvff

## MOF ##
bond_coeff      1     32.28973605      2.15620001 # Zn  o
bond_coeff      2      36.9295234      2.05480166 # Zn  nc
bond_coeff      3           510.5      1.36500000 # nc  nc
bond_coeff      4           441.1      1.36900000 # cc  nc
bond_coeff      5           349.1      1.08400000 # cc  ha
bond_coeff      6           637.5      1.21800000 # c  o
bond_coeff      7           291.7      1.54800000 # c  c
angle_coeff    1    30.87978925     131.460673 # Zn-nc-cc
angle_coeff    2      57.496879     120.196951 # Zn-nc-nc
angle_coeff    3     48.4760699     109.336204 # Zn-o-c
angle_coeff    4      11.987154     92.5855661 # nc-Zn-nc
angle_coeff    5      18.429192     74.0971127 # o-Zn-o
angle_coeff    6     20.2159165      86.183884 # o-Zn-nc
angle_coeff    7     23.9870345     116.167131 # o-Zn-nc
angle_coeff    8     74.3545905     169.105528 # o-Zn-nc
angle_coeff    9           72.9     120.000000 # cc-nc-nc
angle_coeff   10           69.9     129.000000 # nc-cc-nc
angle_coeff   11           50.9     116.500000 # ha-cc-nc
angle_coeff   12           71.0     117.200000 # cc-nc-cc
angle_coeff   13           77.9     130.200000 # o-c-o
angle_coeff   14           67.2     120.800000 # c-c-o
dihedral_coeff    1       17.03190        -1         2 # Zn-nc-nc-cc
dihedral_coeff    2       8.367632        -1         2 # Zn-nc-cc-nc
dihedral_coeff    3       3.138488         1         2 # Zn-nc-cc-ha
dihedral_coeff    4       0.864613        -1         2 # Zn-o-c-o
dihedral_coeff    5       0.409487         1         2 # Zn-o-c-c
dihedral_coeff    6       5.537521         1         2 # o-Zn-o-c
dihedral_coeff    7            0.0         1         2 # nc-Zn-nc-cc
dihedral_coeff    8            0.0         1         2 # nc-Zn-nc-nc
dihedral_coeff    9            0.0         1         2 # nc-Zn-o-c
dihedral_coeff   10            0.0         1         2 # o-Zn-nc-cc
dihedral_coeff   11            0.0         1         2 # o-Zn-nc-nc
dihedral_coeff   12         4.7500        -1         2 # nc-cc-nc-nc
dihedral_coeff   13         4.7500        -1         2 # ha-cc-nc-nc
dihedral_coeff   14         4.0000        -1         2 # cc-nc-nc-cc
dihedral_coeff   15         4.7500        -1         2 # nc-cc-nc-cc
dihedral_coeff   16         4.7500        -1         2 # ha-cc-nc-cc
dihedral_coeff   17         0.3000        -1         2 # o-c-c-o
improper_coeff    1    1.1000        -1         2 # ha-cc-nc-nc
improper_coeff    2    1.1000        -1         2 # c-c-o-o


## H2O ##
#set             type 3 charge -1.1128
#set             type 4 charge  0.5564
bond_coeff       8 0.0 0.0
angle_coeff      15 0.0 0.0

## CO2 ##
bond_coeff      9  0.0  0.0
angle_coeff     16 0.0  0.0

## LJ ##
#pair_style      lj/cut/coul/long 20.0
pair_style      hybrid/overlay mbx 9.0 lj/cut 9.0 coul/exclude 9.0 #
pair_modify     tail yes


## MOF pair coefficients ##
pair_coeff      2      2         lj/cut      0.170000      3.249999
pair_coeff      2      3         lj/cut      0.120913      3.324834
pair_coeff      2      4         lj/cut      0.050498      2.924820
pair_coeff      2      5         lj/cut      0.188944      3.104782
pair_coeff      2      6         lj/cut      0.120913      3.324834
pair_coeff      3      3         lj/cut      0.086000      3.399670
pair_coeff      3      4         lj/cut      0.035917      2.999656
pair_coeff      3      5         lj/cut      0.134387      3.179618
pair_coeff      3      6         lj/cut      0.086000      3.399670
pair_coeff      4      4         lj/cut      0.015000      2.599642
pair_coeff      4      5         lj/cut      0.056125      2.779604
pair_coeff      4      6         lj/cut      0.035917      2.999656
pair_coeff      5      5         lj/cut      0.210000      2.959566
pair_coeff      5      6         lj/cut      0.134387      3.179618
pair_coeff      6      6         lj/cut      0.086000      3.399670
pair_coeff      1      2         lj/cut      0.145190      2.855776
pair_coeff      1      3         lj/cut      0.103267      2.930611
pair_coeff      1      4         lj/cut      0.043128      2.530598
pair_coeff      1      5         lj/cut      0.161369      2.710559
pair_coeff      1      6         lj/cut      0.103267      2.930611
pair_coeff      1      1         lj/cut      0.124000      2.461553

# H2O MOF Mixed
pair_coeff      2      7         lj/cut      0.177433      3.204449
pair_coeff      2      8         lj/cut      0.000000      0.000000
pair_coeff      3      7         lj/cut      0.126200      3.279285
pair_coeff      3      8         lj/cut      0.000000      0.000000
pair_coeff      4      7         lj/cut      0.052705      2.879271
pair_coeff      4      8         lj/cut      0.000000      0.000000
pair_coeff      5      7         lj/cut      0.197205      3.059233
pair_coeff      5      8         lj/cut      0.000000      0.000000
pair_coeff      6      7         lj/cut      0.126200      3.279285
pair_coeff      6      8         lj/cut      0.000000      0.000000
pair_coeff      1      7         lj/cut      0.151537      2.810227
pair_coeff      1      8         lj/cut      0.000000      0.000000

# CO2 MOF Mixed
pair_coeff      2      9         lj/cut      0.095485      3.024999
pair_coeff      2     10         lj/cut      0.163330      3.149999
pair_coeff      3      9         lj/cut      0.067914      3.099835
pair_coeff      3     10         lj/cut      0.116169      3.224835
pair_coeff      4      9         lj/cut      0.028363      2.699821
pair_coeff      4     10         lj/cut      0.048516      2.824821
pair_coeff      5      9         lj/cut      0.106125      2.879783
pair_coeff      5     10         lj/cut      0.181531      3.004783
pair_coeff      6      9         lj/cut      0.067914      3.099835
pair_coeff      6     10         lj/cut      0.116169      3.224835
pair_coeff      1      9         lj/cut      0.081549      2.630777
pair_coeff      1     10         lj/cut      0.139493      2.755777

## TIP4P H2O ##
#pair_coeff      12 12 lj/cut/tip4p/long 0.1852 3.1589
#pair_coeff      12 13 lj/cut/tip4p/long 0.0 0.0
#pair_coeff      13 13 lj/cut/tip4p/long 0.0 0.0

#MBX-water
pair_coeff      * * mbx 3 dp1 1*6 h2o 7 8 8 co2 9 10 10 json mbx.json

#coul exclude
pair_coeff      1*6 1*6 coul/exclude

## Non-bonded k-space ##
#kspace_style    ewald 0.000001
#kspace_style    pppm/tip4p 1.0e-5
special_bonds   amber
Finding 1-2 1-3 1-4 neighbors ...
  special bond factors lj:    0        0        0.5     
  special bond factors coul:  0        0        0.8333333333333334
     5 = max # of 1-2 neighbors
     8 = max # of 1-3 neighbors
    24 = max # of 1-4 neighbors
    26 = max # of special neighbors
  special bonds CPU = 0.000 seconds


neighbor        2.0 bin
neigh_modify    every 1 delay 1 check yes

timestep        ${dt}
timestep        0.2

compute         mbx all pair mbx
variable        e1bpip    equal c_mbx[1]
variable        e2bpip    equal c_mbx[2]
variable        e3bpip    equal c_mbx[3]
variable        e4bpip    equal c_mbx[4]
variable        edisp     equal c_mbx[5]
variable        ebuck     equal c_mbx[6]
variable        eperm     equal c_mbx[7]
variable        eind      equal c_mbx[8]
variable        eele      equal c_mbx[9]
variable        etot      equal c_mbx[10]


#thermo_style    custom step time temp cella cellb cellc vol pe ke etotal
thermo_style    custom step time temp cella cellb cellc evdwl ecoul epair ebond eangle edihed eimp emol elong etail v_e1bpip v_e2bpip v_e3bpip v_e4bpip v_edisp v_ebuck v_eele v_etot pe etotal
thermo          1
thermo_modify   flush yes

#fix             wshake water shake 1e-5 50 0 b 14 a 24 mol h2o
#fix        mynvt all nvt temp ${temp} ${temp} 100.0
fix             mynpt all npt temp ${temp} ${temp} $(100.0*dt) iso ${pressure} ${pressure} $(1000.0*dt) tchain 4
fix             mynpt all npt temp 1000.0 ${temp} $(100.0*dt) iso ${pressure} ${pressure} $(1000.0*dt) tchain 4
fix             mynpt all npt temp 1000.0 1000.0 $(100.0*dt) iso ${pressure} ${pressure} $(1000.0*dt) tchain 4
fix             mynpt all npt temp 1000.0 1000.0 20 iso ${pressure} ${pressure} $(1000.0*dt) tchain 4
fix             mynpt all npt temp 1000.0 1000.0 20 iso 1 ${pressure} $(1000.0*dt) tchain 4
fix             mynpt all npt temp 1000.0 1000.0 20 iso 1 1 $(1000.0*dt) tchain 4
fix             mynpt all npt temp 1000.0 1000.0 20 iso 1 1 200 tchain 4
#fix             3 all npt temp 298.15 298.15 $(250.0*dt) iso 1.0 1.0 $(1000.0*dt)
#fix            4 mof npt temp 298.15 298.15 $(250.0*dt) iso 1.0 1.0 $(1000.0*dt)
#fix             5 water gcmc 100 100 0 0 54341 ${temp} ${mu} ${disp} mol h2o tfac_insert ${tfac} group water shake wshake

#fix             nve all nve
#fix             nvt all nvt temp 300.0 300.0 1.0
#fix             3 all npt temp 298.15 298.15 $(10.0*dt) iso 1.0 1.0 $(100.0*dt)

velocity        all create ${temp} 428879 rot yes dist gaussian
velocity        all create 1000.0 428879 rot yes dist gaussian
#velocity        all zero linear
#velocity        all zero angular

dump            1 all custom 1 traj.lammpstrj id type x y z
dump_modify     1 sort id

restart         5 restart.inter.1 restart.inter.2

run             100

CITE-CITE-CITE-CITE-CITE-CITE-CITE-CITE-CITE-CITE-CITE-CITE-CITE

Your simulation uses code contributions which should be cited:

- pair mbx command:

@article{10.1063/5.0156036,
 author = {Riera, Marc and Knight, Christopher and Bull-Vulpe, Ethan F. and Zhu, Xuanyu and Agnew, Henry and Smith, Daniel G. A. and Simmonett, Andrew C. and Paesani, Francesco},
 title = "{MBX: A many-body energy and force calculator for data-driven many-body simulations}",
 journal = {The Journal of Chemical Physics},
 volume = {159},
 number = {5},
 pages = {054802},
 year = {2023},
 doi = {10.1063/5.0156036},
}

CITE-CITE-CITE-CITE-CITE-CITE-CITE-CITE-CITE-CITE-CITE-CITE-CITE

Generated 0 of 45 mixed pair_coeff terms from geometric mixing rule
Neighbor list info ...
  update: every = 1 steps, delay = 1 steps, check = yes
  max neighbors/atom: 2000, page size: 100000
  master list distance cutoff = 11
  ghost atom cutoff = 11
  binsize = 5.5, bins = 4 4 4
  3 neighbor lists, perpetual/occasional/extra = 3 0 0
  (1) pair mbx, perpetual
      attributes: half, newton on
      pair build: half/bin/newton/tri
      stencil: half/bin/3d/tri
      bin: standard
  (2) pair lj/cut, perpetual, skip from (1)
      attributes: half, newton on
      pair build: skip
      stencil: none
      bin: none
  (3) pair coul/exclude, perpetual, skip from (1)
      attributes: half, newton on
      pair build: skip
      stencil: none
      bin: none
WARNING: Inconsistent image flags
For more information see https://docs.lammps.org/err0027 (src/domain.cpp:1052)
WARNING: Bond/angle/dihedral extent > half of periodic box length (src/domain.cpp:1174)
Per MPI rank memory allocation (min/avg/max) = 22.98 | 22.98 | 22.98 Mbytes
   Step          Time           Temp          Cella          Cellb          Cellc          E_vdwl         E_coul         E_pair         E_bond        E_angle        E_dihed        E_impro         E_mol          E_long         E_tail        v_e1bpip       v_e2bpip       v_e3bpip       v_e4bpip       v_edisp        v_ebuck         v_eele         v_etot         PotEng         TotEng    
         0   0              1000           8.9138002      19.386999      18.967199     -1276.6983      1842.9585      566.26023      86.202045      609.13315      808.83684      0.002529123    1504.1746      0             -15.695729      4.692682       452.03326     -0.17453539     0             -49.011218      0             -2385.0599     -1977.5197      2070.4348      2699.3857    
         1   0.2            1016.62        8.9138498      19.387107      18.967305     -1288.1668      1843.2162      555.04939      86.402235      609.39337      809.00756      0.0081502104   1504.8113      0             -15.695467      4.5443121      449.99354     -0.13289311     0             -48.8924        0             -2385.0059     -1979.4934      2059.8607      2699.2648    
         2   0.4            1046.6377      8.9139982      19.38743       18.967621     -1310.0116      1843.5152      533.50359      87.880065      610.02311      809.23741      0.023938086    1507.1645      0             -15.694683      4.6990342      444.22167     -0.087271078    0             -48.638837      0             -2384.9844     -1984.7898      2040.6681      2698.9518    
         3   0.6            1088.2107      8.9142442      19.387965      18.968144     -1340.9912      1843.8546      502.86346      90.56826       611.01834      809.53088      0.051014431    1511.1685      0             -15.693384      5.2377082      434.82641     -0.037847527    0             -48.254449      0             -2385.0189     -1993.2471      2014.032       2698.4631    
         4   0.8            1138.8855      8.9145861      19.388708      18.968872     -1379.4384      1844.2338      464.79533      94.360512      612.36979      809.89308      0.090615204    1516.714       0             -15.691578      6.2808477      422.03261      0.015113206    0             -47.745832      0             -2385.1514     -2004.5686      1981.5093      2697.8124    
         5   1              1195.8701      8.9150219      19.389656      17.076796     -1423.6512      1844.6502      420.99908      99.116981      614.0629       810.32939      0.1439833      1523.6533      0             -15.689277      7.9744385      406.21483      0.071289038    0             -47.123211      0             -2385.6534     -2018.5161      1944.6523      2696.7959    
         6   1.2            1256.292       8.9155493      19.390803      17.077806     -1471.1979      1845.1033      373.90536      104.67112      616.07791      810.84503      0.21225696     1531.8063      0             -15.686493      10.460712      387.91891      0.13032688     0             -46.401975      0             -2386.1584     -2034.0505      1905.7117      2695.8577    
         7   1.4            1317.4429      8.9161656      19.392144      17.078987     -1520.3806      1845.5931      325.21244      110.83748      618.39013      811.44477      0.29636913     1540.9688      0             -15.683241      13.826314      367.85441      0.19186656     0             -45.601165      0             -2386.9285     -2050.6571      1866.1812      2694.7881    
         8   1.6            1377.0179      8.9168682      19.393672      17.080333     -1569.515       1846.1182      276.60315      117.42005      620.97034      812.13265      0.39696915     1550.92        0             -15.679534      18.02771       346.84838      0.25555973     0             -44.743455      0             -2387.9772     -2067.589       1827.5232      2693.5999    
         9   1.8            1433.3359      8.9176544      19.395382      17.081839     -1617.3201      1846.677       229.3569       124.22064      623.78524      812.91186      0.51437388     1561.4321      0             -15.675387      22.812862      325.76266      0.32108307     0             -43.853156      0             -2389.2686     -2084.2251      1790.789       2692.287     
        10   2              1485.4971      8.9185217      19.397268      17.0835       -1662.9998      1847.2544      184.25458      131.04721      626.79811      813.78465      0.64855008     1572.2785      0             -15.670814      27.687115      305.39122      0.3881458      0             -42.953932      0             -2390.7216     -2100.2091      1756.5331      2690.8378    
        11   2.2            1533.3643      8.9194672      19.399325      17.085311     -1706.2637      1847.8698      141.60609      137.72141      629.9695       814.75227      0.79912623     1583.2423      0             -15.665831      31.987117      286.3634       0.45649231     0             -42.066601      0             -2392.2373     -2115.4969      1724.8484      2689.2593    
        12   2.4            1577.307       8.9204885      19.401546      17.087267     -1747.1622      1848.5112      101.34907      144.08539      633.25804      815.81508      0.96542799     1594.1239      0             -15.660451      35.090257      269.07941      0.52590094     0             -41.207613      0             -2393.7363     -2130.2484      1695.473       2687.5217    
        13   2.6            1617.7785      8.9215829      19.403926      17.089364     -1785.8393      1849.1754      63.336111      150.00727      636.62128      816.97252      1.1465316      1604.7476      0             -15.654689      36.6869        253.69449      0.59618048     0             -40.388734      0             -2395.1836     -2144.5948      1668.0837      2685.587     
        14   2.8            1654.9399      8.9227479      19.40646       17.091595     -1822.2514      1849.8587      27.607231      155.38529      640.01651      818.22323      1.3413271      1614.9664      0             -15.648557      36.95278       240.15178      0.66716614     0             -39.617593      0             -2396.5864     -2158.4323      1642.5736      2683.4496    
        15   3              1688.5615      8.923981       19.409142      17.093957     -1856.1281      1850.5568     -5.5712945      160.1504       643.40156      819.56517      1.5485853      1624.6657      0             -15.642072      36.49407       228.24829      0.7387159      0             -38.898869      0             -2397.9717     -2171.3895      1619.0944      2681.1167    
        16   3.2            1718.2092      8.9252797      19.411966      17.096445     -1887.0956      1851.2654     -35.830196      164.26714      646.73559      820.99562      1.7670214      1633.7654      0             -15.635244      36.097873      217.71069      0.81070752     0             -38.234881      0             -2399.359      -2182.9746      1597.9352      2678.6044    
        17   3.4            1743.528       8.9266417      19.414929      17.099054     -1914.8744      1851.9797     -62.894614      167.73296      649.97981      822.51137      1.9953527      1642.2195      0             -15.628089      36.451364      208.26081      0.88303593     0             -37.626666      0             -2400.7445     -2192.776       1579.3249      2675.9184    
        18   3.6            1764.4269      8.9280645      19.418023      17.101779     -1939.3939      1852.6949     -86.698951      170.5759       653.09806      824.10872      2.232345       1650.015       0             -15.620619      37.974285      199.65974      0.95561023     0             -37.073964      0             -2402.1037     -2200.5881      1563.3161      2673.054     
        19   3.8            1781.1019      8.9295459      19.421245      17.104617     -1960.7935      1853.406      -107.38749      172.85081      656.0574       825.78362      2.4768486      1657.1687      0             -15.612846      40.797014      191.72879      1.0283506      0             -36.57541       0             -2403.4032     -2206.4244      1549.7812      2670.0069    
        20   4              1793.9501      8.9310836      19.42459       17.107562     -1979.3586      1854.1079     -125.25073      174.63441      658.82851      827.5317       2.7278221      1663.7224      0             -15.604782      44.831007      184.35164      1.1011853      0             -36.128702      0             -2404.6132     -2210.4581      1538.4717      2666.7783    
        21   4.2            1803.4535      8.9326756      19.428052      17.110612     -1995.4605      1854.7956     -140.66484      176.01938      661.38606      829.34836      2.9843456      1669.7381      0             -15.59644       49.864306      177.46472      1.1740474      0             -35.730827      0             -2405.7142     -2212.9419      1529.0733      2663.357     
        22   4.4            1810.0877      8.9343199      19.431628      17.113761     -2009.4602      1855.4645     -153.99567      177.1078       663.70894      831.2288       3.2456247      1675.2912      0             -15.587831      55.640785      171.04225      1.2468727      0             -35.378334      0             -2406.6966     -2214.145       1521.2955      2659.7518    
        23   4.6            1814.2722      8.9360143      19.435313      17.117007     -2021.7034      1856.1101     -165.59327      178.00438      665.78047      833.16806      3.5109876      1680.4639      0             -15.578966      61.910288      165.08103      1.3195979      0             -35.067583      0             -2407.5586     -2214.3152      1514.8706      2655.9588    
        24   4.8            1816.3573      8.9377571      19.439104      17.120345     -2032.469       1856.7282     -175.74083      178.8097       667.58844      835.16113      3.7798761      1685.3391      0             -15.569854      68.453042      159.58778      1.3921589      0             -34.794939      0             -2408.303      -2213.665       1509.5983      2651.9979    
        25   5              1816.6323      8.9395463      19.442995      17.123773     -2042.0134      1857.3128     -184.70061      179.61397      669.1252       837.20288      4.0518339      1689.9939      0             -15.560507      75.087064      154.57007      1.4644903      0             -34.556951      0             -2408.9345     -2212.3698      1505.2933      2647.8658    
        26   5.2            1815.3423      8.9413803      19.446984      17.127286     -2050.5453      1857.8645     -192.68083      180.4915       670.38757      839.28821      4.3264927      1694.4938      0             -15.550934      81.666718      150.0308       1.5365248      0             -34.350457      0             -2409.4575     -2210.5739      1501.8129      2643.5742    
        27   5.4            1812.7054      8.9432573      19.451066      17.130881     -2058.2322      1858.379      -199.85327      181.4962       671.37682      841.41199      4.6035583      1698.8886      0             -15.541145      88.078103      145.96558      1.6081928      0             -34.172363      0             -2409.8757     -2208.3962      1499.0353      2639.138     
        28   5.6            1808.928       8.9451756      19.455239      17.134556     -2065.2287      1858.8541     -206.37453      182.65846      672.09852      843.56913      4.8827956      1703.2089      0             -15.531149      94.234348      142.36215      1.6794226      0             -34.020084      0             -2410.192      -2205.9361      1496.8344      2634.5613    
        29   5.8            1804.2141      8.9471337      19.459497      17.138306     -2071.6707      1859.2883     -212.38241      183.9833       672.56236      845.75458      5.1640157      1707.4643      0             -15.520954      100.07198      139.20111      1.7501409      0             -33.891216      0             -2410.4077     -2203.2757      1495.0818      2629.844     
        30   6              1798.7696      8.9491299      19.463839      17.14213      -2077.6468      1859.6806     -217.96614      185.45023      672.78198      847.96341      5.4470636      1711.6427      0             -15.51057       105.54845      136.4573       1.8202728      0             -33.783717      0             -2410.5262     -2200.4839      1493.6765      2625.0143    
        31   6.2            1792.8015      8.9511628      19.468261      17.146024     -2083.251       1860.0305     -223.22041      187.01447      672.77471      850.19075      5.7318068      1715.7117      0             -15.500004      110.64023      134.10145      1.8897426      0             -33.695683      0             -2410.5499     -2197.6142      1492.4913      2620.0755    
        32   6.4            1786.5157      8.9532309      19.472759      17.149986     -2088.55        1860.3382     -228.21182      188.60973      672.56125      852.43187      6.0181265      1719.621       0             -15.489266      115.34116      132.1018       1.9584747      0             -33.625443      0             -2410.4832     -2194.7072      1491.4092      2615.0399    
        33   6.6            1780.1119      8.9553327      19.47733       17.154012     -2093.5969      1860.6042     -232.99267      190.1522       672.16544      854.68217      6.3059089      1723.3057      0             -15.478362      119.66054      130.4255       2.0263939      0             -33.571557      0             -2410.3306     -2191.7898      1490.3131      2609.916     
        34   6.8            1773.7781      8.9574668      19.481971      17.1581       -2098.4137      1860.8295     -237.58416      191.54567      671.61379      856.9372       6.5950385      1726.6917      0             -15.467302      123.6209       129.03978      2.0934261      0             -33.532712      0             -2410.0973     -2188.8759      1489.1075      2604.7269    
        35   7              1767.6855      8.9596319      19.48668       17.162247     -2103.0243      1861.0156     -242.00878      192.68741      670.93517      859.19266      6.8853926      1729.7006      0             -15.456092      127.25553      127.91286      2.1594992      0             -33.50775       0             -2409.7886     -2185.9685      1487.6918      2599.4793    
        36   7.2            1761.9823      8.9618266      19.491454      17.166451     -2107.4332      1861.1639     -246.26929      193.47454      670.16031      861.4444       7.1768369      1732.2561      0             -15.444739      130.60577      127.01452      2.2245433      0             -33.495643      0             -2409.4104     -2183.0612      1485.9868      2594.1872    
        37   7.4            1756.7887      8.9640496      19.496289      17.170709     -2111.6434      1861.2763     -250.36716      193.81049      669.32135      863.68845      7.4692214      1734.2895      0             -15.433251      133.71826      126.3165       2.288491       0             -33.495467      0             -2408.9687     -2180.1409      1483.9224      2588.8562    
        38   7.6            1752.1919      8.9662998      19.501183      17.175019     -2115.6446      1861.3545     -254.29007      193.61123      668.45135      865.92102      7.7623789      1735.746       0             -15.421635      136.64226      125.79277      2.3512781      0             -33.506392      0             -2408.4697     -2177.1897      1481.4559      2583.4986    
        39   7.8            1748.2428      8.9685759      19.506133      17.179379     -2119.4113      1861.4003     -258.01102      192.81099      667.58372      868.13847      8.0561224      1736.5893      0             -15.409897      139.42705      125.41954      2.4128434      0             -33.527674      0             -2407.9194     -2174.1876      1478.5783      2578.1372    
        40   8              1744.9533      8.9708767      19.511137      17.183786     -2122.9406      1861.4116     -261.52899      191.36696      666.75175      870.33732      8.3502454      1736.8063      0             -15.398043      142.1195       125.17529      2.4731289      0             -33.558617      0             -2407.3237     -2171.1144      1475.2773      2572.7673    
        41   8.2            1742.2948      8.9732012      19.516193      17.188239     -2126.21        1861.3961     -264.81397      189.26297      665.98797      872.51428      8.6445217      1736.4097      0             -15.386079      144.76191      125.04069      2.5320795      0             -33.598596      0             -2406.6884     -2167.9523      1471.5958      2567.4137    
        42   8.4            1740.1981      8.9755483      19.521298      17.192735     -2129.2113      1861.3519     -267.85937      186.51173      665.32372      874.66618      8.9387062      1735.4403      0             -15.374012      147.3901       124.99852      2.5896431      0             -33.647019      0             -2406.0186     -2164.6873      1467.581       2562.0802    
        43   8.6            1738.5577      8.9779169      19.526449      17.197272     -2131.9408      1861.2797     -270.66116      183.15556      664.78861      876.79003      9.2325371      1733.9667      0             -15.361847      150.03194      125.03358      2.6457701      0             -33.703352      0             -2405.3187     -2161.3107      1463.3056      2556.773     
        44   8.8            1737.2341      8.9803062      19.531646      17.201849     -2134.393       1861.1797     -273.21337      179.26563      664.41003      878.88297      9.5257375      1732.0844      0             -15.349589      152.70625      125.13258      2.7004131      0             -33.76707       0             -2404.5923     -2157.8201      1458.871       2551.506     
        45   9              1736.0606      8.9827152      19.536885      17.206463     -2136.5766      1861.0517     -275.52494      174.93956      664.21272      880.94227      9.8180186      1729.9126      0             -15.337243      155.42221      125.28406      2.7535265      0             -33.837664      0             -2403.8431     -2154.221       1454.3876      2546.2846    
        46   9.2            1734.8496      8.9851429      19.542165      17.211113     -2138.4905      1860.8952     -277.59536      170.29774      664.21839      882.96536      10.109082      1727.5906      0             -15.324814      158.17917      125.47831      2.8050659      0             -33.914658      0             -2403.0733     -2150.5254      1449.9952      2541.1305    
        47   9.4            1733.401       8.9875885      19.547484      17.215798     -2140.1707      1860.7093     -279.46143      165.47822      664.44542      884.94975      10.398624      1725.272       0             -15.312307      160.96707      125.70729      2.8549878      0             -33.997576      0             -2402.2844     -2146.7526      1445.8106      2536.0347    
        48   9.6            1731.5113      8.9900512      19.552841      17.220515     -2141.6284      1860.493      -281.13535      160.63081      664.9086       886.89308      10.686335      1723.1188      0             -15.299727      163.76711      125.96454      2.903249       0             -34.085979      0             -2401.4774     -2142.9285      1441.9835      2531.0191    
        49   9.8            1728.9831      8.99253        19.558232      17.225263     -2142.8987      1860.2451     -282.65359      155.91027      665.61893      888.7931       10.971909      1721.2942      0             -15.287078      166.55304      126.245        2.9498062      0             -34.179408      0             -2400.6529     -2139.0844      1438.6406      2526.0861    
        50   10             1725.6346      8.9950242      19.563657      17.230041     -2144.0339      1859.9615     -284.07234      151.46932      666.58351      890.64764      11.255038      1719.9555      0             -15.274365      169.29269      126.54497      2.9946154      0             -34.277482      0             -2399.8108     -2135.256       1435.8832      2521.2226    
        51   10.2           1721.3074      8.997533       19.569113      17.234847     -2145.053       1859.6461     -285.40694      147.4515       667.80549      892.45461      11.53542       1719.247       0             -15.261592      171.94994      126.86188      3.0376318      0             -34.379652      0             -2398.951      -2131.4812      1433.8401      2516.4579    
        52   10.4           1715.8745      9.0000553      19.574599      17.239678     -2145.8381      1859.2954     -286.54269      143.9845       669.2841       894.21202      11.812759      1719.2934      0             -15.248764      174.48692      127.19413      3.0788092      0             -34.485541      0             -2398.0734     -2127.7991      1432.7507      2511.9515    
        53   10.6           1709.2469      9.0025905      19.580113      17.244534     -2146.7439      1858.9089     -287.83502      141.17412      671.0147       895.91794      12.086767      1720.1935      0             -15.235885      176.86625      127.54093      3.1180997      0             -34.594725      0             -2397.1773     -2124.2468      1432.3585      2507.3909    
        54   10.8           1701.378       9.0051376      19.585653      17.249413     -2147.6402      1858.4857     -289.1545       139.09925      672.98893      897.57048      12.357164      1722.0158      0             -15.22296       179.05333      127.90213      3.1554538      0             -34.706782      0             -2396.2627     -2120.8585      1432.8613      2502.9446    
        55   11             1692.2669      9.0076957      19.591216      17.254314     -2148.5632      1858.0256     -290.53764      137.80813      675.19487      899.16786      12.623679      1724.7945      0             -15.209994      181.01838      128.27799      3.1908203      0             -34.821298      0             -2395.3293     -2117.6634      1434.2569      2498.6097    
        56   11.2           1681.9587      9.010264       19.596802      17.259233     -2149.5442      1857.529      -292.01519      137.31602      677.61728      900.70831      12.886052      1728.5277      0             -15.196992      182.73798      128.66907      3.224146       0             -34.937847      0             -2394.3774     -2114.6841      1436.5125      2494.3819    
        57   11.4           1670.5438      9.0128413      19.602408      17.26417      -2150.5946      1856.9964     -293.59825      137.60452      680.23789      902.19015      13.144034      1733.1766      0             -15.183958      184.19619      129.0761       3.2553765      0             -35.056053      0             -2393.4072     -2111.9356      1439.5783      2490.2684    
        58   11.6           1658.1563      9.0154269      19.608031      17.269123     -2151.7121      1856.4287     -295.28334      138.62242      683.03571      903.61176      13.397385      1738.6673      0             -15.170898      185.38488      129.49979      3.2844558      0             -35.175499      0             -2392.42       -2109.4264      1443.3839      2486.2829    
        59   11.8           1644.9697      9.0180196      19.61367       17.274089     -2152.9147      1855.8273     -297.08735      140.28822      685.98733      904.97157      13.645879      1744.893       0             -15.157817      186.30344      129.94081      3.3113273      0             -35.295794      0             -2391.4163     -2107.1565      1447.8056      2482.4109    
        60   12             1631.1914      9.0206185      19.619323      17.279067     -2154.1969      1855.1938     -299.00306      142.49398      689.06736      906.26811      13.889299      1751.7187      0             -15.14472       186.95785      130.39969      3.3359339      0             -35.416534      0             -2390.3976     -2105.1207      1452.7157      2478.655     
        61   12.2           1617.0562      9.0232225      19.624986      17.284055     -2155.5576      1854.5301     -301.0275       145.11054      692.24877      907.49998      14.127442      1758.9867      0             -15.131612      187.35919      130.87675      3.3582249      0             -35.537345      0             -2389.3655     -2103.3087      1457.9592      2475.0082    
        62   12.4           1602.8188      9.0258307      19.630659      17.289051     -2156.9909      1853.8382     -303.15277      147.99366      695.50338      908.66589      14.360117      1766.523       0             -15.118498      187.52178      131.3721       3.3781479      0             -35.657844      0             -2388.3214     -2101.7072      1463.3703      2471.4647    
        63   12.6           1588.7454      9.028442       19.636338      17.294053     -2158.469       1853.1203     -305.34867      150.99088      698.80224      909.76462      14.587146      1774.1449      0             -15.105383      187.46116      131.8856       3.3956507      0             -35.777656      0             -2387.2671     -2100.3024      1468.7962      2468.0391    
        64   12.8           1575.1043      9.0310554      19.642022      17.299059     -2159.9983      1852.3789     -307.61934      153.94869      702.11612      910.79512      14.808364      1781.6683      0             -15.092274      187.19211      132.41687      3.4106839      0             -35.896413      0             -2386.2044     -2099.0812      1474.049       2464.7122    
        65   13             1562.1564      9.0336699      19.647709      17.304067     -2161.5733      1851.6162     -309.95712      156.71971      705.41596      911.75643      15.02362       1788.9157      0             -15.079173      186.72694      132.96524      3.4232024      0             -36.013756      0             -2385.1349     -2098.0332      1478.9586      2461.4783    
        66   13.2           1550.1459      9.0362847      19.653396      17.309076     -2163.2007      1850.8345     -312.36613      159.16948      708.67332      912.64775      15.232776      1795.7233      0             -15.066087      186.07422      133.52984      3.4331662      0             -36.129335      0             -2384.0603     -2097.1524      1483.3572      2458.3229    
        67   13.4           1539.2909      9.0388988      19.659081      17.314083     -2164.8658      1850.0361     -314.82977      161.18255      711.86084      913.46841      15.43571       1801.9475      0             -15.053019      185.23815      134.10952      3.4405421      0             -36.24281       0             -2382.9821     -2096.4367      1487.1177      2455.2561    
        68   13.6           1529.7742      9.0415112      19.664763      17.319087     -2166.5819      1849.2228     -317.35903      162.66754      714.95266      914.21789      15.632313      1807.4704      0             -15.039975      184.21867      134.70292      3.4453039      0             -36.353859      0             -2381.9014     -2095.8884      1490.1114      2452.2642    
        69   13.8           1521.736       9.0441214      19.67044       17.324087     -2168.3637      1848.3968     -319.96692      163.56099      717.92481      914.89582      15.822489      1812.2041      0             -15.026957      183.01224      135.30847      3.4474343      0             -36.462173      0             -2380.8194     -2095.5134      1492.2372      2449.3345    
        70   14             1515.2676      9.0467284      19.67611       17.329081     -2170.2237      1847.5596     -322.66412      163.82972      720.75559      915.50198      16.006156      1816.0934      0             -15.01397       181.61335      135.92436      3.4469248      0             -36.567442      0             -2379.7368     -2095.3196      1493.4293      2446.4583    
        71   14.2           1510.4064      9.0493315      19.681772      17.334067     -2172.1658      1846.7129     -325.45288      163.47172      723.42584      916.0363       16.183247      1819.1171      0             -15.001016      180.01635      136.54862      3.4437773      0             -36.669474      0             -2378.6539     -2095.3147      1493.6642      2443.6357    
        72   14.4           1507.1345      9.0519303      19.687424      17.339045     -2174.219       1845.8581     -328.3609       162.51546      725.91925      916.49883      16.353704      1821.2873      0             -14.9881        178.21754      137.1791       3.4380042      0             -36.767981      0             -2377.572      -2095.5054      1492.9264      2440.84      
        73   14.6           1505.3793      9.0545241      19.693065      17.344014     -2176.3715      1844.9965     -331.37506      161.01772      728.22251      916.88978      16.517482      1822.6475      0             -14.975223      176.21698      137.81348      3.4296288      0             -36.862741      0             -2376.491      -2095.8936      1491.2724      2438.0821    
        74   14.8           1505.0175      9.0571123      19.698695      17.348971     -2178.6288      1844.1293     -334.49949      159.06002      730.32545      917.20944      16.674546      1823.2695      0             -14.962388      174.01986      138.44929      3.4186853      0             -36.953593      0             -2375.4109     -2096.4766      1488.77        2435.3521    
        75   15             1505.8821      9.0596948      19.704311      17.353918     -2180.9994      1843.2577     -337.7417       156.74396      732.22112      917.45824      16.824869      1823.2482      0             -14.949597      171.63706      139.08393      3.4052189      0             -37.040388      0             -2374.3324     -2097.2466      1485.5065      2432.6324    
        76   15.2           1507.7722      9.0622709      19.709914      17.358853     -2183.4766      1842.3828     -341.09383      154.18564      733.90575      917.6367       16.968433      1822.6965      0             -14.936851      169.08487      139.71465      3.3892853      0             -37.123005      0             -2373.2557     -2098.1899      1481.6027      2429.9174    
        77   15.4           1510.4657      9.0648406      19.715503      17.363775     -2186.0463      1841.5059     -344.54041      151.50944      735.37871      917.74543      17.105226      1821.7388      0             -14.924152      166.38386      140.33859      3.3709498      0             -37.201349      0             -2372.1811     -2099.289       1477.1984      2427.2072    
        78   15.6           1513.7318      9.0674035      19.721077      17.368684     -2188.7016      1840.6283     -348.07333      148.84168      736.64235      917.78511      17.235239      1820.5044      0             -14.911501      163.55705      140.95278      3.3502867      0             -37.275346      0             -2371.1092     -2100.5244      1472.4311      2424.4941    
        79   15.8           1517.346       9.0699596      19.726637      17.37358      -2191.4333      1839.7513     -351.68193      146.30417      737.70185      917.75649      17.358469      1819.121       0             -14.898897      160.62765      141.55415      3.3273779      0             -37.344936      0             -2370.041      -2101.8767      1467.439       2421.7752    
        80   16             1521.1027      9.0725087      19.732181      17.378463     -2194.2406      1838.8767     -355.36384      144.00837      738.56489      917.66036      17.474914      1817.7085      0             -14.886342      157.61659      142.1395       3.3023115      0             -37.410062      0             -2368.9774     -2103.3291      1462.3447      2419.0437    
        81   16.2           1524.8273      9.0750509      19.73771       17.383333     -2197.1187      1838.0062     -359.11249      142.05009      739.24146      917.49759      17.584571      1816.3737      0             -14.873836      154.5402       142.70554      3.2751803      0             -37.470754      0             -2367.9202     -2104.87        1457.2612      2416.3028    
        82   16.4           1528.3855      9.077586       19.743224      17.388189     -2200.0896      1837.1419     -362.94772      140.50522      739.74347      917.26907      17.687439      1815.2052      0             -14.861377      151.40806      143.24892      3.2460798      0             -37.526853      0             -2366.8711     -2106.4949      1452.2575      2413.5369    
        83   16.6           1531.6904      9.0801144      19.748723      17.393032     -2203.1605      1836.2859     -366.87461      139.42659      740.08445      916.97574      17.783515      1814.2703      0             -14.848966      148.2213       143.76618      3.2151063      0             -37.578349      0             -2365.8325     -2108.2082      1447.3957      2410.7538    
        84   16.8           1534.7068      9.082636       19.754207      17.397862     -2206.3663      1835.4407     -370.92557      138.84205      740.27913      916.61858      17.872792      1813.6125      0             -14.836602      144.97129      144.25382      3.1823551      0             -37.625167      0             -2364.807      -2110.0247      1442.687       2407.9422    
        85   17             1537.4522      9.085151       19.759677      17.40268      -2209.735       1834.6091     -375.12592      138.75388      740.34308      916.1986       17.955265      1813.2508      0             -14.824284      141.63881      144.70831      3.1479183      0             -37.667236      0             -2363.7976     -2111.9698      1438.1249      2405.1069    
        86   17.2           1539.996       9.0876597      19.765134      17.407485     -2213.3024      1833.7937     -379.50869      139.1395       740.29234      915.71687      18.030923      1813.1796      0             -14.81201       138.19364      145.1262       3.1118832      0             -37.704384      0             -2362.8079     -2114.0806      1433.6709      2402.2529    
        87   17.4           1542.4554      9.0901624      19.770577      17.412279     -2217.1212      1832.9977     -384.1235       139.95333      740.14305      915.17451      18.099759      1813.3706      0             -14.79978       134.59471      145.50414      3.0743299      0             -37.736481      0             -2361.8413     -2116.4046      1429.2471      2399.3759    
        88   17.6           1544.9897      9.0926593      19.776007      17.417062     -2221.2583      1832.2241     -389.03416      141.12976      739.91109      914.57268      18.16176       1813.7753      0             -14.787591      130.79077      145.83901      3.0353304      0             -37.763363      0             -2360.9018     -2119           1424.7411      2396.4638    
        89   17.8           1547.7927      9.0951507      19.781426      17.421834     -2225.7683      1831.476      -394.29226      142.58702      739.61173      913.91264      18.216921      1814.3283      0             -14.775442      126.72176      146.12799      2.9949467      0             -37.78477       0             -2359.9933     -2121.9334      1420.0361      2393.5217    
        90   18             1551.0826      9.0976372      19.786834      17.426597     -2230.7147      1830.7564     -399.95826      144.23168      739.2594       913.19571      18.265236      1814.952       0             -14.763331      122.32098      146.3687       2.95323        0             -37.80048       0             -2359.1201     -2125.2776      1414.9938      2390.5486    
        91   18.2           1555.0903      9.1001189      19.792232      17.431351     -2236.1603      1830.0683     -406.09196      145.9637       738.86739      912.42333      18.306708      1815.5611      0             -14.751255      117.51829      146.55933      2.9102201      0             -37.81022       0             -2358.2859     -2129.1082      1409.4692      2387.5446    
        92   18.4           1560.0453      9.1025965      19.79762       17.436097     -2242.1766      1829.4145     -412.76208      147.6816       738.44766      911.59703      18.341345      1816.0676      0             -14.739213      112.24443      146.6987       2.8659445      0             -37.813697      0             -2357.4945     -2133.4991      1403.3055      2384.4975    
        93   18.6           1566.1599      9.1050704      19.803001      17.440835     -2248.8078      1828.7974     -420.01038      149.28773      738.01073      910.71846      18.36917       1816.3861      0             -14.727203      106.43669      146.78639      2.8204188      0             -37.810603      0             -2356.7493     -2138.5164      1396.3757      2381.4134    
        94   18.8           1573.6109      9.107541       19.808374      17.445568     -2256.1041      1828.2192     -427.88492      150.69323      737.56554      909.7894       18.390215      1816.4384      0             -14.71522       100.04616      146.82275      2.7736471      0             -37.800596      0             -2356.0534     -2144.2114      1388.5535      2378.2775    
        95   19             1582.5192      9.110009       19.813742      17.450295     -2264.0715      1827.6817     -436.38983      151.82249      737.11945      908.81177      18.404532      1816.1582      0             -14.703264      93.046719      146.80892      2.725622       0             -37.78343       0             -2355.4085     -2150.6107      1379.7684      2375.0953    
        96   19.2           1592.9265      9.1124748      19.819105      17.455019     -2272.7021      1827.186      -445.51611      152.61701      736.67825      907.78763      18.412189      1815.4951      0             -14.691331      85.446315      146.74677      2.6763264      0             -37.758795      0             -2354.8163     -2157.7057      1369.979       2371.8516    
        97   19.4           1604.769       9.1149391      19.824465      17.459739     -2281.9186      1826.7329     -455.18568      153.03833      736.2462       906.7192       18.41328       1814.417       0             -14.679419      77.300928      146.63873      2.6257338      0             -37.726446      0             -2354.2774     -2165.4385      1359.2313      2368.5523    
        98   19.6           1617.8467      9.1174025      19.829822      17.464458     -2291.6002      1826.3227     -465.27747      153.07003      735.82613      905.60881      18.40792       1812.9129      0             -14.667524      68.732125      146.48755      2.5738103      0             -37.686192      0             -2353.7912     -2173.6839      1347.6354      2365.1816    
        99   19.8           1631.7878      9.1198657      19.83518       17.469176     -2301.5298      1825.9548     -475.57499      152.7186       735.41961      904.45896      18.396254      1810.9934      0             -14.655642      59.948915      146.296        2.5205156      0             -37.637909      0             -2353.356      -2182.2284      1335.4184      2361.7329    
       100   20             1646.0088      9.1223292      19.840538      17.473895     -2311.3648      1825.6284     -485.73635      152.01317      735.02705      903.27227      18.378455      1808.6909      0             -14.643772      51.274003      146.06633      2.4658051      0             -37.581558      0             -2352.9688     -2190.7442      1322.9546      2358.2134    
WARNING: Bond/angle/dihedral extent > half of periodic box length (src/domain.cpp:1174)
Loop time of 6.27026 on 1 procs for 100 steps with 212 atoms

Performance: 0.276 ns/day, 87.087 hours/ns, 15.948 timesteps/s, 3.381 katom-step/s
98.4% CPU use with 1 MPI tasks x 1 OpenMP threads

MPI task timing breakdown:
Section |  min time  |  avg time  |  max time  |%varavg| %total
---------------------------------------------------------------
Pair    | 5.8304     | 5.8304     | 5.8304     |   0.0 | 92.99
Bond    | 0.011069   | 0.011069   | 0.011069   |   0.0 |  0.18
Neigh   | 0.074475   | 0.074475   | 0.074475   |   0.0 |  1.19
Comm    | 0.0034207  | 0.0034207  | 0.0034207  |   0.0 |  0.05
Output  | 0.088576   | 0.088576   | 0.088576   |   0.0 |  1.41
Modify  | 0.26134    | 0.26134    | 0.26134    |   0.0 |  4.17
Other   |            | 0.0009762  |            |       |  0.02

Nlocal:            212 ave         212 max         212 min
Histogram: 1 0 0 0 0 0 0 0 0 0
Nghost:           3262 ave        3262 max        3262 min
Histogram: 1 0 0 0 0 0 0 0 0 0
Neighs:          39868 ave       39868 max       39868 min
Histogram: 1 0 0 0 0 0 0 0 0 0

Total # of neighbors = 39868
Ave neighs/atom = 188.0566
Ave special neighs/atom = 14.075472
Neighbor list builds = 20
Dangerous builds = 0

write_data      final.data nocoeff
System init for write_data ...
Generated 0 of 45 mixed pair_coeff terms from geometric mixing rule
write_restart   restart.inter
System init for write_restart ...
Generated 0 of 45 mixed pair_coeff terms from geometric mixing rule

[MBX] Total MBX fix/pair time= 6.374926 seconds
[MBX] Timing Summary
[MBX] kernel                      tmin          tavg          tmax         count   %total
[MBX] -----------------------------------------------------------------------------------
[MBX] INIT                :      0.025955      0.025955      0.025955        21     0.41%
[MBX] UPDATE_XYZ          :      0.015266      0.015266      0.015266       101     0.24%
[MBX] ACCUMULATE_F        :      0.034407      0.034407      0.034407       505     0.54%
[MBX] E1B                 :      0.011374      0.011374      0.011374       101     0.18%
[MBX] E2B_LOCAL           :             0             0             0         0     0.00%
[MBX] E2B_GHOST           :       0.25301       0.25301       0.25301       101     3.97%
[MBX] E3B_LOCAL           :             0             0             0         0     0.00%
[MBX] E3B_GHOST           :       0.12819       0.12819       0.12819       101     2.01%
[MBX] E4B_LOCAL           :             0             0             0         0     0.00%
[MBX] E4B_GHOST           :     0.0089873     0.0089873     0.0089873       101     0.14%
[MBX] DISP                :      0.040658      0.040658      0.040658       101     0.64%
[MBX] DISP_PME            :       0.81889       0.81889       0.81889       101    12.85%
[MBX] BUCK                :      0.042812      0.042812      0.042812       202     0.67%
[MBX] ELE                 :         4.465         4.465         4.465       101    70.04%
[MBX] INIT_FULL           :             0             0             0         0     0.00%
[MBX] UPDATE_XYZ_FULL     :             0             0             0         0     0.00%
[MBX] ACCUMULATE_F_FULL   :             0             0             0         0     0.00%
[MBX] INIT_LOCAL          :       0.19698       0.19698       0.19698        21     3.09%
[MBX] UPDATE_XYZ_LOCAL    :     0.0063487     0.0063487     0.0063487       101     0.10%
[MBX] ACCUMULATE_F_LOCAL  :     0.0098061     0.0098061     0.0098061       404     0.15%


[MBX] Electrostatics Summary
[MBX] kernel                      tmin          tavg          tmax         count   %total
[MBX] -----------------------------------------------------------------------------------
[MBX] ELE_PERMDIP_REAL    :       0.17717       0.17717       0.17717       101     2.78%
[MBX] ELE_PERMDIP_PME     :       0.27081       0.27081       0.27081       101     4.25%
[MBX] ELE_DIPFIELD_REAL   :       0.63753       0.63753       0.63753       810    10.00%
[MBX] ELE_DIPFIELD_PME    :        1.7626        1.7626        1.7626       810    27.65%
[MBX] ELE_GRAD_REAL       :       0.18425       0.18425       0.18425       101     2.89%
[MBX] ELE_GRAD_PME        :       0.90369       0.90369       0.90369       101    14.18%
[MBX] ELE_GRAD_FIN        :     0.0018976     0.0018976     0.0018976       101     0.03%
[MBX] ELE_PME_SETUP       :    3.4107e-05    3.4107e-05    3.4107e-05      1012     0.00%
[MBX] ELE_PME_C           :       0.54598       0.54598       0.54598       202     8.56%
[MBX] ELE_PME_D           :        2.0714        2.0714        2.0714       911    32.49%
[MBX] ELE_PME_E           :       0.31703       0.31703       0.31703       101     4.97%
[MBX] DISP_PME_SETUP      :       0.40968       0.40968       0.40968       101     6.43%
[MBX] DISP_PME_E          :        0.3935        0.3935        0.3935       101     6.17%
[MBX] ELE_COMM_REVFOR     :     0.0019852     0.0019852     0.0019852      1012     0.03%
[MBX] ELE_COMM_REVSET     :    4.7901e-05    4.7901e-05    4.7901e-05        21     0.00%
[MBX] ELE_COMM_REV        :    0.00016027    0.00016027    0.00016027       890     0.00%
[MBX] ELE_COMM_FORSET     :     0.0001437     0.0001437     0.0001437        21     0.00%
[MBX] ELE_COMM_FOR        :    0.00044526    0.00044526    0.00044526       890     0.01%
Total wall time: 0:00:06
