ITEM: TIMESTEP
0
ITEM: NUMBER OF ATOMS
212
ITEM: BOX BOUNDS xy xz yz pp pp pp
-8.2834166000000007e+00 8.9138002000000007e+00 0.0000000000000000e+00
0.0000000000000000e+00 1.9386999100000001e+01 -8.2834166000000007e+00
0.0000000000000000e+00 1.7062815100000002e+01 0.0000000000000000e+00
ITEM: ATOMS id type x y z
1 1 -0.260404 0.546303 3.74276
2 1 5.0325 9.1472 4.78864
3 1 7.10335 5.39305 0.522937
4 1 -2.33126 4.30045 8.00847
5 2 -1.23386 8.59059 3.1504
6 2 6.00595 1.10291 5.38101
7 2 8.07681 3.74384 1.11531
8 2 -3.30471 5.94965 7.4161
9 2 6.40669 8.23356 3.50437
10 2 -1.63459 1.45994 5.02704
11 2 0.43626 3.38681 0.761336
12 2 4.33583 6.30669 7.77007
13 2 7.0941 6.85486 1.9124
14 2 -2.322 2.83864 6.61901
15 2 -0.25115 2.00811 2.3533
16 2 5.02324 7.68539 6.1781
17 5 1.09935 0.742057 5.22719
18 5 3.67274 8.95144 3.30421
19 5 1.60189 5.58881 7.56992
20 5 3.17021 4.10469 0.96149
21 5 3.23852 0.315743 5.774
22 5 1.53357 9.37776 2.7574
23 5 -0.537285 5.16249 7.02311
24 5 5.30938 4.53101 1.5083
25 3 -0.848651 7.75052 2.19032
26 3 5.62074 1.94297 6.34108
27 3 7.6916 2.90378 2.07538
28 3 -2.91951 6.78972 6.45603
29 3 6.0844 7.18878 2.74868
30 3 -1.31231 2.50472 5.78272
31 3 0.758542 2.34203 1.51702
32 3 4.01355 7.35147 7.01439
33 6 2.26632 0.303975 4.97503
34 6 2.50578 9.38952 3.55638
35 6 0.434923 5.15072 7.82208
36 6 4.33717 4.54277 0.709327
37 4 0.121541 7.80365 1.71084
38 4 4.65055 1.88985 6.82057
39 4 6.72141 2.95689 2.55487
40 4 -1.94931 6.7366 5.97654
41 4 5.13202 6.67611 2.79427
42 4 -0.359926 3.01739 5.73713
43 4 1.71093 1.82936 1.47143
44 4 3.06116 7.86414 7.05998
45 1 -4.40211 0.546303 12.2742
46 1 0.890787 9.1472 13.32
47 1 2.96164 5.39305 9.05434
48 1 -6.47297 4.30045 16.5399
49 2 -5.37557 8.59059 11.6818
50 2 1.86424 1.10291 13.9124
51 2 3.9351 3.74384 9.64671
52 2 -7.44642 5.94965 15.9475
53 2 2.26498 8.23356 12.0358
54 2 -5.7763 1.45994 13.5584
55 2 -3.70545 3.38681 9.29274
56 2 0.194124 6.30669 16.3015
57 2 2.95239 6.85486 10.4438
58 2 -6.46371 2.83864 15.1504
59 2 -4.39286 2.00811 10.8847
60 2 0.881535 7.68539 14.7095
61 5 -3.04236 0.742057 13.7586
62 5 -0.468969 8.95144 11.8356
63 5 -2.53982 5.58881 16.1013
64 5 -0.971501 4.10469 9.4929
65 5 -0.903185 0.315743 14.3054
66 5 -2.60814 9.37776 11.2888
67 5 -4.67899 5.16249 15.5545
68 5 1.16767 4.53101 10.0397
69 3 -4.99036 7.75052 10.7217
70 3 1.47903 1.94297 14.8725
71 3 3.54989 2.90378 10.6068
72 3 -7.06121 6.78972 14.9874
73 3 1.9427 7.18878 11.2801
74 3 -5.45402 2.50472 14.3141
75 3 -3.38317 2.34203 10.0484
76 3 -0.128158 7.35147 15.5458
77 6 -1.87539 0.303975 13.5064
78 6 -1.63593 9.38952 12.0878
79 6 -3.70679 5.15072 16.3535
80 6 0.195461 4.54277 9.24073
81 4 -4.02017 7.80365 10.2422
82 4 0.508843 1.88985 15.352
83 4 2.5797 2.95689 11.0863
84 4 -6.09102 6.7366 14.5079
85 4 0.99031 6.67611 11.3257
86 4 -4.50163 3.01739 14.2685
87 4 -2.43078 1.82936 10.0028
88 4 -1.08054 7.86414 15.5914
89 1 -0.260404 10.2398 3.74276
90 1 5.0325 18.8407 4.78864
91 1 7.10335 15.0866 0.522937
92 1 -2.33126 13.9939 8.00847
93 2 -1.23386 18.2841 3.1504
94 2 6.00595 10.7964 5.38101
95 2 8.07681 13.4373 1.11531
96 2 -3.30471 15.6432 7.4161
97 2 6.40669 17.9271 3.50437
98 2 -1.63459 11.1534 5.02704
99 2 0.43626 13.0803 0.761336
100 2 4.33583 16.0002 7.77007
101 2 7.0941 16.5484 1.9124
102 2 -2.322 12.5321 6.61901
103 2 -0.25115 11.7016 2.3533
104 2 5.02324 17.3789 6.1781
105 5 1.09935 10.4356 5.22719
106 5 3.67274 18.6449 3.30421
107 5 1.60189 15.2823 7.56992
108 5 3.17021 13.7982 0.96149
109 5 3.23852 10.0092 5.774
110 5 1.53357 19.0713 2.7574
111 5 -0.537285 14.856 7.02311
112 5 5.30938 14.2245 1.5083
113 3 -0.848651 17.444 2.19032
114 3 5.62074 11.6365 6.34108
115 3 7.6916 12.5973 2.07538
116 3 -2.91951 16.4832 6.45603
117 3 6.0844 16.8823 2.74868
118 3 -1.31231 12.1982 5.78272
119 3 0.758542 12.0355 1.51702
120 3 4.01355 17.045 7.01439
121 6 2.26632 9.99747 4.97503
122 6 2.50578 19.083 3.55638
123 6 0.434923 14.8442 7.82208
124 6 4.33717 14.2363 0.709327
125 4 0.121541 17.4971 1.71084
126 4 4.65055 11.5834 6.82057
127 4 6.72141 12.6504 2.55487
128 4 -1.94931 16.4301 5.97654
129 4 5.13202 16.3696 2.79427
130 4 -0.359926 12.7109 5.73713
131 4 1.71093 11.5229 1.47143
132 4 3.06116 17.5576 7.05998
133 1 -4.40211 10.2398 12.2742
134 1 0.890787 18.8407 13.32
135 1 2.96164 15.0866 9.05434
136 1 -6.47297 13.9939 16.5399
137 2 -5.37557 18.2841 11.6818
138 2 1.86424 10.7964 13.9124
139 2 3.9351 13.4373 9.64671
140 2 -7.44642 15.6432 15.9475
141 2 2.26498 17.9271 12.0358
142 2 -5.7763 11.1534 13.5584
143 2 -3.70545 13.0803 9.29274
144 2 0.194124 16.0002 16.3015
145 2 2.95239 16.5484 10.4438
146 2 -6.46371 12.5321 15.1504
147 2 -4.39286 11.7016 10.8847
148 2 0.881535 17.3789 14.7095
149 5 -3.04236 10.4356 13.7586
150 5 -0.468969 18.6449 11.8356
151 5 -2.53982 15.2823 16.1013
152 5 -0.971501 13.7982 9.4929
153 5 -0.903185 10.0092 14.3054
154 5 -2.60814 19.0713 11.2888
155 5 -4.67899 14.856 15.5545
156 5 1.16767 14.2245 10.0397
157 3 -4.99036 17.444 10.7217
158 3 1.47903 11.6365 14.8725
159 3 3.54989 12.5973 10.6068
160 3 -7.06121 16.4832 14.9874
161 3 1.9427 16.8823 11.2801
162 3 -5.45402 12.1982 14.3141
163 3 -3.38317 12.0355 10.0484
164 3 -0.128158 17.045 15.5458
165 6 -1.87539 9.99747 13.5064
166 6 -1.63593 19.083 12.0878
167 6 -3.70679 14.8442 16.3535
168 6 0.195461 14.2363 9.24073
169 4 -4.02017 17.4971 10.2422
170 4 0.508843 11.5834 15.352
171 4 2.5797 12.6504 11.0863
172 4 -6.09102 16.4301 14.5079
173 4 0.99031 16.3696 11.3257
174 4 -4.50163 12.7109 14.2685
175 4 -2.43078 11.5229 10.0028
176 4 -1.08054 17.5576 15.5914
177 7 -1.63665 13.3676 14.3448
178 8 -2.11849 12.9882 15.0947
179 8 -1.94049 12.939 13.5313
180 7 -2.01116 15.5976 12.4615
181 8 -1.98262 16.5167 12.7664
182 8 -1.15518 15.183 12.6436
183 7 -3.57022 4.95277 12.9251
184 8 -4.52309 5.08719 12.8136
185 8 -3.23009 5.62699 13.5313
186 7 -1.79637 5.68589 11.281
187 8 -1.19254 5.61171 12.0349
188 8 -1.42385 6.31408 10.6451
189 7 3.00718 4.84796 4.50891
190 8 3.08594 5.80574 4.38673
191 8 2.13033 4.56741 4.20855
192 7 4.62829 2.86833 4.20529
193 8 4.30801 3.04005 3.30729
194 8 5.20583 3.5977 4.47405
195 9 3.01435 9.56695 9.89188
196 10 3.33837 8.73106 9.17161
197 10 2.69032 10.4028 10.6121
198 9 0.108838 11.6551 10.6022
199 10 -0.581653 11.3361 11.4647
200 10 0.79933 11.9741 9.73964
201 9 -1.68302 6.75179 9.99367
202 10 -1.58338 6.25668 8.9605
203 10 -1.78266 7.24689 11.0268
204 9 1.81522 10.5473 7.93355
205 10 1.07634 9.81638 7.44134
206 10 2.5541 11.2783 8.42577
207 9 -2.60981 8.98842 7.21947
208 10 -1.9584 9.27791 6.31705
209 10 -3.26122 8.69894 8.12189
210 9 0.165108 7.74658 7.02495
211 10 0.951353 7.48538 6.22739
212 10 -0.621137 8.00778 7.8225
ITEM: TIMESTEP
1
ITEM: NUMBER OF ATOMS
212
ITEM: BOX BOUNDS xy xz yz pp pp pp
-8.2834875560650971e+00 8.9138250223102347e+00 0.0000000000000000e+00
-5.3987086921836180e-05 1.9387053087086922e+01 -8.2834627337548614e+00
-4.7514918485092039e-05 1.7062862614918487e+01 0.0000000000000000e+00
ITEM: ATOMS id type x y z
1 1 -0.259565 0.545759 3.7423
2 1 5.03144 9.14803 4.78857
3 1 7.10235 5.39327 0.521767
4 1 -2.33092 4.30055 8.00914
5 2 -1.23386 8.59068 3.15019
6 2 6.00658 1.10425 5.38307
7 2 8.07798 3.742 1.11527
8 2 -3.3047 5.95074 7.41566
9 2 6.4096 8.23326 3.50619
10 2 -1.63066 1.46202 5.02385
11 2 0.435409 3.38758 0.761268
12 2 4.33757 6.30524 7.77355
13 2 7.09357 6.85591 1.91535
14 2 -2.32091 2.83688 6.61901
15 2 -0.248643 2.00762 2.35282
16 2 5.0209 7.68655 6.17681
17 5 1.0978 0.743353 5.22742
18 5 3.67509 8.95126 3.30415
19 5 1.60131 5.59079 7.56952
20 5 3.16838 4.10457 0.963981
21 5 3.23698 0.315819 5.77295
22 5 1.53378 9.37841 2.75748
23 5 -0.533287 5.16061 7.02655
24 5 5.30747 4.53169 1.50835
25 3 -0.848916 7.74966 2.1914
26 3 5.61921 1.9416 6.34254
27 3 7.69086 2.9036 2.07666
28 3 -2.91984 6.79124 6.45439
29 3 6.08643 7.18632 2.75097
30 3 -1.31533 2.50377 5.7832
31 3 0.758904 2.34282 1.51705
32 3 4.01191 7.35475 7.01377
33 6 2.26831 0.305524 4.97826
34 6 2.50521 9.38844 3.55628
35 6 0.432752 5.15223 7.82059
36 6 4.33743 4.54165 0.710668
37 4 0.129717 7.80177 1.71419
38 4 4.64672 1.88479 6.81946
39 4 6.72083 2.96199 2.54693
40 4 -1.9488 6.74162 5.98491
41 4 5.13229 6.67988 2.79476
42 4 -0.358863 3.00495 5.73573
43 4 1.708 1.83155 1.47292
44 4 3.05526 7.87038 7.06365
45 1 -4.4014 0.546294 12.2745
46 1 0.890986 9.14748 13.3193
47 1 2.96203 5.39145 9.05354
48 1 -6.47273 4.30045 16.5399
49 2 -5.37657 8.59062 11.6834
50 2 1.86108 1.10293 13.9093
51 2 3.93502 3.74529 9.64925
52 2 -7.44533 5.95157 15.9475
53 2 2.26292 8.23298 12.0324
54 2 -5.77612 1.45633 13.5599
55 2 -3.70255 3.38587 9.29265
56 2 0.194596 6.30832 16.3038
57 2 2.95012 6.85554 10.4425
58 2 -6.4635 2.84061 15.1527
59 2 -4.39398 2.00474 10.884
60 2 0.880562 7.68291 14.7077
61 5 -3.04491 0.740801 13.7583
62 5 -0.467329 8.95517 11.8382
63 5 -2.54061 5.58979 16.1034
64 5 -0.971169 4.10363 9.49309
65 5 -0.905636 0.31609 14.3048
66 5 -2.60808 9.37847 11.2877
67 5 -4.67839 5.16125 15.5572
68 5 1.16672 4.53202 10.0399
69 3 -4.98733 7.7493 10.7239
70 3 1.47881 1.94245 14.8704
71 3 3.54977 2.90383 10.6052
72 3 -7.06084 6.79152 14.9889
73 3 1.94152 7.18802 11.2786
74 3 -5.4553 2.50474 14.3135
75 3 -3.3819 2.3441 10.0451
76 3 -0.129547 7.35216 15.5446
77 6 -1.87866 0.304973 13.5054
78 6 -1.63703 9.38791 12.0897
79 6 -3.7078 5.15435 16.3508
80 6 0.19667 4.54286 9.24185
81 4 -4.02926 7.80108 10.2397
82 4 0.510633 1.89096 15.3523
83 4 2.57814 2.96019 11.0933
84 4 -6.09509 6.73829 14.499
85 4 0.989878 6.67627 11.3197
86 4 -4.50658 3.00849 14.2707
87 4 -2.4315 1.82337 10.0072
88 4 -1.07558 7.85674 15.5933
89 1 -0.260645 10.2393 3.74315
90 1 5.03258 18.8408 4.7878
91 1 7.10306 15.0857 0.523273
92 1 -2.33069 13.9939 8.009
93 2 -1.23253 18.2843 3.1505
94 2 6.00563 10.7987 5.38101
95 2 8.07784 13.4355 1.11318
96 2 -3.30535 15.6444 7.41256
97 2 6.40675 17.9295 3.50315
98 2 -1.63376 11.1549 5.02575
99 2 0.435952 13.0795 0.760608
100 2 4.33647 16.004 7.77084
101 2 7.09491 16.5489 1.91047
102 2 -2.32018 12.5312 6.61757
103 2 -0.253295 11.7024 2.35418
104 2 5.02176 17.3773 6.17908
105 5 1.10027 10.4359 5.22699
106 5 3.67206 18.648 3.30414
107 5 1.60269 15.283 7.56996
108 5 3.17145 13.7994 0.961393
109 5 3.23673 10.0098 5.77662
110 5 1.53249 19.0708 2.75593
111 5 -0.537988 14.856 7.02229
112 5 5.3085 14.2253 1.50853
113 3 -0.848503 17.4451 2.1911
114 3 5.62183 11.6366 6.34101
115 3 7.69149 12.5974 2.07565
116 3 -2.9207 16.4808 6.45492
117 3 6.08463 16.882 2.75069
118 3 -1.3109 12.1979 5.78377
119 3 0.755341 12.0343 1.51883
120 3 4.0136 17.0459 7.01119
121 6 2.2672 9.99936 4.97537
122 6 2.50853 19.0834 3.55366
123 6 0.43293 14.8451 7.8244
124 6 4.33613 14.2366 0.710101
125 4 0.123638 17.4883 1.71197
126 4 4.65229 11.5836 6.80824
127 4 6.72045 12.642 2.56172
128 4 -1.95682 16.4216 5.98605
129 4 5.13886 16.361 2.78661
130 4 -0.347822 12.7209 5.73599
131 4 1.71176 11.5159 1.47043
132 4 3.05852 17.5623 7.06246
133 1 -4.40321 10.2391 12.2735
134 1 0.890452 18.8403 13.3207
135 1 2.96049 15.0848 9.05478
136 1 -6.47349 13.9945 16.5394
137 2 -5.37939 18.2845 11.6836
138 2 1.86563 10.7959 13.9122
139 2 3.9358 13.4347 9.64639
140 2 -7.4446 15.6441 15.9448
141 2 2.26223 17.9295 12.0368
142 2 -5.77614 11.1522 13.5583
143 2 -3.70808 13.0798 9.29282
144 2 0.194852 16.0001 16.303
145 2 2.95383 16.5481 10.4427
146 2 -6.46458 12.5309 15.1486
147 2 -4.39218 11.7042 10.8855
148 2 0.878628 17.3797 14.711
149 5 -3.04125 10.434 13.7584
150 5 -0.466558 18.6462 11.8351
151 5 -2.54144 15.2834 16.102
152 5 -0.970474 13.7981 9.49178
153 5 -0.90327 10.0101 14.3046
154 5 -2.6083 19.0698 11.2888
155 5 -4.6761 14.8581 15.5558
156 5 1.1689 14.2223 10.04
157 3 -4.9868 17.4412 10.7227
158 3 1.48098 11.6359 14.8733
159 3 3.55252 12.5958 10.6065
160 3 -7.06376 16.4814 14.9897
161 3 1.94155 16.8826 11.2784
162 3 -5.45562 12.1981 14.3163
163 3 -3.38384 12.0359 10.0475
164 3 -0.125787 17.0439 15.5475
165 6 -1.87538 9.99474 13.5054
166 6 -1.63587 19.0813 12.0889
167 6 -3.70432 14.8434 16.3526
168 6 0.198816 14.2392 9.23962
169 4 -4.02142 17.4889 10.2394
170 4 0.512447 11.5889 15.3606
171 4 2.58008 12.6553 11.0975
172 4 -6.09682 16.4332 14.5132
173 4 0.991563 16.3694 11.3302
174 4 -4.49686 12.7118 14.2628
175 4 -2.43829 11.5245 10.0027
176 4 -1.08373 17.5622 15.5876
177 7 -1.63441 13.3676 14.3451
178 8 -2.11958 12.9886 15.0984
179 8 -1.94939 12.944 13.5336
180 7 -2.01063 15.5969 12.4624
181 8 -1.98777 16.5212 12.7669
182 8 -1.15634 15.1861 12.6342
183 7 -3.57078 4.95138 12.9239
184 8 -4.52347 5.08647 12.8181
185 8 -3.2315 5.63623 13.5193
186 7 -1.79538 5.6861 11.2818
187 8 -1.1941 5.61254 12.0424
188 8 -1.42078 6.30902 10.6457
189 7 3.0059 4.84934 4.50799
190 8 3.07122 5.80542 4.38365
191 8 2.13383 4.57708 4.19902
192 7 4.62982 2.86834 4.20515
193 8 4.31186 3.0262 3.30577
194 8 5.20699 3.59298 4.4749
195 9 3.01696 9.56965 9.89379
196 10 3.33756 8.72872 9.1704
197 10 2.69068 10.4024 10.6133
198 9 0.107107 11.6567 10.6015
199 10 -0.581181 11.3352 11.4657
200 10 0.799737 11.9722 9.73826
201 9 -1.68245 6.75041 9.99626
202 10 -1.58147 6.25947 8.9577
203 10 -1.78506 7.24759 11.0253
204 9 1.81367 10.5499 7.93105
205 10 1.07835 9.81687 7.43942
206 10 2.55576 11.277 8.42527
207 9 -2.61116 8.99061 7.21909
208 10 -1.95785 9.27705 6.31916
209 10 -3.2606 8.69823 8.12246
210 9 0.164915 7.75124 7.02422
211 10 0.951969 7.48473 6.22705
212 10 -0.621556 8.00734 7.82468
ITEM: TIMESTEP
2
ITEM: NUMBER OF ATOMS
212
ITEM: BOX BOUNDS xy xz yz pp pp pp
-8.2836996396273683e+00 8.9138992147555385e+00 0.0000000000000000e+00
-2.1535135783068426e-04 1.9387214451357831e+01 -8.2836006248718306e+00
-1.8953425340306751e-04 1.7063004634253403e+01 0.0000000000000000e+00
ITEM: ATOMS id type x y z
1 1 -0.258779 0.545113 3.74179
2 1 5.03038 9.14886 4.78845
3 1 7.10138 5.39343 0.520509
4 1 -2.33066 4.30059 8.0098
5 2 -1.23391 8.5908 3.14993
6 2 6.00727 1.1054 5.38512
7 2 8.07919 3.74014 1.11514
8 2 -3.30486 5.95171 7.41512
9 2 6.41251 8.23296 3.50797
10 2 -1.62677 1.46398 5.0206
11 2 0.434545 3.38829 0.761094
12 2 4.33926 6.30372 7.77702
13 2 7.09308 6.85688 1.91818
14 2 -2.31989 2.8351 6.61903
15 2 -0.246195 2.00699 2.3523
16 2 5.01837 7.68752 6.1752
17 5 1.09629 0.744525 5.22761
18 5 3.67736 8.9511 3.30403
19 5 1.60065 5.59268 7.56913
20 5 3.16661 4.1044 0.966388
21 5 3.23538 0.315781 5.77183
22 5 1.53399 9.37907 2.75753
23 5 -0.5293 5.15864 7.02997
24 5 5.30553 4.53233 1.50828
25 3 -0.849247 7.74877 2.1924
26 3 5.61772 1.94012 6.34402
27 3 7.69017 2.90335 2.07786
28 3 -2.9203 6.79263 6.45268
29 3 6.08849 7.18382 2.75319
30 3 -1.31842 2.50275 5.78366
31 3 0.759201 2.34352 1.51702
32 3 4.01021 7.35793 7.01305
33 6 2.27024 0.306998 4.98149
34 6 2.50466 9.38732 3.55608
35 6 0.430621 5.15368 7.81905
36 6 4.33765 4.54043 0.711966
37 4 0.137763 7.79972 1.71744
38 4 4.64291 1.87979 6.81838
39 4 6.72025 2.96683 2.53902
40 4 -1.94836 6.74668 5.99312
41 4 5.13253 6.68358 2.79521
42 4 -0.357807 2.99248 5.73429
43 4 1.70511 1.83362 1.47428
44 4 3.04949 7.87654 7.06725
45 1 -4.40079 0.546183 12.2748
46 1 0.891145 9.14777 13.3185
47 1 2.9624 5.38979 9.05274
48 1 -6.47261 4.30039 16.5401
49 2 -5.37755 8.59042 11.6854
50 2 1.85789 1.10282 13.9062
51 2 3.93493 3.74671 9.65179
52 2 -7.44437 5.9534 15.9475
53 2 2.26081 8.23239 12.0292
54 2 -5.77603 1.45262 13.5614
55 2 -3.69972 3.38488 9.29255
56 2 0.194993 6.3099 16.3061
57 2 2.94782 6.856 10.4413
58 2 -6.46341 2.84255 15.1551
59 2 -4.39521 2.00124 10.8834
60 2 0.879552 7.68048 14.706
61 5 -3.04748 0.73942 13.7581
62 5 -0.465761 8.95892 11.8408
63 5 -2.54154 5.59071 16.1055
64 5 -0.970788 4.10243 9.49329
65 5 -0.908187 0.316326 14.3041
66 5 -2.60809 9.37926 11.2867
67 5 -4.67786 5.15995 15.5599
68 5 1.1657 4.53299 10.04
69 3 -4.98381 7.74698 10.7276
70 3 1.47857 1.94185 14.8684
71 3 3.54965 2.90379 10.6036
72 3 -7.0606 6.79329 14.9904
73 3 1.94034 7.18722 11.2772
74 3 -5.45672 2.50469 14.3129
75 3 -3.38074 2.34607 10.0418
76 3 -0.130957 7.35283 15.5435
77 6 -1.88203 0.305897 13.5044
78 6 -1.63824 9.3862 12.0917
79 6 -3.70887 5.15795 16.3482
80 6 0.197835 4.54281 9.24302
81 4 -4.03802 7.7981 10.2374
82 4 0.512374 1.89211 15.3528
83 4 2.57662 2.96327 11.1004
84 4 -6.09929 6.74007 14.4901
85 4 0.989363 6.67639 11.3137
86 4 -4.5115 2.99955 14.2728
87 4 -2.43226 1.81733 10.0115
88 4 -1.07081 7.84941 15.5954
89 1 -0.260939 10.2387 3.74348
90 1 5.03267 18.841 4.78693
91 1 7.10281 15.085 0.523519
92 1 -2.3302 13.9938 8.00952
93 2 -1.23126 18.2847 3.15055
94 2 6.00489 10.8017 5.38054
95 2 8.07891 13.4336 1.11095
96 2 -3.30606 15.6457 7.40903
97 2 6.4068 17.9321 3.5019
98 2 -1.63294 11.1565 5.02432
99 2 0.435629 13.0787 0.759776
100 2 4.33708 16.0078 7.77161
101 2 7.09575 16.5494 1.90843
102 2 -2.31844 12.5304 6.61615
103 2 -0.255495 11.7032 2.35501
104 2 5.02028 17.3759 6.18
105 5 1.10121 10.4363 5.22667
106 5 3.67131 18.6512 3.304
107 5 1.60339 15.2837 7.56999
108 5 3.17274 13.8007 0.961214
109 5 3.23489 10.0104 5.77916
110 5 1.53142 19.0704 2.75443
111 5 -0.538706 14.856 7.02149
112 5 5.30759 14.2262 1.50865
113 3 -0.848426 17.4462 2.1918
114 3 5.62293 11.6368 6.3409
115 3 7.69144 12.5975 2.07585
116 3 -2.922 16.4785 6.45379
117 3 6.0849 16.8817 2.75262
118 3 -1.30956 12.1976 5.78481
119 3 0.752085 12.033 1.52058
120 3 4.01367 17.0469 7.00796
121 6 2.26802 10.0013 4.97571
122 6 2.5113 19.0838 3.55085
123 6 0.430937 14.846 7.82666
124 6 4.33505 14.2369 0.710835
125 4 0.125672 17.4794 1.71298
126 4 4.65399 11.584 6.79598
127 4 6.71956 12.6336 2.56854
128 4 -1.96431 16.4134 5.9954
129 4 5.14563 16.3524 2.77894
130 4 -0.335878 12.731 5.73479
131 4 1.71254 11.5089 1.46933
132 4 3.05586 17.567 7.06496
133 1 -4.4044 10.2384 12.2729
134 1 0.890079 18.84 13.3215
135 1 2.95933 15.0831 9.05522
136 1 -6.47413 13.995 16.5391
137 2 -5.38332 18.2851 11.6855
138 2 1.86699 10.7954 13.912
139 2 3.93649 13.4322 9.64608
140 2 -7.44291 15.6451 15.9422
141 2 2.25942 17.932 12.038
142 2 -5.77605 11.1509 13.5581
143 2 -3.71076 13.0793 9.29288
144 2 0.195508 16.0001 16.3047
145 2 2.95525 16.5478 10.4415
146 2 -6.46557 12.5297 15.1469
147 2 -4.39143 11.7068 10.8864
148 2 0.875691 17.3806 14.7125
149 5 -3.04016 10.4324 13.7582
150 5 -0.464274 18.6476 11.8346
151 5 -2.5432 15.2846 16.1029
152 5 -0.969447 13.7981 9.49068
153 5 -0.903454 10.0109 14.3038
154 5 -2.6085 19.0685 11.2888
155 5 -4.67328 14.8602 15.5573
156 5 1.17006 14.2202 10.0402
157 3 -4.98337 17.4385 10.7238
158 3 1.48291 11.6354 14.8741
159 3 3.55521 12.5945 10.6062
160 3 -7.06645 16.4796 14.9921
161 3 1.9404 16.883 11.2767
162 3 -5.45734 12.198 14.3185
163 3 -3.38463 12.0362 10.0466
164 3 -0.123456 17.043 15.5492
165 6 -1.87548 9.99203 13.5044
166 6 -1.63583 19.0796 12.0901
167 6 -3.70191 14.8426 16.3518
168 6 0.202051 14.2423 9.23855
169 4 -4.02273 17.4805 10.2364
170 4 0.516018 11.5946 15.3693
171 4 2.58063 12.6603 11.1088
172 4 -6.10269 16.4365 14.5184
173 4 0.992726 16.3693 11.3347
174 4 -4.49224 12.7127 14.2571
175 4 -2.44588 11.5262 10.0024
176 4 -1.08696 17.5667 15.584
177 7 -1.63222 13.3677 14.3454
178 8 -2.12065 12.989 15.1018
179 8 -1.95839 12.949 13.5363
180 7 -2.01017 15.5963 12.4634
181 8 -1.99286 16.5254 12.7674
182 8 -1.15768 15.1893 12.6249
183 7 -3.57145 4.94993 12.9228
184 8 -4.52369 5.08576 12.8228
185 8 -3.23323 5.64528 13.5072
186 7 -1.79453 5.68569 11.2828
187 8 -1.19495 5.613 12.0505
188 8 -1.41498 6.29882 10.6497
189 7 3.0046 4.85067 4.50701
190 8 3.05629 5.80491 4.38054
191 8 2.13741 4.58683 4.18949
192 7 4.63131 2.86831 4.20489
193 8 4.31583 3.01247 3.30441
194 8 5.20793 3.58809 4.47554
195 9 3.01947 9.57253 9.89549
196 10 3.3363 8.72722 9.16793
197 10 2.69078 10.4019 10.6144
198 9 0.105329 11.6583 10.6009
199 10 -0.58071 11.3345 11.4668
200 10 0.800105 11.9702 9.73689
201 9 -1.68204 6.7494 9.99841
202 10 -1.57964 6.26232 8.95495
203 10 -1.78763 7.24873 11.0237
204 9 1.8121 10.5526 7.92851
205 10 1.08029 9.81734 7.43758
206 10 2.5574 11.2758 8.42473
207 9 -2.61245 8.99297 7.21884
208 10 -1.95697 9.27554 6.32166
209 10 -3.25999 8.69767 8.12324
210 9 0.164684 7.75587 7.02347
211 10 0.952535 7.48409 6.22663
212 10 -0.622017 8.00689 7.82688
ITEM: TIMESTEP
3
ITEM: NUMBER OF ATOMS
212
ITEM: BOX BOUNDS xy xz yz pp pp pp
-8.2840512178653150e+00 8.9140222061317154e+00 0.0000000000000000e+00
-4.8285047669516246e-04 1.9387481950476698e+01 -8.2838292117336003e+00
-4.2496460448937512e-04 1.7063240064604486e+01 0.0000000000000000e+00
ITEM: ATOMS id type x y z
1 1 -0.258045 0.544367 3.74122
2 1 5.02933 9.14969 4.78829
3 1 7.10044 5.39355 0.519163
4 1 -2.33047 4.30057 8.01046
5 2 -1.23402 8.59095 3.14962
6 2 6.00801 1.10637 5.38714
7 2 8.08042 3.73826 1.11491
8 2 -3.3052 5.95257 7.41449
9 2 6.4154 8.23266 3.50972
10 2 -1.62293 1.46582 5.01731
11 2 0.433672 3.38896 0.760816
12 2 4.34091 6.30214 7.7805
13 2 7.09262 6.85775 1.92091
14 2 -2.31896 2.8333 6.61907
15 2 -0.243811 2.00623 2.35175
16 2 5.01565 7.6883 6.17329
17 5 1.09481 0.745572 5.22777
18 5 3.67954 8.95096 3.30386
19 5 1.5999 5.59445 7.56876
20 5 3.1649 4.10421 0.968714
21 5 3.23375 0.315633 5.77066
22 5 1.53421 9.37973 2.75756
23 5 -0.525332 5.1566 7.03337
24 5 5.30356 4.53292 1.50809
25 3 -0.849638 7.74786 2.19334
26 3 5.61629 1.93855 6.34553
27 3 7.68955 2.90301 2.07898
28 3 -2.92088 6.79389 6.4509
29 3 6.09059 7.1813 2.75533
30 3 -1.32158 2.50165 5.78409
31 3 0.759433 2.34414 1.51692
32 3 4.00845 7.36102 7.01224
33 6 2.27208 0.308397 4.98471
34 6 2.50414 9.38617 3.55579
35 6 0.428544 5.15508 7.81746
36 6 4.33782 4.53913 0.713213
37 4 0.145608 7.79749 1.72061
38 4 4.63914 1.87486 6.81733
39 4 6.71966 2.97139 2.53117
40 4 -1.94795 6.75178 6.00117
41 4 5.13271 6.6872 2.79562
42 4 -0.356752 2.98001 5.73284
43 4 1.70231 1.83554 1.47553
44 4 3.04392 7.88259 7.07075
45 1 -4.40027 0.545972 12.2752
46 1 0.891265 9.14804 13.3179
47 1 2.96276 5.38809 9.05195
48 1 -6.4726 4.30028 16.5403
49 2 -5.3785 8.59001 11.6877
50 2 1.85466 1.10257 13.9032
51 2 3.93484 3.74811 9.65432
52 2 -7.44353 5.95514 15.9477
53 2 2.25864 8.23177 12.026
54 2 -5.77603 1.44879 13.5629
55 2 -3.69696 3.38385 9.29243
56 2 0.195316 6.31142 16.3086
57 2 2.94548 6.85623 10.4401
58 2 -6.46345 2.84447 15.1575
59 2 -4.39654 1.9976 10.8829
60 2 0.878503 7.67807 14.7042
61 5 -3.05006 0.737917 13.7579
62 5 -0.464268 8.96271 11.8435
63 5 -2.54262 5.59156 16.1078
64 5 -0.970358 4.10109 9.49349
65 5 -0.910836 0.316452 14.3035
66 5 -2.60818 9.38013 11.2858
67 5 -4.6774 5.15859 15.5628
68 5 1.16461 4.53391 10.0402
69 3 -4.97983 7.74361 10.7328
70 3 1.47831 1.94119 14.8665
71 3 3.54953 2.90366 10.6021
72 3 -7.06051 6.79504 14.9919
73 3 1.93915 7.18637 11.2758
74 3 -5.45829 2.50456 14.3124
75 3 -3.3797 2.34792 10.0385
76 3 -0.132379 7.35347 15.5425
77 6 -1.8855 0.306745 13.5036
78 6 -1.63954 9.3844 12.0937
79 6 -3.70998 5.16151 16.3457
80 6 0.198949 4.54263 9.24424
81 4 -4.04631 7.79472 10.2353
82 4 0.514052 1.89329 15.3534
83 4 2.5752 2.96614 11.1075
84 4 -6.10361 6.74191 14.4812
85 4 0.988749 6.67645 11.3078
86 4 -4.51633 2.9906 14.275
87 4 -2.43307 1.81125 10.0158
88 4 -1.06632 7.84222 15.5975
89 1 -0.261284 10.2382 3.74376
90 1 5.03276 18.8413 4.78601
91 1 7.10258 15.0843 0.523677
92 1 -2.32979 13.9938 8.01004
93 2 -1.23005 18.2852 3.15056
94 2 6.00376 10.8052 5.37961
95 2 8.08001 13.4319 1.10864
96 2 -3.30686 15.6469 7.40551
97 2 6.40685 17.9348 3.50061
98 2 -1.63215 11.1583 5.02275
99 2 0.435293 13.078 0.758841
100 2 4.33766 16.0117 7.77239
101 2 7.09663 16.5499 1.9063
102 2 -2.31679 12.5297 6.61475
103 2 -0.257751 11.7039 2.35582
104 2 5.01883 17.3747 6.18085
105 5 1.10219 10.4367 5.22622
106 5 3.67049 18.6545 3.3038
107 5 1.60398 15.2844 7.57001
108 5 3.17408 13.802 0.960954
109 5 3.23301 10.011 5.78162
110 5 1.53037 19.0701 2.7529
111 5 -0.53944 14.8561 7.02073
112 5 5.30665 14.2272 1.50865
113 3 -0.84842 17.4474 2.19242
114 3 5.62406 11.6371 6.34077
115 3 7.69143 12.5976 2.07598
116 3 -2.9234 16.4762 6.45265
117 3 6.08522 16.8816 2.75444
118 3 -1.30828 12.1974 5.78582
119 3 0.748783 12.0317 1.52225
120 3 4.01373 17.048 7.00471
121 6 2.2688 10.0032 4.97603
122 6 2.51405 19.0843 3.54795
123 6 0.428951 14.847 7.82885
124 6 4.33395 14.2373 0.711526
125 4 0.127636 17.4704 1.7139
126 4 4.65561 11.5846 6.78385
127 4 6.71874 12.6251 2.57527
128 4 -1.97169 16.4054 6.00452
129 4 5.15229 16.344 2.77132
130 4 -0.32424 12.7409 5.73352
131 4 1.7132 11.5021 1.46813
132 4 3.05326 17.5718 7.06746
133 1 -4.40568 10.2377 12.2724
134 1 0.889666 18.8398 13.3223
135 1 2.95815 15.0814 9.05567
136 1 -6.4749 13.9957 16.5388
137 2 -5.38733 18.2858 11.6873
138 2 1.8683 10.7949 13.9119
139 2 3.93717 13.4298 9.64576
140 2 -7.44136 15.6461 15.9397
141 2 2.25656 17.9346 12.0391
142 2 -5.77605 11.1497 13.558
143 2 -3.7135 13.0788 9.29292
144 2 0.196094 16.0001 16.3064
145 2 2.95666 16.5475 10.4403
146 2 -6.46669 12.5286 15.1452
147 2 -4.3906 11.7095 10.8873
148 2 0.872727 17.3817 14.7141
149 5 -3.03909 10.4308 13.7581
150 5 -0.462119 18.6492 11.8341
151 5 -2.5451 15.2858 16.1038
152 5 -0.968415 13.7982 9.48958
153 5 -0.903734 10.0117 14.303
154 5 -2.60873 19.0672 11.2889
155 5 -4.67051 14.8624 15.5588
156 5 1.17117 14.2183 10.0405
157 3 -4.98007 17.4359 10.7249
158 3 1.48481 11.6348 14.875
159 3 3.55794 12.5933 10.606
160 3 -7.06928 16.4779 14.9945
161 3 1.93925 16.8834 11.275
162 3 -5.45917 12.198 14.3208
163 3 -3.38554 12.0366 10.0457
164 3 -0.121176 17.0421 15.5511
165 6 -1.87569 9.98935 13.5036
166 6 -1.63582 19.0781 12.0912
167 6 -3.69957 14.8419 16.351
168 6 0.205158 14.2454 9.23752
169 4 -4.02407 17.4722 10.2335
170 4 0.519563 11.6005 15.3781
171 4 2.58143 12.6653 11.1203
172 4 -6.10858 16.44 14.5235
173 4 0.993789 16.3692 11.3393
174 4 -4.48783 12.7137 14.2514
175 4 -2.45346 11.5278 10.0021
176 4 -1.09014 17.5713 15.5804
177 7 -1.6301 13.3678 14.3458
178 8 -2.12165 12.9895 15.1049
179 8 -1.96747 12.9541 13.5392
180 7 -2.00979 15.5958 12.4644
181 8 -1.99788 16.5293 12.7679
182 8 -1.15911 15.1928 12.6158
183 7 -3.57221 4.94843 12.9217
184 8 -4.52377 5.08507 12.8277
185 8 -3.23528 5.65414 13.4951
186 7 -1.79382 5.68466 11.2841
187 8 -1.19518 5.61313 12.0589
188 8 -1.40641 6.28358 10.657
189 7 3.00328 4.85197 4.50599
190 8 3.0412 5.80427 4.37742
191 8 2.14101 4.59659 4.17994
192 7 4.63276 2.86824 4.20451
193 8 4.31993 2.99888 3.30318
194 8 5.20868 3.5831 4.47596
195 9 3.02187 9.57558 9.89696
196 10 3.33461 8.72655 9.16427
197 10 2.69061 10.4015 10.6155
198 9 0.103505 11.6599 10.6003
199 10 -0.58024 11.3339 11.4678
200 10 0.80043 11.9681 9.73553
201 9 -1.6818 6.74876 10.0001
202 10 -1.57788 6.26523 8.95225
203 10 -1.79037 7.25031 11.0221
204 9 1.81052 10.5553 7.92596
205 10 1.08216 9.81779 7.43582
206 10 2.55904 11.2746 8.42414
207 9 -2.61368 8.99548 7.21872
208 10 -1.95578 9.2734 6.32453
209 10 -3.25937 8.69726 8.12422
210 9 0.164418 7.76048 7.0227
211 10 0.953049 7.48345 6.22613
212 10 -0.622516 8.00644 7.82908
ITEM: TIMESTEP
4
ITEM: NUMBER OF ATOMS
212
ITEM: BOX BOUNDS xy xz yz pp pp pp
-8.2845399267383790e+00 8.9141931694347889e+00 0.0000000000000000e+00
-8.5468575777269962e-04 1.9387853785757777e+01 -8.2841469573035926e+00
-7.5222291898846549e-04 1.7063567322918985e+01 0.0000000000000000e+00
ITEM: ATOMS id type x y z
1 1 -0.257361 0.543523 3.7406
2 1 5.02829 9.15051 4.78809
3 1 7.09953 5.39362 0.517731
4 1 -2.33036 4.30049 8.01111
5 2 -1.23417 8.59114 3.14928
6 2 6.00881 1.10716 5.38912
7 2 8.08167 3.73636 1.1146
8 2 -3.30571 5.95331 7.41377
9 2 6.41828 8.23237 3.51142
10 2 -1.61915 1.46755 5.01397
11 2 0.432794 3.38958 0.760436
12 2 4.34252 6.30051 7.78396
13 2 7.0922 6.85853 1.92351
14 2 -2.31811 2.83148 6.61914
15 2 -0.241493 2.00533 2.35117
16 2 5.01275 7.68889 6.17107
17 5 1.09338 0.746496 5.22789
18 5 3.68164 8.95083 3.30363
19 5 1.59905 5.59612 7.56841
20 5 3.16326 4.10398 0.970958
21 5 3.23207 0.315375 5.76943
22 5 1.53444 9.3804 2.75756
23 5 -0.521389 5.15448 7.03674
24 5 5.30158 4.53346 1.5078
25 3 -0.850079 7.74692 2.19419
26 3 5.61491 1.93688 6.34708
27 3 7.68899 2.9026 2.08002
28 3 -2.92159 6.79502 6.44905
29 3 6.09272 7.17875 2.75741
30 3 -1.32481 2.50048 5.7845
31 3 0.759599 2.34466 1.51677
32 3 4.00663 7.36399 7.01134
33 6 2.27383 0.30972 4.98789
34 6 2.50365 9.38499 3.55539
35 6 0.426536 5.15641 7.81584
36 6 4.33793 4.53775 0.714406
37 4 0.15318 7.79507 1.72371
38 4 4.63542 1.87003 6.81633
39 4 6.71902 2.97566 2.52344
40 4 -1.94754 6.75693 6.00901
41 4 5.13283 6.69072 2.79598
42 4 -0.355694 2.96758 5.73142
43 4 1.69964 1.8373 1.47664
44 4 3.03861 7.88851 7.07414
45 1 -4.39985 0.545663 12.2757
46 1 0.891347 9.14832 13.3172
47 1 2.9631 5.38634 9.05117
48 1 -6.47272 4.3001 16.5406
49 2 -5.37942 8.58938 11.6904
50 2 1.8514 1.10219 13.9002
51 2 3.93475 3.74948 9.65684
52 2 -7.44282 5.95679 15.9479
53 2 2.25641 8.23115 12.0229
54 2 -5.77611 1.44485 13.5645
55 2 -3.69428 3.3828 9.2923
56 2 0.195567 6.31289 16.3112
57 2 2.94312 6.85625 10.439
58 2 -6.46361 2.84635 15.1601
59 2 -4.39796 1.99385 10.8824
60 2 0.877415 7.6757 14.7026
61 5 -3.05266 0.736294 13.7578
62 5 -0.462852 8.96652 11.8462
63 5 -2.54384 5.59235 16.1101
64 5 -0.969876 4.09961 9.4937
65 5 -0.913584 0.316471 14.3029
66 5 -2.60834 9.38109 11.285
67 5 -4.67701 5.15719 15.5657
68 5 1.16346 4.53478 10.0403
69 3 -4.97543 7.73926 10.7395
70 3 1.47804 1.94045 14.8647
71 3 3.5494 2.90345 10.6006
72 3 -7.06055 6.79677 14.9935
73 3 1.93796 7.18548 11.2744
74 3 -5.46 2.50436 14.3119
75 3 -3.37876 2.34966 10.0353
76 3 -0.133804 7.35408 15.5416
77 6 -1.88906 0.307518 13.5028
78 6 -1.64094 9.38252 12.0959
79 6 -3.71113 5.16504 16.3432
80 6 0.200007 4.54231 9.24551
81 4 -4.05407 7.79095 10.2334
82 4 0.515658 1.89449 15.3542
83 4 2.57393 2.9688 11.1146
84 4 -6.10806 6.74381 14.4724
85 4 0.988022 6.67647 11.302
86 4 -4.52097 2.9817 14.2772
87 4 -2.43394 1.80518 10.0199
88 4 -1.06218 7.83521 15.5998
89 1 -0.261681 10.2377 3.74399
90 1 5.03286 18.8418 4.78505
91 1 7.10238 15.0837 0.523748
92 1 -2.32944 13.9939 8.01056
93 2 -1.22889 18.2859 3.15053
94 2 6.00225 10.8094 5.37823
95 2 8.08112 13.4303 1.10623
96 2 -3.30774 15.6482 7.40199
97 2 6.40688 17.9376 3.49928
98 2 -1.63137 11.1601 5.02103
99 2 0.434946 13.0773 0.757804
100 2 4.33821 16.0156 7.77318
101 2 7.09753 16.5505 1.90408
102 2 -2.31521 12.5291 6.61336
103 2 -0.26006 11.7046 2.35659
104 2 5.0174 17.3735 6.18163
105 5 1.10321 10.4371 5.22566
106 5 3.66961 18.6579 3.30353
107 5 1.60445 15.2852 7.57002
108 5 3.17547 13.8034 0.960615
109 5 3.23109 10.0116 5.784
110 5 1.52933 19.0699 2.75136
111 5 -0.540187 14.8562 7.01999
112 5 5.30568 14.2282 1.50854
113 3 -0.848482 17.4486 2.19297
114 3 5.62522 11.6374 6.3406
115 3 7.69146 12.5978 2.07605
116 3 -2.92493 16.4741 6.45149
117 3 6.0856 16.8815 2.75618
118 3 -1.30704 12.1973 5.78682
119 3 0.745444 12.0305 1.52386
120 3 4.01379 17.0491 7.00144
121 6 2.26951 10.0052 4.97634
122 6 2.51679 19.0848 3.54497
123 6 0.426981 14.8481 7.83097
124 6 4.33283 14.2377 0.712174
125 4 0.129525 17.4615 1.71474
126 4 4.65709 11.5854 6.77188
127 4 6.71803 12.6166 2.58188
128 4 -1.97886 16.3977 6.01336
129 4 5.15881 16.3356 2.76376
130 4 -0.313046 12.7506 5.7322
131 4 1.71367 11.4953 1.46683
132 4 3.05074 17.5767 7.06995
133 1 -4.40706 10.237 12.2719
134 1 0.889214 18.8397 13.3232
135 1 2.95695 15.0798 9.05612
136 1 -6.47578 13.9963 16.5387
137 2 -5.39142 18.2866 11.6893
138 2 1.86957 10.7943 13.9118
139 2 3.93783 13.4275 9.64545
140 2 -7.43993 15.6471 15.9374
141 2 2.25364 17.9373 12.0404
142 2 -5.77612 11.1484 13.5579
143 2 -3.71628 13.0784 9.29295
144 2 0.196615 16.0001 16.3082
145 2 2.95806 16.5473 10.4391
146 2 -6.46792 12.5276 15.1437
147 2 -4.38971 11.7123 10.8884
148 2 0.869743 17.3829 14.7157
149 5 -3.03802 10.4292 13.7581
150 5 -0.460092 18.6508 11.8336
151 5 -2.54714 15.2871 16.1048
152 5 -0.967375 13.7984 9.48848
153 5 -0.90411 10.0125 14.3023
154 5 -2.609 19.0661 11.289
155 5 -4.66782 14.8646 15.5605
156 5 1.17222 14.2165 10.0407
157 3 -4.97691 17.4334 10.726
158 3 1.48668 11.6343 14.876
159 3 3.5607 12.5923 10.6058
160 3 -7.07226 16.4764 14.9969
161 3 1.9381 16.8839 11.2733
162 3 -5.4611 12.198 14.3231
163 3 -3.38657 12.037 10.0449
164 3 -0.118957 17.0414 15.5529
165 6 -1.87602 9.9867 13.5029
166 6 -1.63585 19.0765 12.0923
167 6 -3.69729 14.8413 16.3502
168 6 0.208128 14.2487 9.23654
169 4 -4.02539 17.4639 10.2305
170 4 0.523092 11.6064 15.3869
171 4 2.58253 12.6704 11.1318
172 4 -6.11445 16.4437 14.5286
173 4 0.994742 16.369 11.344
174 4 -4.48371 12.7147 14.2458
175 4 -2.46096 11.5294 10.0017
176 4 -1.09323 17.5758 15.5771
177 7 -1.62805 13.3679 14.3462
178 8 -2.12256 12.9903 15.1076
179 8 -1.97663 12.9592 13.5424
180 7 -2.0095 15.5953 12.4654
181 8 -2.00282 16.5328 12.7682
182 8 -1.16054 15.1965 12.6069
183 7 -3.57306 4.94689 12.9207
184 8 -4.52374 5.08439 12.8327
185 8 -3.23764 5.6628 13.483
186 7 -1.79325 5.68301 11.2856
187 8 -1.19491 5.61292 12.0676
188 8 -1.39505 6.26347 10.6674
189 7 3.00195 4.85323 4.50493
190 8 3.02598 5.80354 4.37429
191 8 2.14454 4.6063 4.17036
192 7 4.63417 2.86813 4.20401
193 8 4.32415 2.98545 3.30204
194 8 5.20929 3.57805 4.47617
195 9 3.02417 9.57877 9.8982
196 10 3.3325 8.72665 9.1595
197 10 2.69018 10.4009 10.6165
198 9 0.101638 11.6616 10.5997
199 10 -0.579771 11.3335 11.4689
200 10 0.800713 11.9658 9.73418
201 9 -1.68173 6.74847 10.0014
202 10 -1.5762 6.26822 8.94961
203 10 -1.79327 7.25232 11.0205
204 9 1.80894 10.558 7.9234
205 10 1.08397 9.8182 7.43414
206 10 2.56068 11.2735 8.42349
207 9 -2.61487 8.99814 7.21874
208 10 -1.95428 9.27065 6.32774
209 10 -3.25875 8.69698 8.12541
210 9 0.164118 7.76506 7.02191
211 10 0.953509 7.48282 6.22555
212 10 -0.623051 8.00597 7.8313
ITEM: TIMESTEP
5
ITEM: NUMBER OF ATOMS
212
ITEM: BOX BOUNDS xy xz yz pp pp pp
-6.1087447277419216e-04 9.5448810765102170e+00 0.0000000000000000e+00
-1.3286165931685190e-03 1.9388327716593174e+01 6.3047000203743941e-01
-1.1693372012366865e-03 1.7063984437201235e+01 0.0000000000000000e+00
ITEM: ATOMS id type x y z
1 1 8.65829 0.542581 3.73993
2 1 5.02726 9.15132 4.78785
3 1 7.09864 5.39365 0.516216
4 1 6.58471 4.30034 8.01176
5 2 7.68066 8.59136 3.14888
6 2 6.00967 1.10776 5.39108
7 2 8.08294 3.73446 1.1142
8 2 5.60864 5.95395 7.41296
9 2 6.42113 8.23207 3.51308
10 2 7.29959 1.46916 5.01059
11 2 0.431913 3.39014 0.759954
12 2 4.34408 6.29884 7.78741
13 2 7.09182 6.85921 1.926
14 2 6.59766 2.82966 6.61923
15 2 8.67578 2.00431 2.35056
16 2 5.00967 7.6893 6.16856
17 5 1.092 0.747299 5.22798
18 5 3.68364 8.95072 3.30334
19 5 1.5981 5.59768 7.56808
20 5 3.16168 4.10371 0.973122
21 5 3.23036 0.31501 5.76816
22 5 1.53467 9.38106 2.75754
23 5 8.39754 5.15228 7.04008
24 5 5.29957 4.53395 1.50741
25 3 8.06446 7.74597 2.19498
26 3 5.61359 1.93511 6.34866
27 3 7.68851 2.90211 2.08098
28 3 5.9926 6.79602 6.44714
29 3 6.09489 7.17618 2.75943
30 3 7.58694 2.49925 5.78487
31 3 0.759698 2.34511 1.51655
32 3 4.00476 7.36685 7.01037
33 6 2.27548 0.310969 4.99105
34 6 2.5032 9.38377 3.55491
35 6 0.424612 5.15769 7.8142
36 6 4.33798 4.53629 0.71554
37 4 0.16041 7.79245 1.72677
38 4 4.63178 1.8653 6.81538
39 4 6.7183 2.97962 2.51584
40 4 6.96792 6.76212 6.01664
41 4 5.13288 6.69413 2.79629
42 4 8.56039 2.95523 5.73005
43 4 1.69712 1.83889 1.47762
44 4 3.03359 7.89426 7.07741
45 1 4.5155 0.545256 12.2761
46 1 0.89139 9.14858 13.3166
47 1 2.96343 5.38455 9.05038
48 1 2.44207 4.29987 16.541
49 2 3.5347 8.58853 11.6934
50 2 1.84812 1.10167 13.8973
51 2 3.93467 3.75084 9.65935
52 2 1.47279 5.95835 15.9482
53 2 2.25412 8.2305 12.0199
54 2 3.13874 1.44082 13.5661
55 2 5.22335 3.38172 9.29214
56 2 9.11077 6.3143 16.3139
57 2 2.94072 6.85606 10.4381
58 2 2.45112 2.84821 15.1628
59 2 4.51556 1.98998 10.8819
60 2 0.876287 7.67337 14.7009
61 5 5.85975 0.734553 13.7577
62 5 8.45351 8.97036 11.8491
63 5 6.36983 5.59308 16.1124
64 5 7.94568 4.098 9.49391
65 5 7.99859 0.316386 14.3024
66 5 6.30645 9.38213 11.2842
67 5 4.23832 5.15575 15.5688
68 5 1.16224 4.53561 10.0404
69 3 3.94434 7.734 10.7474
70 3 1.47775 1.93966 14.863
71 3 3.54925 2.90313 10.5992
72 3 1.85431 6.79849 14.9952
73 3 1.93675 7.18455 11.273
74 3 3.45317 2.50408 14.3116
75 3 5.53709 2.35126 10.0322
76 3 8.7798 7.35464 15.5407
77 6 7.02231 0.308217 13.5022
78 6 7.27258 9.38055 12.0981
79 6 5.2027 5.16853 16.3408
80 6 9.11603 4.54188 9.24682
81 4 4.85383 7.78682 10.2318
82 4 9.4322 1.89571 15.355
83 4 2.57285 2.97126 11.1217
84 4 2.80239 6.74573 14.4637
85 4 0.987169 6.67645 11.2962
86 4 4.38965 2.97289 14.2795
87 4 6.48014 1.79915 10.024
88 4 7.85654 7.82845 15.6021
89 1 8.65289 10.2372 3.74416
90 1 5.03297 18.8423 4.78405
91 1 7.10221 15.0831 0.523733
92 1 6.58585 13.994 8.01106
93 2 7.68723 18.2866 3.15046
94 2 6.0004 10.8141 5.37643
95 2 8.08225 13.4288 1.10374
96 2 5.60633 15.6495 7.3985
97 2 6.40691 17.9405 3.49793
98 2 7.28441 11.1621 5.01918
99 2 0.43459 13.0767 0.75667
100 2 4.33874 16.0196 7.77398
101 2 7.09846 16.5511 1.90176
102 2 6.6013 12.5285 6.61201
103 2 8.6526 11.7052 2.35734
104 2 5.016 17.3726 6.18233
105 5 1.10425 10.4375 5.22497
106 5 3.66867 18.6614 3.30319
107 5 1.60482 15.286 7.57003
108 5 3.1769 13.8048 0.9602
109 5 3.22913 10.0121 5.78631
110 5 1.5283 19.0699 2.7498
111 5 8.37408 14.8564 7.01928
112 5 5.30468 14.2293 1.50832
113 3 8.06641 17.4499 2.19342
114 3 5.62641 11.6377 6.3404
115 3 7.69152 12.598 2.07607
116 3 5.98845 16.472 6.45033
117 3 6.08604 16.8814 2.75781
118 3 7.60919 12.1972 5.78779
119 3 0.742076 12.0293 1.5254
120 3 4.01383 17.0504 6.99816
121 6 2.27017 10.0072 4.97664
122 6 2.51951 19.0855 3.54191
123 6 0.425032 14.8493 7.833
124 6 4.33168 14.2381 0.712775
125 4 0.131329 17.4526 1.71554
126 4 4.65838 11.5865 6.76012
127 4 6.71744 12.6081 2.58833
128 4 6.92927 16.3903 6.02185
129 4 5.16516 16.3275 2.7563
130 4 8.61259 12.76 5.73084
131 4 1.71389 11.4887 1.46546
132 4 3.04837 17.5816 7.07242
133 1 4.50649 10.2363 12.2714
134 1 0.888725 18.8397 13.3241
135 1 2.95574 15.0782 9.05658
136 1 2.43825 13.997 16.5386
137 2 3.51944 18.2876 11.6912
138 2 1.87079 10.7937 13.9118
139 2 3.93847 13.4253 9.64515
140 2 1.47638 15.6481 15.9351
141 2 2.25067 17.9401 12.0416
142 2 3.13875 11.1471 13.5579
143 2 5.19593 13.0781 9.29296
144 2 9.1121 16.0002 16.3102
145 2 2.95943 16.547 10.4379
146 2 2.44575 12.5267 15.1424
147 2 4.52628 11.7151 10.8895
148 2 0.866745 17.3842 14.7173
149 5 5.87805 10.4276 13.7581
150 5 8.45683 18.6526 11.8332
151 5 6.36571 15.2884 16.1058
152 5 7.9487 13.7987 9.48739
153 5 8.01044 10.0133 14.3015
154 5 6.30573 19.0651 11.2892
155 5 4.24983 14.8669 15.5622
156 5 1.17322 14.2148 10.041
157 3 3.94113 17.4309 10.7271
158 3 1.48852 11.6339 14.8771
159 3 3.56348 12.5914 10.6056
160 3 1.83963 16.4749 14.9994
161 3 1.93696 16.8845 11.2717
162 3 3.4519 12.198 14.3255
163 3 5.52729 12.0374 10.0441
164 3 8.79821 17.0408 15.5549
165 6 7.03857 9.98408 13.5023
166 6 7.27912 19.0751 12.0934
167 6 5.21995 14.8408 16.3496
168 6 9.12598 14.2521 9.23561
169 4 4.88836 17.4557 10.2275
170 4 9.44164 11.6125 15.3958
171 4 2.58402 12.6756 11.1433
172 4 2.79478 16.4475 14.5337
173 4 0.995578 16.3689 11.3486
174 4 4.43507 12.7157 14.2404
175 4 6.44671 11.5308 10.0011
176 4 7.81888 17.5802 15.5739
177 7 7.28895 13.368 14.3468
178 8 6.79169 12.9911 15.1099
179 8 6.92916 12.9644 13.5459
180 7 6.90572 15.595 12.4665
181 8 6.90737 16.5358 12.7685
182 8 7.75316 15.2003 12.5981
183 7 5.34101 4.94529 12.9197
184 8 4.39141 5.08371 12.8378
185 8 5.67474 5.67124 13.4708
186 7 7.12221 5.68076 11.2873
187 8 7.72074 5.61241 12.0763
188 8 7.53416 6.23873 10.681
189 7 3.00061 4.85446 4.50382
190 8 3.01069 5.8028 4.37116
191 8 2.14795 4.6159 4.16072
192 7 4.63554 2.86796 4.2034
193 8 4.3285 2.9722 3.30097
194 8 5.20981 3.57302 4.47617
195 9 3.02639 9.58208 9.89919
196 10 3.33001 8.72748 9.15371
197 10 2.6895 10.4004 10.6175
198 9 9.01475 11.6632 10.5992
199 10 8.33572 11.3334 11.4699
200 10 0.800953 11.9635 9.73284
201 9 7.2332 6.74852 10.0021
202 10 7.34042 6.27128 8.94705
203 10 7.1187 7.25474 11.0188
204 9 1.80736 10.5608 7.92082
205 10 1.0857 9.81859 7.43255
206 10 2.5623 11.2723 8.4228
207 9 6.29902 9.00095 7.21889
208 10 6.96254 9.26735 6.33127
209 10 5.65689 8.69686 8.1268
210 9 9.07881 7.76961 7.0211
211 10 0.953913 7.48221 6.22491
212 10 8.29141 8.00549 7.83352
ITEM: TIMESTEP
6
ITEM: NUMBER OF ATOMS
212
ITEM: BOX BOUNDS xy xz yz pp pp pp
-8.7453380659052726e-04 9.5451820277994948e+00 0.0000000000000000e+00
-1.9020603716608520e-03 1.9388901160371667e+01 6.3050729399290084e-01
-1.6740344528418660e-03 1.7064489134452842e+01 0.0000000000000000e+00
ITEM: ATOMS id type x y z
1 1 8.65941 0.541546 3.73921
2 1 5.02622 9.15213 4.78756
3 1 7.09779 5.39362 0.51462
4 1 6.5852 4.30014 8.0124
5 2 7.68096 8.59161 3.14845
6 2 6.0106 1.10818 5.393
7 2 8.08422 3.73255 1.11371
8 2 5.60833 5.95447 7.41206
9 2 6.42396 8.23176 3.5147
10 2 7.30376 1.47065 5.00717
11 2 0.431035 3.39066 0.759375
12 2 4.34559 6.29713 7.79084
13 2 7.09147 6.85979 1.92838
14 2 6.59885 2.82781 6.61935
15 2 8.67848 2.00315 2.34994
16 2 5.00643 7.68955 6.16576
17 5 1.09067 0.747981 5.22804
18 5 3.68555 8.95063 3.303
19 5 1.59706 5.59913 7.56776
20 5 3.16017 4.10342 0.975207
21 5 3.22863 0.314541 5.76684
22 5 1.5349 9.38173 2.7575
23 5 8.40194 5.15002 7.04337
24 5 5.29754 4.53439 1.50691
25 3 8.06446 7.745 2.19569
26 3 5.61232 1.93326 6.35027
27 3 7.68811 2.90154 2.08185
28 3 5.99216 6.7969 6.44517
29 3 6.09709 7.1736 2.76139
30 3 7.58414 2.49794 5.78521
31 3 0.759729 2.34547 1.51628
32 3 4.00281 7.3696 7.00932
33 6 2.27701 0.312145 4.99415
34 6 2.50279 9.38252 3.55433
35 6 0.422784 5.15891 7.81255
36 6 4.33796 4.53476 0.716611
37 4 0.167232 7.78962 1.72982
38 4 4.62823 1.8607 6.81448
39 4 6.71747 2.98325 2.50842
40 4 6.96894 6.76736 6.02403
41 4 5.13285 6.69742 2.79655
42 4 8.56199 2.94298 5.72875
43 4 1.69479 1.8403 1.47847
44 4 3.02893 7.89982 7.08054
45 1 4.51626 0.544756 12.2767
46 1 0.891396 9.14885 13.3161
47 1 2.96374 5.38271 9.04961
48 1 2.44225 4.29959 16.5415
49 2 3.53437 8.58746 11.6967
50 2 1.84482 1.10102 13.8944
51 2 3.93461 3.75218 9.66184
52 2 1.47378 5.95983 15.9487
53 2 2.25177 8.22985 12.0169
54 2 3.13901 1.43668 13.5677
55 2 5.22639 3.38063 9.29197
56 2 9.11141 6.31566 16.3166
57 2 2.93831 6.85566 10.4372
58 2 2.45124 2.85002 15.1655
59 2 4.51449 1.98601 10.8814
60 2 0.875119 7.67108 14.6993
61 5 5.85766 0.732698 13.7577
62 5 8.4553 8.97422 11.8519
63 5 6.36887 5.59375 16.1148
64 5 7.9468 4.09627 9.49413
65 5 7.99617 0.316199 14.3018
66 5 6.30667 9.38326 11.2836
67 5 4.23908 5.15425 15.5719
68 5 1.16096 4.53639 10.0405
69 3 3.94991 7.72792 10.7565
70 3 1.47746 1.93882 14.8613
71 3 3.54909 2.90272 10.5978
72 3 1.85454 6.80019 14.9969
73 3 1.93554 7.18357 11.2717
74 3 3.45168 2.50371 14.3113
75 3 5.53834 2.35273 10.0292
76 3 8.77892 7.35516 15.5399
77 6 7.01912 0.308841 13.5016
78 6 7.27152 9.3785 12.1003
79 6 5.202 5.17197 16.3385
80 6 9.11748 4.54131 9.24816
81 4 4.84791 7.78237 10.2303
82 4 9.43416 1.89693 15.3559
83 4 2.57202 2.97352 11.1286
84 4 2.79821 6.74767 14.4551
85 4 0.986177 6.67639 11.2906
86 4 4.38609 2.96419 14.2819
87 4 6.47966 1.7932 10.0278
88 4 7.86026 7.82199 15.6045
89 1 8.65293 10.2367 3.74429
90 1 5.03308 18.8429 4.78301
91 1 7.10207 15.0826 0.523635
92 1 6.58657 13.9941 8.01156
93 2 7.68881 18.2876 3.15035
94 2 5.99822 10.8194 5.37423
95 2 8.08339 13.4273 1.10117
96 2 5.60581 15.6508 7.39503
97 2 6.40692 17.9435 3.49655
98 2 7.28566 11.1642 5.01721
99 2 0.434228 13.0761 0.75544
100 2 4.33924 16.0236 7.77478
101 2 7.09941 16.5518 1.89937
102 2 6.60323 12.5281 6.61067
103 2 8.65071 11.7058 2.35806
104 2 5.01462 17.3717 6.18295
105 5 1.10533 10.4379 5.22416
106 5 3.66769 18.6651 3.30279
107 5 1.60506 15.2868 7.57003
108 5 3.17837 13.8064 0.959712
109 5 3.22713 10.0127 5.78854
110 5 1.5273 19.0699 2.74822
111 5 8.37384 14.8566 7.01861
112 5 5.30366 14.2304 1.50799
113 3 8.06675 17.4513 2.19379
114 3 5.62764 11.6381 6.34017
115 3 7.69162 12.5982 2.07603
116 3 5.9872 16.47 6.44915
117 3 6.08654 16.8814 2.75933
118 3 7.61092 12.1972 5.78874
119 3 0.738688 12.0281 1.52687
120 3 4.01385 17.0517 6.99487
121 6 2.27077 10.0093 4.97692
122 6 2.52218 19.0863 3.53878
123 6 0.423113 14.8506 7.83494
124 6 4.33053 14.2386 0.71333
125 4 0.133042 17.4438 1.7163
126 4 4.65943 11.5878 6.74858
127 4 6.717 12.5997 2.59458
128 4 6.92328 16.3831 6.02993
129 4 5.17132 16.3194 2.74898
130 4 8.62302 12.7691 5.72943
131 4 1.7138 11.4822 1.46401
132 4 3.04619 17.5865 7.07487
133 1 4.50545 10.2356 12.271
134 1 0.888199 18.8397 13.325
135 1 2.95451 15.0768 9.05704
136 1 2.43767 13.9978 16.5386
137 2 3.51573 18.2887 11.6932
138 2 1.87197 10.7931 13.9118
139 2 3.93908 13.4231 9.64485
140 2 1.47805 15.6492 15.933
141 2 2.24764 17.943 12.043
142 2 3.13905 11.1459 13.5579
143 2 5.19361 13.0778 9.29295
144 2 9.11302 16.0003 16.3122
145 2 2.96078 16.5468 10.4368
146 2 2.44482 12.5259 15.1411
147 2 4.52785 11.7181 10.8907
148 2 0.863737 17.3856 14.7189
149 5 5.87961 10.426 13.7582
150 5 8.45912 18.6545 11.8329
151 5 6.36394 15.2898 16.107
152 5 7.9503 13.799 9.48631
153 5 8.01041 10.0141 14.3008
154 5 6.30592 19.0642 11.2895
155 5 4.25293 14.8692 15.5641
156 5 1.17416 14.2133 10.0412
157 3 3.94453 17.4285 10.7283
158 3 1.49033 11.6334 14.8782
159 3 3.56627 12.5907 10.6056
160 3 1.83689 16.4736 15.0019
161 3 1.93583 16.8852 11.2701
162 3 3.45033 12.1981 14.3279
163 3 5.52652 12.0378 10.0434
164 3 8.80081 17.0402 15.5569
165 6 7.03855 9.98149 13.5019
166 6 7.27957 19.0737 12.0944
167 6 5.22261 14.8403 16.3489
168 6 9.12918 14.2555 9.23474
169 4 4.88769 17.4475 10.2244
170 4 9.44569 11.6185 15.4046
171 4 2.58596 12.6808 11.1548
172 4 2.78962 16.4515 14.5387
173 4 0.996294 16.3688 11.3532
174 4 4.43893 12.7166 14.235
175 4 6.44009 11.5321 10.0005
176 4 7.81673 17.5844 15.5709
177 7 7.29139 13.3682 14.3474
178 8 6.79159 12.9922 15.1118
179 8 6.92038 12.9696 13.5497
180 7 6.90635 15.5947 12.4676
181 8 6.90317 16.5382 12.7686
182 8 7.75255 15.2042 12.5896
183 7 5.3405 4.94365 12.9188
184 8 4.39212 5.08303 12.843
185 8 5.67236 5.67945 13.4586
186 7 7.12306 5.67789 11.2893
187 8 7.72209 5.61159 12.085
188 8 7.55173 6.20969 10.6974
189 7 2.99926 4.85565 4.50267
190 8 2.99537 5.80208 4.36806
191 8 2.15116 4.62532 4.15101
192 7 4.63685 2.86774 4.20268
193 8 4.33297 2.95916 3.29993
194 8 5.21028 3.56807 4.47598
195 9 3.02852 9.58548 9.89993
196 10 3.32717 8.72899 9.14702
197 10 2.68855 10.3999 10.6184
198 9 9.01333 11.6649 10.5987
199 10 8.33672 11.3333 11.471
200 10 0.801147 11.961 9.73151
201 9 7.23346 6.74892 10.0025
202 10 7.34248 6.27443 8.94458
203 10 7.11604 7.25754 11.017
204 9 1.80578 10.5636 7.91823
205 10 1.08736 9.81894 7.43103
206 10 2.56393 11.2712 8.42205
207 9 6.29845 9.0039 7.2192
208 10 6.96513 9.26352 6.33508
209 10 5.65805 8.69687 8.12838
210 9 9.07897 7.77413 7.02027
211 10 0.954257 7.48161 6.2242
212 10 8.29134 8.005 7.83574
ITEM: TIMESTEP
7
ITEM: NUMBER OF ATOMS
212
ITEM: BOX BOUNDS xy xz yz pp pp pp
-1.1826765898046432e-03 9.5455337542737588e+00 0.0000000000000000e+00
-2.5722530758720552e-03 1.9389571353075880e+01 6.3055087768395024e-01
-2.2638820168889850e-03 1.7065078982016885e+01 0.0000000000000000e+00
ITEM: ATOMS id type x y z
1 1 8.66056 0.54042 3.73845
2 1 5.0252 9.15294 4.78724
3 1 7.09696 5.39356 0.512946
4 1 6.58572 4.29988 8.01303
5 2 7.6813 8.5919 3.14798
6 2 6.01161 1.10841 5.39488
7 2 8.08551 3.73063 1.11313
8 2 5.60795 5.95488 7.41108
9 2 6.42676 8.23146 3.51629
10 2 7.30793 1.47202 5.00373
11 2 0.430162 3.39113 0.758699
12 2 4.34704 6.2954 7.79424
13 2 7.09117 6.86027 1.93063
14 2 6.60003 2.82596 6.61951
15 2 8.6812 2.00187 2.34929
16 2 5.00303 7.68962 6.16267
17 5 1.08939 0.748545 5.22807
18 5 3.68737 8.95056 3.30261
19 5 1.59593 5.60048 7.56746
20 5 3.15872 4.10309 0.977215
21 5 3.22687 0.313971 5.7655
22 5 1.53514 9.3824 2.75743
23 5 8.40639 5.14768 7.04661
24 5 5.2955 4.53479 1.50631
25 3 8.06453 7.74402 2.19633
26 3 5.61111 1.93133 6.35191
27 3 7.68779 2.9009 2.08264
28 3 5.99167 6.79764 6.44315
29 3 6.09933 7.17102 2.7633
30 3 7.58139 2.49656 5.78551
31 3 0.759693 2.34577 1.51595
32 3 4.00081 7.37222 7.00821
33 6 2.27843 0.313246 4.99719
34 6 2.50243 9.38124 3.55367
35 6 0.421066 5.16007 7.8109
36 6 4.33786 4.53315 0.717613
37 4 0.173585 7.78657 1.73287
38 4 4.62478 1.85622 6.81364
39 4 6.71651 2.98653 2.5012
40 4 6.97015 6.77265 6.03116
41 4 5.13274 6.70057 2.79675
42 4 8.56368 2.93086 5.72755
43 4 1.69267 1.84152 1.47918
44 4 3.02466 7.90517 7.08351
45 1 4.51703 0.544163 12.2772
46 1 0.891366 9.1491 13.3156
47 1 2.96404 5.38082 9.04884
48 1 2.44241 4.29925 16.542
49 2 3.53416 8.58618 11.7003
50 2 1.84149 1.10024 13.8915
51 2 3.93456 3.7535 9.66431
52 2 1.47474 5.96121 15.9492
53 2 2.24937 8.22919 12.0141
54 2 3.13929 1.43245 13.5694
55 2 5.22943 3.37952 9.29177
56 2 9.11208 6.31697 16.3194
57 2 2.93588 6.85507 10.4363
58 2 2.45133 2.8518 15.1683
59 2 4.51343 1.98194 10.881
60 2 0.87391 7.66883 14.6977
61 5 5.85563 0.730731 13.7578
62 5 8.45709 8.97809 11.8549
63 5 6.36787 5.59437 16.1173
64 5 7.94806 4.09441 9.49436
65 5 7.99375 0.315914 14.3013
66 5 6.30693 9.38447 11.283
67 5 4.23986 5.15272 15.5752
68 5 1.15963 4.53713 10.0406
69 3 3.95581 7.7211 10.7667
70 3 1.47716 1.93793 14.8597
71 3 3.54891 2.90222 10.5965
72 3 1.85475 6.80188 14.9987
73 3 1.93432 7.18254 11.2703
74 3 3.45013 2.50327 14.3111
75 3 5.53956 2.35405 10.0263
76 3 8.77815 7.35561 15.5391
77 6 7.01594 0.309393 13.5012
78 6 7.27047 9.37637 12.1027
79 6 5.20136 5.17536 16.3364
80 6 9.11896 4.54062 9.24954
81 4 4.84282 7.77763 10.229
82 4 9.4361 1.89816 15.357
83 4 2.57148 2.97559 11.1355
84 4 2.794 6.7496 14.4465
85 4 0.985037 6.67631 11.2849
86 4 4.383 2.95564 14.2842
87 4 6.47917 1.78736 10.0315
88 4 7.86349 7.81589 15.6069
89 1 8.653 10.2362 3.74438
90 1 5.03319 18.8436 4.78194
91 1 7.10196 15.0821 0.523456
92 1 6.58732 13.9943 8.01206
93 2 7.69043 18.2886 3.15021
94 2 5.99575 10.8251 5.37165
95 2 8.08454 13.4259 1.09853
96 2 5.6053 15.6521 7.39158
97 2 6.40692 17.9466 3.49513
98 2 7.28698 11.1664 5.01511
99 2 0.43386 13.0756 0.754118
100 2 4.33971 16.0276 7.77558
101 2 7.10038 16.5524 1.8969
102 2 6.60517 12.5277 6.60936
103 2 8.64887 11.7064 2.35876
104 2 5.01328 17.371 6.18349
105 5 1.10644 10.4383 5.22324
106 5 3.66665 18.6688 3.30232
107 5 1.60519 15.2876 7.57003
108 5 3.17988 13.8079 0.959153
109 5 3.2251 10.0133 5.79069
110 5 1.52633 19.07 2.74662
111 5 8.37368 14.8569 7.01797
112 5 5.30261 14.2315 1.50755
113 3 8.06712 17.4527 2.19407
114 3 5.6289 11.6386 6.3399
115 3 7.69175 12.5984 2.07595
116 3 5.98592 16.4681 6.44797
117 3 6.08711 16.8814 2.76074
118 3 7.61274 12.1972 5.78966
119 3 0.735288 12.0269 1.52827
120 3 4.01385 17.0532 6.99158
121 6 2.27132 10.0113 4.97719
122 6 2.5248 19.0872 3.53559
123 6 0.421229 14.852 7.83678
124 6 4.32937 14.239 0.713836
125 4 0.134655 17.435 1.71706
126 4 4.6602 11.5894 6.73731
127 4 6.71672 12.5913 2.6006
128 4 6.91783 16.3763 6.03755
129 4 5.17725 16.3116 2.74181
130 4 8.63272 12.7778 5.72799
131 4 1.71335 11.476 1.4625
132 4 3.04425 17.5915 7.07727
133 1 4.50442 10.2349 12.2706
134 1 0.887636 18.8399 13.326
135 1 2.95327 15.0753 9.05751
136 1 2.43707 13.9986 16.5386
137 2 3.51206 18.2899 11.6952
138 2 1.87311 10.7924 13.9118
139 2 3.93966 13.4211 9.64455
140 2 1.47968 15.6502 15.931
141 2 2.24455 17.946 12.0443
142 2 3.13937 11.1446 13.558
143 2 5.19136 13.0776 9.29291
144 2 9.11399 16.0005 16.3143
145 2 2.96212 16.5466 10.4355
146 2 2.44387 12.5252 15.14
147 2 4.52959 11.721 10.892
148 2 0.860725 17.3871 14.7206
149 5 5.88125 10.4243 13.7583
150 5 8.46138 18.6565 11.8326
151 5 6.36214 15.2912 16.1082
152 5 7.95201 13.7995 9.48522
153 5 8.01038 10.0148 14.3002
154 5 6.30618 19.0634 11.2899
155 5 4.25604 14.8715 15.5661
156 5 1.17505 14.212 10.0414
157 3 3.94786 17.4262 10.7295
158 3 1.49211 11.633 14.8794
159 3 3.56907 12.5902 10.6055
160 3 1.83409 16.4724 15.0045
161 3 1.9347 16.886 11.2685
162 3 3.44878 12.1982 14.3304
163 3 5.52572 12.0383 10.0426
164 3 8.8034 17.0399 15.5589
165 6 7.03852 9.97894 13.5015
166 6 7.28009 19.0724 12.0955
167 6 5.2253 14.8399 16.3483
168 6 9.13232 14.259 9.23393
169 4 4.88723 17.4394 10.2213
170 4 9.44985 11.6246 15.4133
171 4 2.5884 12.686 11.1662
172 4 2.78471 16.4557 14.5435
173 4 0.996885 16.3686 11.3578
174 4 4.44239 12.7175 14.2298
175 4 6.43385 11.5332 9.99971
176 4 7.81496 17.5884 15.5681
177 7 7.29386 13.3683 14.348
178 8 6.79175 12.9935 15.1132
179 8 6.91163 12.9748 13.5537
180 7 6.90698 15.5946 12.4688
181 8 6.89917 16.5401 12.7686
182 8 7.75232 15.2082 12.5813
183 7 5.33999 4.94197 12.918
184 8 4.39294 5.08233 12.8483
185 8 5.6698 5.68743 13.4463
186 7 7.12388 5.67443 11.2916
187 8 7.72356 5.61048 12.0936
188 8 7.57231 6.17679 10.7164
189 7 2.9979 4.85681 4.50148
190 8 2.98006 5.80145 4.36498
191 8 2.15411 4.6345 4.1412
192 7 4.63812 2.86747 4.20185
193 8 4.33756 2.94634 3.29888
194 8 5.21076 3.56327 4.4756
195 9 3.03057 9.58897 9.90042
196 10 3.32401 8.73112 9.13953
197 10 2.68735 10.3994 10.6193
198 9 9.01197 11.6666 10.5982
199 10 8.33781 11.3335 11.4721
200 10 0.801297 11.9583 9.73019
201 9 7.23363 6.74964 10.0024
202 10 7.34456 6.27766 8.94221
203 10 7.11332 7.2607 11.0152
204 9 1.80422 10.5664 7.91563
205 10 1.08895 9.81926 7.42959
206 10 2.56554 11.2702 8.42126
207 9 6.298 9.00697 7.21965
208 10 6.96808 9.25921 6.33916
209 10 5.65931 8.69703 8.13015
210 9 9.0792 7.77862 7.01942
211 10 0.954541 7.48103 6.22342
212 10 8.29134 8.0045 7.83796
ITEM: TIMESTEP
8
ITEM: NUMBER OF ATOMS
212
ITEM: BOX BOUNDS xy xz yz pp pp pp
-1.5339821255286878e-03 9.5459347484368582e+00 0.0000000000000000e+00
-3.3363222665752090e-03 1.9390335422266581e+01 6.3060056631132366e-01
-2.9363518126181987e-03 1.7065751451812616e+01 0.0000000000000000e+00
ITEM: ATOMS id type x y z
1 1 8.66176 0.539206 3.73763
2 1 5.02418 9.15374 4.78689
3 1 7.09615 5.39345 0.511195
4 1 6.58626 4.29956 8.01366
5 2 7.68171 8.59223 3.14747
6 2 6.01269 1.10847 5.39673
7 2 8.08681 3.7287 1.11248
8 2 5.60751 5.95518 7.41
9 2 6.42953 8.23114 3.51783
10 2 7.3121 1.47327 5.00025
11 2 0.429299 3.39155 0.757929
12 2 4.34843 6.29364 7.79761
13 2 7.09091 6.86064 1.93276
14 2 6.6012 2.8241 6.61971
15 2 8.68392 2.00047 2.34863
16 2 4.99947 7.68954 6.15931
17 5 1.08817 0.748993 5.22808
18 5 3.68909 8.95051 3.30217
19 5 1.5947 5.60173 7.56717
20 5 3.15735 4.10275 0.979148
21 5 3.2251 0.313304 5.76412
22 5 1.53539 9.38308 2.75734
23 5 8.41086 5.14527 7.0498
24 5 5.29345 4.53515 1.50563
25 3 8.06466 7.74302 2.1969
26 3 5.60996 1.92931 6.35358
27 3 7.68755 2.90019 2.08334
28 3 5.99112 6.79827 6.44107
29 3 6.10159 7.16842 2.76517
30 3 7.5787 2.49511 5.78576
31 3 0.759591 2.34599 1.51556
32 3 3.99873 7.37471 7.00703
33 6 2.27971 0.314276 5.00016
34 6 2.50212 9.37993 3.55293
35 6 0.419471 5.16118 7.80927
36 6 4.33769 4.53148 0.718543
37 4 0.17941 7.7833 1.73595
38 4 4.62146 1.85189 6.81286
39 4 6.71541 2.98945 2.49421
40 4 6.97155 6.77799 6.03802
41 4 5.13254 6.70359 2.79688
42 4 8.56545 2.91891 5.72647
43 4 1.6908 1.84255 1.47975
44 4 3.02081 7.91028 7.0863
45 1 4.51779 0.543481 12.2778
46 1 0.8913 9.14936 13.3152
47 1 2.96433 5.3789 9.04807
48 1 2.44256 4.29886 16.5427
49 2 3.53407 8.58469 11.7042
50 2 1.83816 1.09934 13.8887
51 2 3.93453 3.7548 9.66676
52 2 1.47567 5.96251 15.9498
53 2 2.24692 8.22852 12.0114
54 2 3.13956 1.42812 13.5711
55 2 5.23247 3.37842 9.29154
56 2 9.11277 6.31823 16.3223
57 2 2.93345 6.85428 10.4356
58 2 2.45139 2.85353 15.1712
59 2 4.51238 1.97777 10.8806
60 2 0.87266 7.66663 14.6961
61 5 5.85368 0.728657 13.7579
62 5 8.4589 8.98198 11.8579
63 5 6.36682 5.59494 16.1198
64 5 7.94946 4.09243 9.49459
65 5 7.99131 0.315535 14.3008
66 5 6.3072 9.38577 11.2825
67 5 4.24063 5.15115 15.5785
68 5 1.15825 4.53783 10.0407
69 3 3.96197 7.71362 10.7778
70 3 1.47685 1.937 14.8582
71 3 3.5487 2.90161 10.5952
72 3 1.85492 6.80357 15.0005
73 3 1.93309 7.18147 11.269
74 3 3.44852 2.50274 14.311
75 3 5.54077 2.35522 10.0234
76 3 8.7775 7.35601 15.5384
77 6 7.01279 0.309871 13.5009
78 6 7.26942 9.37417 12.1051
79 6 5.20078 5.1787 16.3343
80 6 9.12045 4.53981 9.25093
81 4 4.83856 7.77264 10.2277
82 4 9.43803 1.89937 15.3581
83 4 2.57127 2.97747 11.1421
84 4 2.78974 6.7515 14.4382
85 4 0.98374 6.6762 11.2794
86 4 4.38043 2.94728 14.2867
87 4 6.47869 1.78166 10.035
88 4 7.86616 7.81018 15.6093
89 1 8.65311 10.2357 3.74441
90 1 5.03332 18.8444 4.78083
91 1 7.10187 15.0817 0.523198
92 1 6.58808 13.9945 8.01255
93 2 7.69208 18.2898 3.15004
94 2 5.99303 10.8312 5.36872
95 2 8.08569 13.4246 1.0958
96 2 5.60479 15.6534 7.38816
97 2 6.40691 17.9498 3.49369
98 2 7.28836 11.1686 5.01291
99 2 0.43349 13.0751 0.752706
100 2 4.34017 16.0317 7.77638
101 2 7.10137 16.5531 1.89436
102 2 6.60712 12.5275 6.60809
103 2 8.64706 11.7069 2.35943
104 2 5.01198 17.3705 6.18394
105 5 1.10759 10.4388 5.22219
106 5 3.66558 18.6726 3.30178
107 5 1.6052 15.2885 7.57002
108 5 3.18143 13.8096 0.958528
109 5 3.22303 10.0138 5.79277
110 5 1.52538 19.0703 2.74502
111 5 8.3736 14.8572 7.01737
112 5 5.30152 14.2327 1.50702
113 3 8.06751 17.4542 2.19425
114 3 5.63021 11.639 6.3396
115 3 7.69191 12.5986 2.07582
116 3 5.98458 16.4663 6.44678
117 3 6.08776 16.8815 2.76203
118 3 7.61466 12.1974 5.79056
119 3 0.731883 12.0256 1.52959
120 3 4.0138 17.0547 6.9883
121 6 2.27181 10.0134 4.97744
122 6 2.52736 19.0881 3.53235
123 6 0.419387 14.8536 7.83853
124 6 4.32821 14.2396 0.714291
125 4 0.13616 17.4263 1.71783
126 4 4.66065 11.5913 6.72632
127 4 6.71664 12.583 2.60635
128 4 6.91299 16.3698 6.04467
129 4 5.18293 16.304 2.73483
130 4 8.64156 12.786 5.72653
131 4 1.71248 11.47 1.46094
132 4 3.04259 17.5964 7.07963
133 1 4.50339 10.2343 12.2703
134 1 0.887037 18.8402 13.3271
135 1 2.95202 15.0739 9.05798
136 1 2.43645 13.9995 16.5388
137 2 3.50842 18.2913 11.6972
138 2 1.8742 10.7916 13.9119
139 2 3.94021 13.4192 9.64427
140 2 1.48126 15.6511 15.9291
141 2 2.24141 17.9491 12.0457
142 2 3.13971 11.1434 13.5581
143 2 5.18918 13.0774 9.29286
144 2 9.11499 16.0007 16.3165
145 2 2.96344 16.5464 10.4343
146 2 2.4429 12.5246 15.1389
147 2 4.53148 11.7241 10.8934
148 2 0.857715 17.3888 14.7223
149 5 5.88297 10.4227 13.7585
150 5 8.46359 18.6586 11.8323
151 5 6.36032 15.2927 16.1095
152 5 7.95383 13.8 9.48414
153 5 8.01034 10.0156 14.2995
154 5 6.30651 19.0626 11.2904
155 5 4.25918 14.8739 15.5681
156 5 1.1759 14.2107 10.0416
157 3 3.95113 17.4239 10.7308
158 3 1.49385 11.6327 14.8807
159 3 3.57186 12.5898 10.6056
160 3 1.83125 16.4713 15.0071
161 3 1.93359 16.8869 11.2669
162 3 3.44726 12.1983 14.3328
163 3 5.52486 12.0388 10.042
164 3 8.80598 17.0396 15.561
165 6 7.03846 9.97642 13.5013
166 6 7.28066 19.0712 12.0965
167 6 5.22798 14.8396 16.3478
168 6 9.13538 14.2626 9.23319
169 4 4.88698 17.4314 10.2182
170 4 9.45411 11.6308 15.422
171 4 2.5914 12.6912 11.1774
172 4 2.78008 16.46 14.5483
173 4 0.997351 16.3684 11.3624
174 4 4.44539 12.7184 14.2248
175 4 6.42804 11.5341 9.99884
176 4 7.81364 17.5922 15.5655
177 7 7.29634 13.3685 14.3488
178 8 6.79219 12.995 15.1141
179 8 6.90291 12.9801 13.5579
180 7 6.90758 15.5945 12.47
181 8 6.8954 16.5413 12.7685
182 8 7.75253 15.2122 12.5733
183 7 5.33949 4.94025 12.9172
184 8 4.39383 5.08162 12.8537
185 8 5.6671 5.69517 13.434
186 7 7.12468 5.67037 11.2943
187 8 7.72499 5.60906 12.1018
188 8 7.59596 6.14056 10.7375
189 7 2.99653 4.85795 4.50026
190 8 2.9648 5.80096 4.36196
191 8 2.15674 4.64337 4.13126
192 7 4.63933 2.86714 4.20091
193 8 4.34226 2.93376 3.2978
194 8 5.21128 3.55868 4.47504
195 9 3.03256 9.59251 9.90064
196 10 3.32059 8.73381 9.13136
197 10 2.68591 10.3989 10.6202
198 9 9.01066 11.6683 10.5977
199 10 8.33898 11.3338 11.4731
200 10 0.801401 11.9556 9.72889
201 9 7.23372 6.75067 10.0019
202 10 7.34665 6.28098 8.93994
203 10 7.11058 7.26419 11.0133
204 9 1.80267 10.5693 7.91303
205 10 1.09046 9.81955 7.42823
206 10 2.56714 11.2691 8.42041
207 9 6.29766 9.01017 7.22027
208 10 6.97135 9.25447 6.34346
209 10 5.66065 8.69732 8.1321
210 9 9.07948 7.78307 7.01856
211 10 0.954762 7.48048 6.22257
212 10 8.29141 8.004 7.84019
ITEM: TIMESTEP
9
ITEM: NUMBER OF ATOMS
212
ITEM: BOX BOUNDS xy xz yz pp pp pp
-1.9271121951778269e-03 9.5463834827926739e+00 0.0000000000000000e+00
-4.1913573958645145e-03 1.9391190457395872e+01 6.3065617059748957e-01
-3.6888822191958326e-03 1.7066503982219196e+01 0.0000000000000000e+00
ITEM: ATOMS id type x y z
1 1 8.66299 0.537906 3.73678
2 1 5.02317 9.15453 4.78649
3 1 7.09538 5.3933 0.509371
4 1 6.58682 4.29919 8.01428
5 2 7.68216 8.59259 3.14692
6 2 6.01385 1.10834 5.39852
7 2 8.08811 3.72678 1.11175
8 2 5.60699 5.95537 7.40885
9 2 6.43226 8.23082 3.51933
10 2 7.31626 1.4744 4.99676
11 2 0.428448 3.39192 0.757069
12 2 4.34977 6.29188 7.80095
13 2 7.09069 6.86092 1.93477
14 2 6.60235 2.82224 6.61994
15 2 8.68665 1.99896 2.34795
16 2 4.99577 7.68931 6.15568
17 5 1.08701 0.749327 5.22805
18 5 3.69071 8.95048 3.30168
19 5 1.59338 5.60288 7.5669
20 5 3.15605 4.10237 0.981007
21 5 3.22331 0.312542 5.76272
22 5 1.53565 9.38375 2.75722
23 5 8.41537 5.1428 7.05292
24 5 5.29138 4.53547 1.50485
25 3 8.06486 7.74202 2.19739
26 3 5.60886 1.92721 6.35529
27 3 7.68741 2.89941 2.08395
28 3 5.99052 6.79877 6.43895
29 3 6.10388 7.16583 2.767
30 3 7.57608 2.49359 5.78596
31 3 0.759423 2.34614 1.51512
32 3 3.9966 7.37707 7.0058
33 6 2.28086 0.315234 5.00304
34 6 2.50187 9.37858 3.55211
35 6 0.41801 5.16223 7.80766
36 6 4.33744 4.52973 0.719395
37 4 0.184656 7.7798 1.73908
38 4 4.61827 1.84771 6.81214
39 4 6.71413 2.99199 2.48747
40 4 6.97316 6.78338 6.04459
41 4 5.13226 6.70646 2.79695
42 4 8.56731 2.90715 5.72554
43 4 1.6892 1.84337 1.48017
44 4 3.01742 7.91514 7.08889
45 1 4.51855 0.542713 12.2784
46 1 0.891199 9.14961 13.3148
47 1 2.9646 5.37693 9.04731
48 1 2.44268 4.29842 16.5434
49 2 3.5341 8.583 11.7083
50 2 1.8348 1.09831 13.886
51 2 3.93454 3.75608 9.66918
52 2 1.47657 5.96371 15.9506
53 2 2.24441 8.22785 12.0087
54 2 3.13984 1.42371 13.5728
55 2 5.23549 3.37731 9.29129
56 2 9.11348 6.31945 16.3253
57 2 2.93101 6.85331 10.4349
58 2 2.45142 2.85522 15.1742
59 2 4.51135 1.97353 10.8803
60 2 0.871368 7.66447 14.6945
61 5 5.85179 0.726479 13.7581
62 5 8.4607 8.98588 11.861
63 5 6.36574 5.59546 16.1224
64 5 7.95101 4.09034 9.49482
65 5 7.98887 0.315063 14.3003
66 5 6.3075 9.38716 11.282
67 5 4.24142 5.14953 15.5818
68 5 1.15682 4.53849 10.0407
69 3 3.96834 7.70557 10.7896
70 3 1.47655 1.93604 14.8568
71 3 3.54847 2.9009 10.594
72 3 1.85507 6.80525 15.0024
73 3 1.93186 7.18036 11.2676
74 3 3.44683 2.50213 14.3109
75 3 5.54195 2.35622 10.0207
76 3 8.77696 7.35635 15.5378
77 6 7.00967 0.310278 13.5006
78 6 7.26838 9.37189 12.1075
79 6 5.20026 5.18198 16.3325
80 6 9.12194 4.53889 9.25234
81 4 4.83516 7.76744 10.2266
82 4 9.43992 1.90057 15.3593
83 4 2.57142 2.97917 11.1486
84 4 2.78543 6.75337 14.4299
85 4 0.982279 6.67608 11.2739
86 4 4.37843 2.93912 14.2892
87 4 6.47818 1.77615 10.0383
88 4 7.86823 7.80491 15.6118
89 1 8.65327 10.2352 3.7444
90 1 5.03344 18.8453 4.77968
91 1 7.10181 15.0813 0.522863
92 1 6.58887 13.9948 8.01304
93 2 7.69376 18.2911 3.14984
94 2 5.99007 10.8377 5.36545
95 2 8.08684 13.4234 1.09301
96 2 5.60428 15.6547 7.38478
97 2 6.40689 17.9531 3.49223
98 2 7.28979 11.171 5.01059
99 2 0.433119 13.0747 0.751209
100 2 4.34059 16.0358 7.77718
101 2 7.10238 16.5538 1.89176
102 2 6.60906 12.5273 6.60684
103 2 8.6453 11.7074 2.36009
104 2 5.01072 17.3701 6.18431
105 5 1.10876 10.4392 5.22103
106 5 3.66448 18.6765 3.30117
107 5 1.60509 15.2894 7.57002
108 5 3.183 13.8112 0.957838
109 5 3.22093 10.0144 5.79477
110 5 1.52447 19.0706 2.7434
111 5 8.3736 14.8575 7.01681
112 5 5.30041 14.234 1.50638
113 3 8.06793 17.4557 2.19434
114 3 5.63155 11.6396 6.33926
115 3 7.6921 12.5989 2.07565
116 3 5.9832 16.4645 6.44559
117 3 6.08847 16.8816 2.76321
118 3 7.61668 12.1976 5.79143
119 3 0.728482 12.0245 1.53084
120 3 4.01372 17.0562 6.98503
121 6 2.27225 10.0156 4.97768
122 6 2.52985 19.0892 3.52907
123 6 0.417592 14.8552 7.84017
124 6 4.32706 14.2401 0.714694
125 4 0.13755 17.4177 1.71864
126 4 4.66075 11.5935 6.71565
127 4 6.71675 12.5748 2.61179
128 4 6.90881 16.3636 6.05124
129 4 5.18836 16.2966 2.72808
130 4 8.64945 12.7936 5.72505
131 4 1.71115 11.4642 1.45933
132 4 3.04124 17.6013 7.08193
133 1 4.50236 10.2336 12.2699
134 1 0.886404 18.8405 13.3281
135 1 2.95076 15.0726 9.05846
136 1 2.43582 14.0003 16.539
137 2 3.50483 18.2927 11.6993
138 2 1.87524 10.7909 13.9121
139 2 3.94073 13.4174 9.64398
140 2 1.48278 15.6521 15.9274
141 2 2.23821 17.9522 12.0472
142 2 3.14007 11.1421 13.5582
143 2 5.18706 13.0773 9.29277
144 2 9.11603 16.0009 16.3188
145 2 2.96473 16.5463 10.4331
146 2 2.44192 12.5241 15.138
147 2 4.53353 11.7271 10.8949
148 2 0.854713 17.3906 14.724
149 5 5.88476 10.421 13.7587
150 5 8.46576 18.6608 11.832
151 5 6.35849 15.2942 16.1109
152 5 7.95577 13.8006 9.48307
153 5 8.0103 10.0164 14.2988
154 5 6.30689 19.062 11.2909
155 5 4.26234 14.8764 15.5703
156 5 1.17669 14.2096 10.0417
157 3 3.95432 17.4217 10.7321
158 3 1.49556 11.6323 14.882
159 3 3.57464 12.5896 10.6057
160 3 1.82834 16.4703 15.0097
161 3 1.93249 16.8878 11.2654
162 3 3.44577 12.1984 14.3353
163 3 5.52396 12.0393 10.0413
164 3 8.80855 17.0394 15.5631
165 6 7.03839 9.97394 13.5013
166 6 7.28129 19.07 12.0974
167 6 5.23068 14.8393 16.3474
168 6 9.13837 14.2663 9.23253
169 4 4.88698 17.4235 10.2152
170 4 9.45849 11.6368 15.4305
171 4 2.59501 12.6964 11.1885
172 4 2.77576 16.4644 14.553
173 4 0.997693 16.3681 11.367
174 4 4.44787 12.7192 14.22
175 4 6.4227 11.5348 9.99785
176 4 7.81279 17.5957 15.5631
177 7 7.29884 13.3687 14.3496
178 8 6.79291 12.9967 15.1146
179 8 6.89423 12.9855 13.5623
180 7 6.90816 15.5946 12.4712
181 8 6.89186 16.5419 12.7682
182 8 7.75326 15.2162 12.5655
183 7 5.33899 4.93849 12.9164
184 8 4.39476 5.08088 12.8591
185 8 5.66426 5.70265 13.4216
186 7 7.12543 5.66572 11.2972
187 8 7.72621 5.60734 12.1096
188 8 7.62278 6.10159 10.7602
189 7 2.99516 4.85906 4.49899
190 8 2.94965 5.80065 4.35899
191 8 2.15902 4.65188 4.12119
192 7 4.64049 2.86675 4.19988
193 8 4.34707 2.92144 3.29666
194 8 5.21189 3.55435 4.47431
195 9 3.03449 9.59609 9.90058
196 10 3.31691 8.737 9.12261
197 10 2.68422 10.3984 10.621
198 9 9.0094 11.6701 10.5972
199 10 8.34024 11.3344 11.4742
200 10 0.801459 11.9527 9.72759
201 9 7.23372 6.75199 10.001
202 10 7.34877 6.28439 8.93778
203 10 7.1078 7.26797 11.0113
204 9 1.80114 10.5723 7.91042
205 10 1.0919 9.81981 7.42695
206 10 2.56874 11.2681 8.41951
207 9 6.29743 9.01348 7.22105
208 10 6.97493 9.24933 6.34796
209 10 5.6621 8.69776 8.13424
210 9 9.07983 7.78748 7.01768
211 10 0.954919 7.47994 6.22167
212 10 8.29155 8.00349 7.84241
ITEM: TIMESTEP
10
ITEM: NUMBER OF ATOMS
212
ITEM: BOX BOUNDS xy xz yz pp pp pp
-2.3607309130939669e-03 9.5468784325079863e+00 0.0000000000000000e+00
-5.1344529898180724e-03 1.9392133552989826e+01 6.3071750159488560e-01
-4.5189160814871343e-03 1.7067334016081489e+01 0.0000000000000000e+00
ITEM: ATOMS id type x y z
1 1 8.66427 0.536523 3.73588
2 1 5.02216 9.15533 4.78606
3 1 7.09462 5.39312 0.507477
4 1 6.5874 4.29877 8.0149
5 2 7.68267 8.59299 3.14634
6 2 6.0151 1.10805 5.40027
7 2 8.0894 3.72486 1.11094
8 2 5.60642 5.95545 7.40761
9 2 6.43495 8.23048 3.5208
10 2 7.3204 1.47542 4.99326
11 2 0.427613 3.39223 0.756121
12 2 4.35104 6.29011 7.80424
13 2 7.09051 6.86108 1.93666
14 2 6.60348 2.82037 6.62022
15 2 8.68937 1.99732 2.34726
16 2 4.99193 7.68893 6.1518
17 5 1.08592 0.749549 5.22801
18 5 3.69224 8.95048 3.30115
19 5 1.59197 5.60392 7.56665
20 5 3.15482 4.10198 0.982793
21 5 3.22153 0.311688 5.76131
22 5 1.53591 9.38443 2.75709
23 5 8.41989 5.14025 7.05597
24 5 5.2893 4.53575 1.50399
25 3 8.06513 7.74102 2.19782
26 3 5.60782 1.92505 6.35703
27 3 7.68736 2.89857 2.08447
28 3 5.98986 6.79914 6.43677
29 3 6.10619 7.16325 2.7688
30 3 7.57353 2.49201 5.7861
31 3 0.759191 2.34622 1.51462
32 3 3.9944 7.3793 7.00452
33 6 2.28186 0.316121 5.00583
34 6 2.50168 9.37721 3.55122
35 6 0.416694 5.16321 7.8061
36 6 4.33711 4.52793 0.720167
37 4 0.189276 7.77607 1.74226
38 4 4.61524 1.84369 6.81148
39 4 6.71268 2.99414 2.48101
40 4 6.975 6.78881 6.05087
41 4 5.1319 6.70918 2.79694
42 4 8.56925 2.8956 5.72478
43 4 1.68788 1.84399 1.48045
44 4 3.01452 7.91971 7.09125
45 1 4.51931 0.54186 12.2791
46 1 0.891065 9.14985 13.3145
47 1 2.96486 5.37492 9.04656
48 1 2.44279 4.29794 16.5442
49 2 3.53425 8.5811 11.7128
50 2 1.83145 1.09717 13.8832
51 2 3.93458 3.75735 9.67158
52 2 1.47744 5.96483 15.9514
53 2 2.24185 8.22717 12.0061
54 2 3.14011 1.41921 13.5746
55 2 5.2385 3.37622 9.29102
56 2 9.11422 6.32063 16.3284
57 2 2.92858 6.85217 10.4343
58 2 2.45142 2.85686 15.1772
59 2 4.51033 1.96921 10.8799
60 2 0.870035 7.66237 14.693
61 5 5.84997 0.7242 13.7583
62 5 8.46251 8.98979 11.8641
63 5 6.36463 5.59594 16.125
64 5 7.95269 4.08814 9.49506
65 5 7.98641 0.314504 14.2998
66 5 6.30781 9.38863 11.2817
67 5 4.2422 5.14789 15.5853
68 5 1.15534 4.53911 10.0408
69 3 3.97487 7.69701 10.8021
70 3 1.47623 1.93505 14.8554
71 3 3.5482 2.90009 10.5929
72 3 1.85519 6.80692 15.0043
73 3 1.93062 7.1792 11.2663
74 3 3.44506 2.50145 14.3109
75 3 5.5431 2.35706 10.0181
76 3 8.77655 7.35662 15.5373
77 6 7.00658 0.310613 13.5005
78 6 7.26736 9.36955 12.11
79 6 5.1998 5.18521 16.3307
80 6 9.12344 4.53785 9.25376
81 4 4.83261 7.76208 10.2256
82 4 9.44177 1.90175 15.3606
83 4 2.57197 2.9807 11.1549
84 4 2.78106 6.75517 14.4218
85 4 0.980648 6.67596 11.2686
86 4 4.37703 2.93118 14.2918
87 4 6.47766 1.77085 10.0413
88 4 7.86964 7.80011 15.6143
89 1 8.65346 10.2347 3.74435
90 1 5.03357 18.8463 4.7785
91 1 7.10177 15.081 0.522454
92 1 6.58967 13.9951 8.01352
93 2 7.69547 18.2926 3.14961
94 2 5.9869 10.8446 5.36188
95 2 8.08799 13.4223 1.09016
96 2 5.60377 15.656 7.38143
97 2 6.40684 17.9565 3.49074
98 2 7.29126 11.1734 5.00817
99 2 0.432748 13.0742 0.74963
100 2 4.341 16.04 7.77799
101 2 7.10341 16.5546 1.88911
102 2 6.611 12.5272 6.60563
103 2 8.64357 11.7078 2.36072
104 2 5.00951 17.3698 6.18459
105 5 1.10996 10.4397 5.21976
106 5 3.66335 18.6805 3.3005
107 5 1.60485 15.2903 7.57001
108 5 3.18459 13.813 0.957088
109 5 3.2188 10.0149 5.7967
110 5 1.52359 19.071 2.74178
111 5 8.37368 14.8578 7.01629
112 5 5.29928 14.2352 1.50565
113 3 8.06839 17.4572 2.19433
114 3 5.63295 11.6401 6.33888
115 3 7.6923 12.5991 2.07544
116 3 5.98176 16.4629 6.44441
117 3 6.08927 16.8818 2.76426
118 3 7.61882 12.1979 5.79226
119 3 0.725091 12.0233 1.53201
120 3 4.01359 17.0579 6.98178
121 6 2.27264 10.0177 4.97789
122 6 2.53225 19.0904 3.52576
123 6 0.415852 14.8569 7.84171
124 6 4.32592 14.2407 0.715044
125 4 0.138816 17.4091 1.7195
126 4 4.66048 11.5961 6.7053
127 4 6.71708 12.5668 2.61688
128 4 6.90535 16.3578 6.05722
129 4 5.19351 16.2894 2.72157
130 4 8.6563 12.8006 5.72356
131 4 1.70931 11.4588 1.4577
132 4 3.04026 17.6062 7.08416
133 1 4.50134 10.233 12.2697
134 1 0.885737 18.841 13.3293
135 1 2.94948 15.0713 9.05894
136 1 2.43516 14.0013 16.5393
137 2 3.50129 18.2943 11.7013
138 2 1.87623 10.7901 13.9123
139 2 3.94121 13.4157 9.6437
140 2 1.48424 15.653 15.9258
141 2 2.23496 17.9554 12.0486
142 2 3.14046 11.1409 13.5584
143 2 5.18503 13.0772 9.29266
144 2 9.11711 16.0012 16.3212
145 2 2.966 16.5461 10.4319
146 2 2.44092 12.5237 15.1372
147 2 4.53574 11.7302 10.8965
148 2 0.851723 17.3924 14.7258
149 5 5.88662 10.4193 13.759
150 5 8.46788 18.6631 11.8318
151 5 6.35663 15.2957 16.1124
152 5 7.95783 13.8013 9.48199
153 5 8.01027 10.0171 14.2982
154 5 6.30734 19.0614 11.2915
155 5 4.26552 14.8788 15.5725
156 5 1.17744 14.2087 10.0419
157 3 3.95742 17.4196 10.7334
158 3 1.49722 11.632 14.8834
159 3 3.5774 12.5895 10.6058
160 3 1.82538 16.4695 15.0123
161 3 1.93141 16.8889 11.2638
162 3 3.44434 12.1985 14.3379
163 3 5.52301 12.0399 10.0407
164 3 8.81108 17.0394 15.5653
165 6 7.0383 9.97149 13.5013
166 6 7.28197 19.0689 12.0983
167 6 5.23337 14.8391 16.347
168 6 9.14126 14.27 9.23193
169 4 4.88724 17.4159 10.2121
170 4 9.46299 11.6429 15.4389
171 4 2.59927 12.7016 11.1994
172 4 2.77178 16.4689 14.5575
173 4 0.997915 16.3677 11.3715
174 4 4.44978 12.7199 14.2154
175 4 6.41788 11.5352 9.99675
176 4 7.81248 17.5988 15.5609
177 7 7.30136 13.3688 14.3505
178 8 6.79393 12.9987 15.1146
179 8 6.88559 12.9908 13.5669
180 7 6.90872 15.5947 12.4724
181 8 6.88855 16.5419 12.7678
182 8 7.75457 15.2202 12.5579
183 7 5.3385 4.9367 12.9157
184 8 4.39569 5.08011 12.8646
185 8 5.6613 5.70987 13.4092
186 7 7.12614 5.66048 11.3005
187 8 7.7271 5.60528 12.1169
188 8 7.65291 6.06048 10.7837
189 7 2.99378 4.86014 4.49769
190 8 2.93462 5.80056 4.35611
191 8 2.1609 4.65999 4.11097
192 7 4.64159 2.86629 4.19874
193 8 4.35199 2.90938 3.29541
194 8 5.21265 3.55035 4.47341
195 9 3.03636 9.59968 9.90026
196 10 3.31303 8.74065 9.11337
197 10 2.68229 10.3979 10.6218
198 9 9.00819 11.6718 10.5967
199 10 8.34159 11.3351 11.4753
200 10 0.80147 11.9497 9.72631
201 9 7.23364 6.75359 9.99974
202 10 7.3509 6.2879 8.93575
203 10 7.105 7.272 11.0092
204 9 1.79964 10.5753 7.90781
205 10 1.09326 9.82004 7.42575
206 10 2.57033 11.2671 8.41856
207 9 6.29728 9.01689 7.222
208 10 6.97881 9.24384 6.35263
209 10 5.66363 8.69833 8.13654
210 9 9.08023 7.79185 7.01678
211 10 0.955009 7.47944 6.22071
212 10 8.29175 8.00297 7.84462
ITEM: TIMESTEP
11
ITEM: NUMBER OF ATOMS
212
ITEM: BOX BOUNDS xy xz yz pp pp pp
-2.8335147672438055e-03 9.5474180868733249e+00 0.0000000000000000e+00
-6.1627304864231292e-03 1.9393161830486431e+01 6.3078437210607363e-01
-5.4239199299708218e-03 1.7068239019929976e+01 0.0000000000000000e+00
ITEM: ATOMS id type x y z
1 1 8.66558 0.535061 3.73493
2 1 5.02115 9.15611 4.7856
3 1 7.09389 5.39289 0.505515
4 1 6.588 4.2983 8.01551
5 2 7.68324 8.59343 3.14573
6 2 6.01643 1.10757 5.40197
7 2 8.09069 3.72295 1.11006
8 2 5.60579 5.95541 7.40629
9 2 6.43761 8.23014 3.52222
10 2 7.32451 1.47631 4.98974
11 2 0.426797 3.3925 0.755087
12 2 4.35224 6.28835 7.80749
13 2 7.09037 6.86114 1.93842
14 2 6.60458 2.8185 6.62054
15 2 8.69209 1.99558 2.34656
16 2 4.98797 7.68842 6.14767
17 5 1.08489 0.749662 5.22794
18 5 3.69366 8.95049 3.30057
19 5 1.59047 5.60486 7.56641
20 5 3.15367 4.10156 0.98451
21 5 3.21973 0.310747 5.75988
22 5 1.53618 9.38511 2.75694
23 5 8.42443 5.13765 7.05894
24 5 5.28722 4.53599 1.50305
25 3 8.06547 7.74001 2.19818
26 3 5.60684 1.92281 6.3588
27 3 7.68741 2.89766 2.08489
28 3 5.98913 6.7994 6.43455
29 3 6.10853 7.16068 2.77057
30 3 7.57105 2.49036 5.78619
31 3 0.758894 2.34625 1.51407
32 3 3.99214 7.38138 7.0032
33 6 2.28272 0.316938 5.00851
34 6 2.50155 9.3758 3.55026
35 6 0.415534 5.16414 7.80459
36 6 4.33669 4.52607 0.720852
37 4 0.19323 7.7721 1.74551
38 4 4.61237 1.83986 6.8109
39 4 6.71104 2.99587 2.47484
40 4 6.97707 6.79428 6.05685
41 4 5.13145 6.71174 2.79685
42 4 8.57124 2.88429 5.72421
43 4 1.68686 1.8444 1.48058
44 4 3.01212 7.92398 7.09337
45 1 4.52007 0.540926 12.2797
46 1 0.890898 9.15009 13.3141
47 1 2.96511 5.37288 9.04581
48 1 2.44288 4.2974 16.545
49 2 3.53451 8.579 11.7175
50 2 1.82808 1.09591 13.8805
51 2 3.93466 3.75859 9.67394
52 2 1.47826 5.96585 15.9523
53 2 2.23925 8.22648 12.0037
54 2 3.14038 1.41463 13.5764
55 2 5.24148 3.37514 9.29071
56 2 9.11498 6.32176 16.3315
57 2 2.92617 6.85086 10.4338
58 2 2.45139 2.85846 15.1803
59 2 4.50933 1.96482 10.8795
60 2 0.868661 7.66031 14.6914
61 5 5.84822 0.721824 13.7585
62 5 8.46432 8.99371 11.8672
63 5 6.36348 5.59637 16.1277
64 5 7.95452 4.08583 9.4953
65 5 7.98394 0.313859 14.2994
66 5 6.30815 9.3902 11.2814
67 5 4.24298 5.14621 15.5887
68 5 1.15382 4.53969 10.0408
69 3 3.98151 7.68801 10.8151
70 3 1.47592 1.93403 14.8542
71 3 3.54791 2.89918 10.5919
72 3 1.85529 6.8086 15.0062
73 3 1.92937 7.17799 11.265
74 3 3.44322 2.50068 14.311
75 3 5.54423 2.35772 10.0156
76 3 8.77626 7.35681 15.5368
77 6 7.00353 0.310877 13.5005
78 6 7.26634 9.36715 12.1126
79 6 5.19941 5.18836 16.3291
80 6 9.12492 4.5367 9.25518
81 4 4.83088 7.75659 10.2247
82 4 9.44357 1.9029 15.3619
83 4 2.57295 2.98206 11.1609
84 4 2.77664 6.75689 14.414
85 4 0.978844 6.67585 11.2632
86 4 4.37627 2.92349 14.2944
87 4 6.4771 1.76579 10.044
88 4 7.87037 7.79581 15.6168
89 1 8.65368 10.2342 3.74426
90 1 5.03371 18.8473 4.77729
91 1 7.10176 15.0808 0.521973
92 1 6.59049 13.9955 8.01399
93 2 7.69721 18.2941 3.14936
94 2 5.98356 10.8518 5.35802
95 2 8.08913 13.4213 1.08724
96 2 5.60325 15.6572 7.37813
97 2 6.40679 17.96 3.48923
98 2 7.29278 11.1759 5.00566
99 2 0.43238 13.0739 0.747971
100 2 4.34139 16.0441 7.77878
101 2 7.10445 16.5553 1.8864
102 2 6.61294 12.5272 6.60446
103 2 8.64188 11.7082 2.36134
104 2 5.00834 17.3697 6.18477
105 5 1.11119 10.4402 5.21837
106 5 3.6622 18.6845 3.29975
107 5 1.60449 15.2912 7.57001
108 5 3.18621 13.8147 0.956281
109 5 3.21664 10.0154 5.79855
110 5 1.52275 19.0715 2.74016
111 5 8.37383 14.8582 7.01582
112 5 5.29811 14.2366 1.50482
113 3 8.06887 17.4587 2.19423
114 3 5.63438 11.6407 6.33847
115 3 7.69253 12.5993 2.07521
116 3 5.98026 16.4613 6.44322
117 3 6.09015 16.882 2.76519
118 3 7.62109 12.1983 5.79307
119 3 0.721717 12.0221 1.5331
120 3 4.0134 17.0596 6.97855
121 6 2.27298 10.0199 4.97808
122 6 2.53456 19.0917 3.52242
123 6 0.41417 14.8588 7.84313
124 6 4.3248 14.2413 0.715337
125 4 0.139951 17.4008 1.72045
126 4 4.6598 11.5989 6.69531
127 4 6.71764 12.5589 2.62161
128 4 6.90264 16.3523 6.06259
129 4 5.19836 16.2826 2.71533
130 4 8.66204 12.8069 5.72207
131 4 1.70693 11.4536 1.45603
132 4 3.03965 17.6111 7.08631
133 1 4.50031 10.2323 12.2694
134 1 0.885037 18.8415 13.3304
135 1 2.94819 15.0701 9.05943
136 1 2.43449 14.0022 16.5397
137 2 3.4978 18.2959 11.7034
138 2 1.87717 10.7892 13.9125
139 2 3.94166 13.4141 9.64343
140 2 1.48563 15.6539 15.9244
141 2 2.23165 17.9586 12.0501
142 2 3.14086 11.1397 13.5586
143 2 5.18308 13.0772 9.29252
144 2 9.11823 16.0015 16.3236
145 2 2.96725 16.5459 10.4307
146 2 2.43991 12.5234 15.1366
147 2 4.53809 11.7334 10.8982
148 2 0.84875 17.3944 14.7275
149 5 5.88855 10.4176 13.7593
150 5 8.46995 18.6656 11.8317
151 5 6.35477 15.2973 16.1139
152 5 7.96 13.8021 9.48091
153 5 8.01023 10.0179 14.2976
154 5 6.30785 19.061 11.2921
155 5 4.26872 14.8813 15.5748
156 5 1.17815 14.2079 10.042
157 3 3.96044 17.4176 10.7348
158 3 1.49884 11.6317 14.8849
159 3 3.58013 12.5896 10.6061
160 3 1.82237 16.4689 15.0148
161 3 1.93035 16.89 11.2624
162 3 3.44295 12.1987 14.3404
163 3 5.522 12.0405 10.0401
164 3 8.81357 17.0395 15.5676
165 6 7.03819 9.96908 13.5015
166 6 7.28271 19.0679 12.0992
167 6 5.23605 14.8389 16.3467
168 6 9.14405 14.2737 9.23142
169 4 4.88778 17.4084 10.209
170 4 9.46761 11.6489 15.4471
171 4 2.60423 12.7068 11.2099
172 4 2.76816 16.4736 14.5619
173 4 0.998022 16.3673 11.376
174 4 4.45108 12.7205 14.211
175 4 6.41361 11.5354 9.99551
176 4 7.81272 17.6015 15.559
177 7 7.30389 13.369 14.3515
178 8 6.79523 13.0009 15.1141
179 8 6.87699 12.9963 13.5716
180 7 6.90924 15.595 12.4737
181 8 6.88549 16.5413 12.7673
182 8 7.75649 15.2243 12.5506
183 7 5.33802 4.93488 12.9151
184 8 4.39657 5.07931 12.8702
185 8 5.65824 5.71682 13.3967
186 7 7.12679 5.65468 11.3042
187 8 7.72753 5.60287 12.1237
188 8 7.68647 6.01782 10.8075
189 7 2.99239 4.8612 4.49636
190 8 2.91977 5.80071 4.35333
191 8 2.16236 4.66763 4.10059
192 7 4.64263 2.86577 4.19751
193 8 4.35702 2.89761 3.29402
194 8 5.21359 3.54673 4.47237
195 9 3.03818 9.60327 9.89966
196 10 3.30896 8.74471 9.10373
197 10 2.68014 10.3974 10.6226
198 9 9.00705 11.6735 10.5963
199 10 8.34301 11.3359 11.4763
200 10 0.801433 11.9466 9.72505
201 9 7.23349 6.75544 9.99817
202 10 7.35304 6.29149 8.93384
203 10 7.10218 7.27627 11.007
204 9 1.79816 10.5783 7.90521
205 10 1.09455 9.82023 7.42463
206 10 2.5719 11.2661 8.41755
207 9 6.29721 9.02038 7.22313
208 10 6.98295 9.23805 6.35744
209 10 5.66525 8.69903 8.139
210 9 9.08069 7.79618 7.01588
211 10 0.955031 7.47896 6.21969
212 10 8.29204 8.00245 7.84682
ITEM: TIMESTEP
12
ITEM: NUMBER OF ATOMS
212
ITEM: BOX BOUNDS xy xz yz pp pp pp
-3.3441562957845505e-03 9.5480009534995443e+00 0.0000000000000000e+00
-7.2733462319085618e-03 1.9394272446231916e+01 6.3085659720375331e-01
-6.4013910184375078e-03 1.7069216491018445e+01 0.0000000000000000e+00
ITEM: ATOMS id type x y z
1 1 8.66693 0.533522 3.73395
2 1 5.02016 9.1569 4.78511
3 1 7.09319 5.39262 0.503488
4 1 6.58862 4.29778 8.01612
5 2 7.68386 8.5939 3.14509
6 2 6.01785 1.10693 5.40362
7 2 8.09197 3.72104 1.10911
8 2 5.60509 5.95527 7.40489
9 2 6.44021 8.22978 3.52361
10 2 7.32857 1.4771 4.98622
11 2 0.426004 3.39273 0.75397
12 2 4.35338 6.28659 7.81068
13 2 7.09028 6.86109 1.94006
14 2 6.60566 2.81662 6.62092
15 2 8.6948 1.99373 2.34586
16 2 4.98388 7.68778 6.14331
17 5 1.08393 0.749667 5.22785
18 5 3.69497 8.95053 3.29994
19 5 1.58887 5.6057 7.56619
20 5 3.1526 4.10113 0.986157
21 5 3.21795 0.30972 5.75845
22 5 1.53645 9.38578 2.75676
23 5 8.42896 5.13497 7.06183
24 5 5.28513 4.53619 1.50203
25 3 8.06589 7.73899 2.19847
26 3 5.60592 1.92051 6.3606
27 3 7.68756 2.89669 2.08523
28 3 5.98834 6.79954 6.43229
29 3 6.11088 7.15812 2.77232
30 3 7.56866 2.48865 5.78622
31 3 0.758536 2.34621 1.51347
32 3 3.98981 7.38332 7.00184
33 6 2.28341 0.317684 5.01108
34 6 2.50148 9.37437 3.54923
35 6 0.414538 5.16501 7.80313
36 6 4.33618 4.52416 0.721448
37 4 0.196486 7.76791 1.74884
38 4 4.60968 1.8362 6.81039
39 4 6.70921 2.99719 2.46899
40 4 6.97938 6.7998 6.06252
41 4 5.13093 6.71414 2.79669
42 4 8.57329 2.87325 5.72386
43 4 1.68615 1.84461 1.48056
44 4 3.01024 7.92793 7.09521
45 1 4.52082 0.539913 12.2805
46 1 0.8907 9.15033 13.3139
47 1 2.96534 5.37079 9.04507
48 1 2.44295 4.29683 16.546
49 2 3.53488 8.57672 11.7225
50 2 1.82472 1.09454 13.8779
51 2 3.93479 3.75982 9.67627
52 2 1.47906 5.96679 15.9533
53 2 2.2366 8.2258 12.0013
54 2 3.14064 1.40998 13.5783
55 2 5.24444 3.37408 9.29037
56 2 9.11576 6.32286 16.3346
57 2 2.92378 6.8494 10.4334
58 2 2.45133 2.86 15.1835
59 2 4.50835 1.96038 10.8792
60 2 0.867246 7.6583 14.6899
61 5 5.84652 0.719355 13.7588
62 5 8.46611 8.99764 11.8705
63 5 6.3623 5.59677 16.1304
64 5 7.95649 4.08342 9.49555
65 5 7.98145 0.313133 14.2989
66 5 6.30851 9.39187 11.2813
67 5 4.24375 5.1445 15.5922
68 5 1.15227 4.54024 10.0409
69 3 3.98821 7.67862 10.8286
70 3 1.47561 1.933 14.853
71 3 3.54758 2.89816 10.5909
72 3 1.85537 6.81028 15.0082
73 3 1.92812 7.17675 11.2637
74 3 3.4413 2.49983 14.3112
75 3 5.54534 2.3582 10.0133
76 3 8.7761 7.35693 15.5365
77 6 7.00053 0.31107 13.5005
78 6 7.26534 9.3647 12.1152
79 6 5.19907 5.19145 16.3277
80 6 9.1264 4.53544 9.2566
81 4 4.82995 7.75102 10.2239
82 4 9.44532 1.90402 15.3632
83 4 2.57437 2.98326 11.1667
84 4 2.77216 6.75852 14.4063
85 4 0.976867 6.67576 11.258
86 4 4.37616 2.91606 14.2971
87 4 6.47651 1.761 10.0464
88 4 7.87038 7.79204 15.6193
89 1 8.65395 10.2338 3.74412
90 1 5.03385 18.8484 4.77605
91 1 7.10177 15.0805 0.521423
92 1 6.59133 13.9959 8.01446
93 2 7.69898 18.2958 3.14909
94 2 5.98008 10.8592 5.35389
95 2 8.09025 13.4204 1.08426
96 2 5.60272 15.6585 7.37487
97 2 6.40672 17.9635 3.4877
98 2 7.29433 11.1785 5.00307
99 2 0.432017 13.0735 0.746237
100 2 4.34175 16.0483 7.77958
101 2 7.1055 16.5561 1.88365
102 2 6.61488 12.5273 6.60332
103 2 8.64022 11.7085 2.36195
104 2 5.00722 17.3697 6.18486
105 5 1.11244 10.4407 5.21687
106 5 3.66104 18.6887 3.29892
107 5 1.60401 15.2921 7.57
108 5 3.18785 13.8166 0.955419
109 5 3.21445 10.016 5.80032
110 5 1.52196 19.0721 2.73853
111 5 8.37407 14.8587 7.01539
112 5 5.29692 14.2379 1.50391
113 3 8.06938 17.4603 2.19402
114 3 5.63586 11.6413 6.33803
115 3 7.69277 12.5996 2.07494
116 3 5.9787 16.4598 6.44203
117 3 6.09111 16.8822 2.76599
118 3 7.62348 12.1988 5.79384
119 3 0.718365 12.0209 1.53411
120 3 4.01316 17.0614 6.97534
121 6 2.27327 10.0221 4.97824
122 6 2.53677 19.0931 3.51906
123 6 0.412551 14.8607 7.84443
124 6 4.3237 14.242 0.715573
125 4 0.140949 17.3925 1.7215
126 4 4.65871 11.6022 6.68567
127 4 6.71844 12.5513 2.62593
128 4 6.90072 16.3472 6.06732
129 4 5.20292 16.276 2.70938
130 4 8.6666 12.8125 5.72058
131 4 1.70398 11.4488 1.45436
132 4 3.03947 17.6159 7.08837
133 1 4.49929 10.2317 12.2692
134 1 0.884305 18.8421 13.3316
135 1 2.94689 15.0689 9.05992
136 1 2.43381 14.0032 16.5401
137 2 3.49436 18.2977 11.7054
138 2 1.87806 10.7883 13.9128
139 2 3.94206 13.4126 9.64316
140 2 1.48696 15.6548 15.9231
141 2 2.22828 17.9619 12.0517
142 2 3.14129 11.1385 13.5589
143 2 5.18121 13.0772 9.29235
144 2 9.11939 16.0018 16.3261
145 2 2.96847 16.5458 10.4295
146 2 2.43888 12.5233 15.136
147 2 4.54059 11.7366 10.8999
148 2 0.8458 17.3964 14.7293
149 5 5.89054 10.4158 13.7596
150 5 8.47197 18.6681 11.8315
151 5 6.3529 15.2989 16.1155
152 5 7.96229 13.803 9.47984
153 5 8.01019 10.0186 14.297
154 5 6.30843 19.0606 11.2928
155 5 4.27193 14.8839 15.5772
156 5 1.17881 14.2072 10.0421
157 3 3.96337 17.4156 10.7363
158 3 1.50042 11.6314 14.8864
159 3 3.58282 12.5899 10.6064
160 3 1.81931 16.4683 15.0174
161 3 1.92931 16.8912 11.2609
162 3 3.44162 12.1988 14.3429
163 3 5.52093 12.0411 10.0396
164 3 8.81601 17.0398 15.5698
165 6 7.03807 9.9667 13.5018
166 6 7.2835 19.0669 12.1001
167 6 5.23871 14.8388 16.3464
168 6 9.14675 14.2775 9.23099
169 4 4.88859 17.401 10.206
170 4 9.47236 11.6547 15.4551
171 4 2.6099 12.712 11.2202
172 4 2.76492 16.4784 14.5662
173 4 0.998021 16.3667 11.3804
174 4 4.45172 12.721 14.2069
175 4 6.40994 11.5353 9.99416
176 4 7.81355 17.6038 15.5573
177 7 7.30644 13.3693 14.3525
178 8 6.79683 13.0033 15.1133
179 8 6.86846 13.0018 13.5765
180 7 6.90973 15.5953 12.475
181 8 6.88268 16.54 12.7666
182 8 7.75904 15.2283 12.5434
183 7 5.33755 4.93302 12.9144
184 8 4.39737 5.07846 12.8757
185 8 5.65509 5.7235 13.3841
186 7 7.12736 5.64834 11.3083
187 8 7.72742 5.60009 12.1299
188 8 7.7235 5.97406 10.831
189 7 2.991 4.86225 4.495
190 8 2.90513 5.80114 4.35067
191 8 2.1634 4.67476 4.09003
192 7 4.6436 2.86517 4.1962
193 8 4.36214 2.88613 3.29248
194 8 5.21474 3.54352 4.47118
195 9 3.03996 9.60683 9.89878
196 10 3.30474 8.74914 9.09377
197 10 2.67776 10.3969 10.6233
198 9 9.00596 11.6752 10.5959
199 10 8.34451 11.337 11.4774
200 10 0.80135 11.9434 9.7238
201 9 7.23328 6.75752 9.99633
202 10 7.3552 6.29517 8.93206
203 10 7.09936 7.28072 11.0046
204 9 1.79671 10.5814 7.90261
205 10 1.09575 9.82039 7.42358
206 10 2.57347 11.2651 8.41649
207 9 6.2972 9.02397 7.22444
208 10 6.98735 9.23198 6.36236
209 10 5.66695 8.69987 8.14162
210 9 9.08121 7.80046 7.01496
211 10 0.954984 7.47852 6.21862
212 10 8.29239 8.00193 7.849
ITEM: TIMESTEP
13
ITEM: NUMBER OF ATOMS
212
ITEM: BOX BOUNDS xy xz yz pp pp pp
-3.8913651151046835e-03 9.5486255594912794e+00 0.0000000000000000e+00
-8.4634937166665480e-03 1.9395462593716672e+01 6.3093399437616804e-01
-7.4488592918626750e-03 1.7070263959291871e+01 0.0000000000000000e+00
ITEM: ATOMS id type x y z
1 1 8.66831 0.531909 3.73293
2 1 5.01916 9.15768 4.78458
3 1 7.0925 5.39232 0.501398
4 1 6.58925 4.29721 8.01673
5 2 7.68454 8.59441 3.14442
6 2 6.01937 1.10612 5.40521
7 2 8.09324 3.71915 1.10809
8 2 5.60435 5.95502 7.40341
9 2 6.44278 8.22942 3.52496
10 2 7.33259 1.47776 4.9827
11 2 0.425235 3.3929 0.752774
12 2 4.35444 6.28486 7.81382
13 2 7.09023 6.86093 1.94158
14 2 6.6067 2.81475 6.62134
15 2 8.69748 1.99177 2.34515
16 2 4.97968 7.68702 6.13872
17 5 1.08305 0.749568 5.22775
18 5 3.69619 8.9506 3.29928
19 5 1.58719 5.60645 7.56599
20 5 3.1516 4.10068 0.987738
21 5 3.21617 0.30861 5.75701
22 5 1.53673 9.38646 2.75657
23 5 8.43349 5.13224 7.06463
24 5 5.28304 4.53636 1.50094
25 3 8.06639 7.73798 2.1987
26 3 5.60506 1.91814 6.36243
27 3 7.68781 2.89566 2.08548
28 3 5.98747 6.79956 6.42998
29 3 6.11325 7.15558 2.77405
30 3 7.56635 2.48688 5.78618
31 3 0.758119 2.34612 1.51282
32 3 3.98744 7.38511 7.00045
33 6 2.28394 0.318361 5.01352
34 6 2.50149 9.3729 3.54815
35 6 0.413714 5.16582 7.80176
36 6 4.33557 4.52219 0.72195
37 4 0.199019 7.76348 1.75226
38 4 4.60718 1.83275 6.80996
39 4 6.70718 2.99806 2.46346
40 4 6.98191 6.80535 6.06787
41 4 5.13033 6.71638 2.79644
42 4 8.57537 2.86248 5.72375
43 4 1.68576 1.84462 1.48039
44 4 3.00887 7.93155 7.09677
45 1 4.52158 0.538824 12.2812
46 1 0.89047 9.15056 13.3136
47 1 2.96557 5.36867 9.04434
48 1 2.44301 4.29621 16.547
49 2 3.53536 8.57424 11.7277
50 2 1.82136 1.09307 13.8753
51 2 3.93497 3.76104 9.67856
52 2 1.47981 5.96764 15.9544
53 2 2.23391 8.22511 11.999
54 2 3.14089 1.40526 13.5801
55 2 5.24736 3.37305 9.29001
56 2 9.11657 6.32391 16.3378
57 2 2.92142 6.84779 10.433
58 2 2.45124 2.86149 15.1866
59 2 4.50738 1.95588 10.8788
60 2 0.865789 7.65634 14.6884
61 5 5.84488 0.716796 13.7592
62 5 8.4679 9.00156 11.8737
63 5 6.36109 5.59713 16.1331
64 5 7.95858 4.08091 9.4958
65 5 7.97895 0.312329 14.2985
66 5 6.30889 9.39363 11.2812
67 5 4.24451 5.14276 15.5958
68 5 1.15068 4.54076 10.0409
69 3 3.99495 7.66889 10.8425
70 3 1.47531 1.93195 14.8519
71 3 3.54722 2.89704 10.59
72 3 1.85543 6.81196 15.0102
73 3 1.92686 7.17545 11.2623
74 3 3.43931 2.49891 14.3114
75 3 5.54641 2.35849 10.011
76 3 8.77606 7.35697 15.5362
77 6 6.99758 0.311192 13.5006
78 6 7.26436 9.36219 12.1179
79 6 5.1988 5.19446 16.3265
80 6 9.12785 4.53408 9.25801
81 4 4.82977 7.74541 10.2232
82 4 9.44702 1.9051 15.3646
83 4 2.57626 2.98429 11.1722
84 4 2.76761 6.76004 14.3989
85 4 0.974714 6.6757 11.2528
86 4 4.37673 2.90889 14.2999
87 4 6.47588 1.7565 10.0486
88 4 7.86966 7.78881 15.6218
89 1 8.65424 10.2333 3.74395
90 1 5.03399 18.8497 4.77478
91 1 7.1018 15.0804 0.520805
92 1 6.59218 13.9963 8.01492
93 2 7.70077 18.2976 3.14881
94 2 5.97647 10.8668 5.34951
95 2 8.09137 13.4195 1.08123
96 2 5.60219 15.6597 7.37167
97 2 6.40663 17.9671 3.48615
98 2 7.29591 11.1811 5.00039
99 2 0.431658 13.0732 0.74443
100 2 4.3421 16.0525 7.78036
101 2 7.10656 16.557 1.88086
102 2 6.6168 12.5275 6.60222
103 2 8.6386 11.7088 2.36254
104 2 5.00616 17.3698 6.18485
105 5 1.11373 10.4412 5.21527
106 5 3.65986 18.6929 3.29803
107 5 1.6034 15.293 7.57
108 5 3.1895 13.8184 0.954506
109 5 3.21224 10.0165 5.80202
110 5 1.5212 19.0728 2.7369
111 5 8.37438 14.8591 7.01501
112 5 5.2957 14.2393 1.50291
113 3 8.06992 17.4619 2.19372
114 3 5.63738 11.642 6.33756
115 3 7.69302 12.5998 2.07464
116 3 5.97708 16.4584 6.44084
117 3 6.09216 16.8824 2.76666
118 3 7.626 12.1993 5.79458
119 3 0.71504 12.0197 1.53505
120 3 4.01285 17.0632 6.97217
121 6 2.27351 10.0242 4.97837
122 6 2.53886 19.0946 3.5157
123 6 0.411 14.8628 7.84561
124 6 4.32264 14.2427 0.715748
125 4 0.141804 17.3845 1.72266
126 4 4.6572 11.6058 6.67639
127 4 6.71949 12.5439 2.62982
128 4 6.8996 16.3425 6.07139
129 4 5.20717 16.2698 2.70376
130 4 8.66994 12.8174 5.71911
131 4 1.70044 11.4443 1.45268
132 4 3.03972 17.6206 7.09033
133 1 4.49828 10.231 12.2691
134 1 0.883542 18.8428 13.3329
135 1 2.94559 15.0678 9.06041
136 1 2.43311 14.0042 16.5406
137 2 3.49099 18.2996 11.7075
138 2 1.8789 10.7874 13.9131
139 2 3.94243 13.4113 9.64289
140 2 1.48822 15.6556 15.9219
141 2 2.22487 17.9653 12.0532
142 2 3.14174 11.1373 13.5592
143 2 5.17942 13.0772 9.29215
144 2 9.12059 16.0021 16.3287
145 2 2.96967 16.5457 10.4283
146 2 2.43784 12.5232 15.1356
147 2 4.54322 11.7398 10.9017
148 2 0.842877 17.3985 14.7311
149 5 5.89259 10.4141 13.76
150 5 8.47395 18.6708 11.8314
151 5 6.35102 15.3006 16.1171
152 5 7.9647 13.804 9.47876
153 5 8.01015 10.0194 14.2963
154 5 6.30906 19.0603 11.2936
155 5 4.27515 14.8865 15.5797
156 5 1.17944 14.2067 10.0422
157 3 3.9662 17.4137 10.7378
158 3 1.50195 11.6311 14.888
159 3 3.58548 12.5903 10.6068
160 3 1.8162 16.468 15.02
161 3 1.92829 16.8925 11.2595
162 3 3.44035 12.199 14.3454
163 3 5.51981 12.0417 10.0391
164 3 8.8184 17.0401 15.5722
165 6 7.03793 9.96437 13.5022
166 6 7.28434 19.0659 12.1009
167 6 5.24136 14.8387 16.3463
168 6 9.14933 14.2813 9.23065
169 4 4.8897 17.394 10.203
170 4 9.47723 11.6605 15.4628
171 4 2.61631 12.7171 11.2301
172 4 2.76207 16.4832 14.5704
173 4 0.997923 16.3661 11.3847
174 4 4.45168 12.7215 14.2031
175 4 6.40688 11.535 9.99267
176 4 7.81499 17.6058 15.5559
177 7 7.30899 13.3695 14.3536
178 8 6.7987 13.006 15.1121
179 8 6.85999 13.0073 13.5816
180 7 6.91019 15.5958 12.4763
181 8 6.88011 16.5382 12.7658
182 8 7.76223 15.2323 12.5366
183 7 5.33709 4.93114 12.9139
184 8 4.39805 5.07755 12.8814
185 8 5.65187 5.72989 13.3715
186 7 7.12786 5.64148 11.3127
187 8 7.72668 5.5969 12.1358
188 8 7.76395 5.92951 10.8539
189 7 2.98961 4.86327 4.4936
190 8 2.89073 5.80185 4.34816
191 8 2.16401 4.68135 4.07931
192 7 4.64452 2.86452 4.19479
193 8 4.36737 2.87495 3.29075
194 8 5.21614 3.54077 4.46984
195 9 3.0417 9.61036 9.89762
196 10 3.30037 8.75391 9.08355
197 10 2.67517 10.3964 10.6241
198 9 9.00492 11.677 10.5954
199 10 8.34609 11.3382 11.4785
200 10 0.801218 11.9401 9.72256
201 9 7.23301 6.75979 9.99424
202 10 7.35738 6.29895 8.93041
203 10 7.09653 7.28535 11.0022
204 9 1.79529 10.5845 7.90002
205 10 1.09688 9.82051 7.42262
206 10 2.57502 11.2642 8.41538
207 9 6.29726 9.02762 7.22593
208 10 6.99199 9.22568 6.36737
209 10 5.66874 8.70083 8.14439
210 9 9.08178 7.80469 7.01403
211 10 0.954865 7.47811 6.2175
212 10 8.29283 8.0014 7.85118
ITEM: TIMESTEP
14
ITEM: NUMBER OF ATOMS
212
ITEM: BOX BOUNDS xy xz yz pp pp pp
-4.4738685226084485e-03 9.5492904521349775e+00 0.0000000000000000e+00
-9.7304048862714154e-03 1.9396729504886281e+01 6.3101638361236256e-01
-8.5638885402588016e-03 1.7071378988540268e+01 0.0000000000000000e+00
ITEM: ATOMS id type x y z
1 1 8.66973 0.530224 3.73187
2 1 5.01818 9.15846 4.78402
3 1 7.09184 5.39198 0.499248
4 1 6.58991 4.29659 8.01733
5 2 7.68528 8.59497 3.14372
6 2 6.02098 1.10514 5.40674
7 2 8.09449 3.71727 1.10701
8 2 5.60355 5.95466 7.40187
9 2 6.44529 8.22903 3.52628
10 2 7.33655 1.47831 4.97918
11 2 0.424494 3.39302 0.7515
12 2 4.35542 6.28316 7.8169
13 2 7.09023 6.86067 1.94297
14 2 6.6077 2.81288 6.62182
15 2 8.70015 1.98972 2.34444
16 2 4.97538 7.68616 6.13392
17 5 1.08224 0.749367 5.22763
18 5 3.6973 8.95068 3.29857
19 5 1.58542 5.6071 7.5658
20 5 3.15068 4.10021 0.989254
21 5 3.2144 0.307422 5.75558
22 5 1.53702 9.38714 2.75636
23 5 8.43801 5.12944 7.06734
24 5 5.28095 4.53649 1.49978
25 3 8.06696 7.73697 2.19886
26 3 5.60426 1.91572 6.36429
27 3 7.68816 2.89458 2.08563
28 3 5.98652 6.79947 6.42763
29 3 6.11564 7.15306 2.77577
30 3 7.56415 2.48505 5.78608
31 3 0.757644 2.34598 1.51211
32 3 3.98501 7.38674 6.99903
33 6 2.2843 0.318968 5.01581
34 6 2.50156 9.37142 3.54702
35 6 0.413069 5.16657 7.80047
36 6 4.33487 4.52018 0.722353
37 4 0.200811 7.75881 1.75577
38 4 4.60488 1.82949 6.8096
39 4 6.70496 2.99849 2.45827
40 4 6.98467 6.81094 6.07291
41 4 5.12967 6.71845 2.79611
42 4 8.57748 2.85201 5.72389
43 4 1.68568 1.84443 1.48007
44 4 3.00802 7.93482 7.098
45 1 4.52234 0.53766 12.282
46 1 0.89021 9.15079 13.3135
47 1 2.96578 5.36652 9.04361
48 1 2.44305 4.29554 16.548
49 2 3.53595 8.57159 11.7331
50 2 1.81801 1.09148 13.8727
51 2 3.9352 3.76224 9.68081
52 2 1.48053 5.9684 15.9555
53 2 2.23118 8.22442 11.9969
54 2 3.14113 1.40047 13.5821
55 2 5.25023 3.37205 9.28961
56 2 9.11741 6.32493 16.3411
57 2 2.9191 6.84604 10.4327
58 2 2.45112 2.86292 15.1899
59 2 4.50644 1.95134 10.8785
60 2 0.864292 7.65444 14.687
61 5 5.8433 0.71415 13.7596
62 5 8.46968 9.00549 11.877
63 5 6.35986 5.59746 16.1358
64 5 7.96082 4.0783 9.49605
65 5 7.97643 0.311449 14.298
66 5 6.30928 9.39548 11.2812
67 5 4.24526 5.14099 15.5993
68 5 1.14906 4.54124 10.041
69 3 4.00169 7.65886 10.8566
70 3 1.475 1.9309 14.8509
71 3 3.54682 2.89582 10.5892
72 3 1.85548 6.81365 15.0122
73 3 1.92558 7.17412 11.261
74 3 3.43723 2.49791 14.3117
75 3 5.54744 2.35859 10.009
76 3 8.77615 7.35694 15.5359
77 6 6.99468 0.311243 13.5009
78 6 7.2634 9.35964 12.1206
79 6 5.19859 5.19739 16.3255
80 6 9.12929 4.53262 9.25941
81 4 4.83028 7.7398 10.2225
82 4 9.44865 1.90613 15.366
83 4 2.57862 2.98518 11.1774
84 4 2.76298 6.76144 14.3917
85 4 0.97239 6.67569 11.2477
86 4 4.37797 2.90199 14.3028
87 4 6.4752 1.75231 10.0504
88 4 7.8682 7.78614 15.6242
89 1 8.65457 10.2328 3.74374
90 1 5.03414 18.8509 4.77348
91 1 7.10186 15.0802 0.520121
92 1 6.59304 13.9967 8.01538
93 2 7.70259 18.2996 3.1485
94 2 5.97277 10.8747 5.34491
95 2 8.09246 13.4187 1.07815
96 2 5.60163 15.6608 7.36852
97 2 6.40653 17.9708 3.48458
98 2 7.29752 11.1838 4.99764
99 2 0.431307 13.073 0.742555
100 2 4.34243 16.0567 7.78114
101 2 7.10762 16.5578 1.87804
102 2 6.61872 12.5279 6.60116
103 2 8.63702 11.709 2.36312
104 2 5.00516 17.3701 6.18474
105 5 1.11503 10.4418 5.21356
106 5 3.65869 18.6971 3.29706
107 5 1.60266 15.2939 7.57
108 5 3.19116 13.8203 0.953544
109 5 3.21 10.017 5.80365
110 5 1.5205 19.0735 2.73527
111 5 8.37477 14.8596 7.01468
112 5 5.29445 14.2408 1.50183
113 3 8.07049 17.4635 2.19331
114 3 5.63894 11.6427 6.33706
115 3 7.69329 12.6001 2.07433
116 3 5.97539 16.4571 6.43965
117 3 6.09329 16.8827 2.7672
118 3 7.62865 12.2 5.79528
119 3 0.711748 12.0185 1.5359
120 3 4.01248 17.0651 6.96904
121 6 2.27371 10.0264 4.97847
122 6 2.54082 19.0962 3.51233
123 6 0.409521 14.865 7.84667
124 6 4.32161 14.2435 0.71586
125 4 0.142511 17.3766 1.72396
126 4 4.65527 11.6099 6.66749
127 4 6.72078 12.5367 2.63325
128 4 6.8993 16.3381 6.07478
129 4 5.21111 16.264 2.69849
130 4 8.67204 12.8215 5.71764
131 4 1.69629 11.4401 1.45099
132 4 3.04043 17.6253 7.09219
133 1 4.49726 10.2304 12.2689
134 1 0.882748 18.8435 13.3342
135 1 2.94427 15.0667 9.06091
136 1 2.43239 14.0053 16.5412
137 2 3.48769 18.3015 11.7095
138 2 1.87968 10.7864 13.9135
139 2 3.94274 13.41 9.64263
140 2 1.4894 15.6564 15.9209
141 2 2.2214 17.9686 12.0548
142 2 3.1422 11.1361 13.5595
143 2 5.17772 13.0773 9.29192
144 2 9.12185 16.0025 16.3313
145 2 2.97084 16.5455 10.4271
146 2 2.4368 12.5233 15.1353
147 2 4.54599 11.743 10.9037
148 2 0.839986 17.4007 14.733
149 5 5.8947 10.4124 13.7605
150 5 8.47586 18.6735 11.8314
151 5 6.34915 15.3023 16.1188
152 5 7.96723 13.8051 9.47768
153 5 8.0101 10.0201 14.2958
154 5 6.30976 19.0601 11.2945
155 5 4.27838 14.8891 15.5822
156 5 1.18002 14.2062 10.0423
157 3 3.96893 17.4119 10.7393
158 3 1.50344 11.6309 14.8897
159 3 3.5881 12.5908 10.6072
160 3 1.81303 16.4677 15.0225
161 3 1.9273 16.8939 11.2581
162 3 3.43915 12.1992 14.3478
163 3 5.51864 12.0424 10.0386
164 3 8.82073 17.0406 15.5745
165 6 7.03777 9.96207 13.5028
166 6 7.28523 19.065 12.1017
167 6 5.24398 14.8387 16.3462
168 6 9.15181 14.2851 9.23039
169 4 4.89109 17.3871 10.2001
170 4 9.48223 11.6661 15.4703
171 4 2.62348 12.7222 11.2396
172 4 2.75962 16.4882 14.5744
173 4 0.997739 16.3653 11.389
174 4 4.45094 12.7218 14.1995
175 4 6.40444 11.5344 9.99106
176 4 7.81705 17.6072 15.5547
177 7 7.31156 13.3697 14.3548
178 8 6.80083 13.0088 15.1105
179 8 6.85159 13.0129 13.5867
180 7 6.91061 15.5963 12.4777
181 8 6.87781 16.5358 12.7649
182 8 7.76604 15.2363 12.5299
183 7 5.33664 4.92923 12.9134
184 8 4.39859 5.07659 12.887
185 8 5.6486 5.73601 13.3588
186 7 7.12829 5.63413 11.3175
187 8 7.72524 5.59329 12.1412
188 8 7.80756 5.88432 10.8759
189 7 2.9882 4.86429 4.49216
190 8 2.8766 5.80285 4.3458
191 8 2.16422 4.68736 4.06843
192 7 4.64536 2.86379 4.19331
193 8 4.3727 2.86407 3.28881
194 8 5.2178 3.53848 4.46835
195 9 3.0434 9.61384 9.89619
196 10 3.29589 8.75898 9.07315
197 10 2.67236 10.396 10.6248
198 9 9.00394 11.6787 10.595
199 10 8.34773 11.3396 11.4795
200 10 0.801038 11.9367 9.72134
201 9 7.23271 6.76225 9.99192
202 10 7.35956 6.3028 8.92889
203 10 7.09369 7.29011 10.9996
204 9 1.79391 10.5877 7.89744
205 10 1.09793 9.8206 7.42173
206 10 2.57657 11.2633 8.41422
207 9 6.29736 9.03134 7.22762
208 10 6.99686 9.21917 6.37244
209 10 5.67061 8.70192 8.1473
210 9 9.0824 7.80887 7.0131
211 10 0.954674 7.47774 6.21633
212 10 8.29334 8.00087 7.85333
ITEM: TIMESTEP
15
ITEM: NUMBER OF ATOMS
212
ITEM: BOX BOUNDS xy xz yz pp pp pp
-5.0904135672169559e-03 9.5499942012622601e+00 0.0000000000000000e+00
-1.1071354644707654e-02 1.9398070454644717e+01 6.3110358769503483e-01
-9.7440803620347793e-03 1.7072559180362042e+01 0.0000000000000000e+00
ITEM: ATOMS id type x y z
1 1 8.67118 0.52847 3.73077
2 1 5.01719 9.15923 4.78344
3 1 7.0912 5.39161 0.49704
4 1 6.59058 4.29594 8.01792
5 2 7.68608 8.59556 3.14299
6 2 6.02269 1.104 5.40822
7 2 8.09572 3.71541 1.10586
8 2 5.60269 5.95419 7.40024
9 2 6.44776 8.22863 3.52755
10 2 7.34045 1.47875 4.97567
11 2 0.423783 3.3931 0.750152
12 2 4.35633 6.28149 7.81991
13 2 7.09027 6.86029 1.94424
14 2 6.60865 2.81101 6.62236
15 2 8.70279 1.98756 2.34374
16 2 4.97099 7.68518 6.12892
17 5 1.08151 0.749066 5.22749
18 5 3.6983 8.95079 3.29782
19 5 1.58357 5.60765 7.56563
20 5 3.14983 4.09973 0.990706
21 5 3.21265 0.306158 5.75416
22 5 1.53732 9.38782 2.75613
23 5 8.44251 5.12659 7.06995
24 5 5.27885 4.53659 1.49856
25 3 8.06761 7.73596 2.19897
26 3 5.60353 1.91325 6.36617
27 3 7.68862 2.89344 2.0857
28 3 5.9855 6.79928 6.42524
29 3 6.11803 7.15057 2.77748
30 3 7.56204 2.48317 5.7859
31 3 0.757115 2.34578 1.51136
32 3 3.98253 7.3882 6.99759
33 6 2.28449 0.319506 5.01796
34 6 2.50171 9.36991 3.54583
35 6 0.41261 5.16726 7.79927
36 6 4.33408 4.51813 0.722654
37 4 0.201854 7.75393 1.75937
38 4 4.60278 1.82644 6.80933
39 4 6.70256 2.99846 2.45342
40 4 6.98764 6.81655 6.07764
41 4 5.12896 6.72037 2.79568
42 4 8.57959 2.84186 5.7243
43 4 1.68593 1.84404 1.4796
44 4 3.00768 7.93774 7.09889
45 1 4.52309 0.536426 12.2828
46 1 0.88992 9.15101 13.3133
47 1 2.96598 5.36433 9.04288
48 1 2.44308 4.29484 16.5492
49 2 3.53663 8.56876 11.7388
50 2 1.81467 1.0898 13.8701
51 2 3.93549 3.76342 9.68302
52 2 1.4812 5.96908 15.9568
53 2 2.22841 8.22374 11.9948
54 2 3.14136 1.39561 13.584
55 2 5.25307 3.37109 9.28918
56 2 9.11827 6.32592 16.3444
57 2 2.91683 6.84417 10.4325
58 2 2.45097 2.86429 15.1931
59 2 4.50553 1.94676 10.8781
60 2 0.862754 7.65259 14.6855
61 5 5.84177 0.711422 13.76
62 5 8.47144 9.00942 11.8804
63 5 6.35859 5.59775 16.1386
64 5 7.96318 4.0756 9.49631
65 5 7.9739 0.310498 14.2976
66 5 6.3097 9.39744 11.2812
67 5 4.24599 5.1392 15.6029
68 5 1.14741 4.54169 10.041
69 3 4.0084 7.64857 10.8711
70 3 1.47471 1.92984 14.85
71 3 3.54639 2.89448 10.5885
72 3 1.85551 6.81534 15.0142
73 3 1.9243 7.17274 11.2598
74 3 3.43509 2.49683 14.312
75 3 5.54845 2.3585 10.0071
76 3 8.77636 7.35682 15.5358
77 6 6.99184 0.311223 13.5012
78 6 7.26247 9.35706 12.1233
79 6 5.19843 5.20025 16.3247
80 6 9.13069 4.53106 9.26078
81 4 4.83144 7.73422 10.222
82 4 9.45022 1.9071 15.3674
83 4 2.58146 2.98592 11.1823
84 4 2.75829 6.7627 14.3848
85 4 0.969896 6.67573 11.2427
86 4 4.37987 2.89535 14.3058
87 4 6.47448 1.74846 10.0518
88 4 7.86602 7.78403 15.6266
89 1 8.65494 10.2324 3.74349
90 1 5.03429 18.8523 4.77215
91 1 7.10194 15.0801 0.519375
92 1 6.59392 13.9972 8.01583
93 2 7.70442 18.3016 3.14819
94 2 5.96899 10.8827 5.34009
95 2 8.09353 13.4181 1.07502
96 2 5.60106 15.662 7.36543
97 2 6.40641 17.9746 3.48299
98 2 7.29914 11.1866 4.99483
99 2 0.430964 13.0727 0.740615
100 2 4.34275 16.061 7.78191
101 2 7.1087 16.5587 1.87519
102 2 6.62063 12.5282 6.60014
103 2 8.63547 11.7092 2.36369
104 2 5.00421 17.3705 6.18453
105 5 1.11636 10.4423 5.21174
106 5 3.65751 18.7014 3.29602
107 5 1.60181 15.2949 7.57001
108 5 3.19283 13.8223 0.952538
109 5 3.20773 10.0175 5.8052
110 5 1.51984 19.0743 2.73364
111 5 8.37523 14.8601 7.0144
112 5 5.29318 14.2422 1.50066
113 3 8.07109 17.4651 2.19279
114 3 5.64054 11.6435 6.33652
115 3 7.69357 12.6003 2.07399
116 3 5.97364 16.4559 6.43846
117 3 6.09451 16.8829 2.7676
118 3 7.63144 12.2007 5.79594
119 3 0.70849 12.0174 1.53667
120 3 4.01204 17.0671 6.96594
121 6 2.27386 10.0287 4.97854
122 6 2.54265 19.098 3.50897
123 6 0.408116 14.8673 7.8476
124 6 4.32062 14.2443 0.715907
125 4 0.143067 17.3689 1.7254
126 4 4.65291 11.6143 6.65897
127 4 6.72232 12.5298 2.63621
128 4 6.89982 16.3342 6.07749
129 4 5.21474 16.2586 2.69358
130 4 8.67287 12.8249 5.7162
131 4 1.69152 11.4363 1.44932
132 4 3.0416 17.6299 7.09394
133 1 4.49625 10.2297 12.2688
134 1 0.881924 18.8443 13.3355
135 1 2.94294 15.0656 9.06141
136 1 2.43167 14.0064 16.5418
137 2 3.48445 18.3036 11.7116
138 2 1.88042 10.7854 13.9139
139 2 3.94302 13.4089 9.64238
140 2 1.49051 15.6571 15.9201
141 2 2.21788 17.972 12.0564
142 2 3.1427 11.135 13.5599
143 2 5.17612 13.0774 9.29165
144 2 9.12314 16.0028 16.334
145 2 2.97199 16.5454 10.4259
146 2 2.43575 12.5234 15.1351
147 2 4.54889 11.7463 10.9057
148 2 0.837131 17.403 14.7348
149 5 5.89687 10.4106 13.761
150 5 8.47773 18.6763 11.8313
151 5 6.34729 15.3041 16.1206
152 5 7.96988 13.8062 9.4766
153 5 8.01005 10.0208 14.2952
154 5 6.31052 19.0599 11.2954
155 5 4.28162 14.8917 15.5848
156 5 1.18057 14.2059 10.0423
157 3 3.97156 17.4101 10.7409
158 3 1.50489 11.6307 14.8914
159 3 3.59067 12.5915 10.6078
160 3 1.80983 16.4677 15.025
161 3 1.92632 16.8954 11.2567
162 3 3.43803 12.1993 14.3503
163 3 5.51742 12.0431 10.0382
164 3 8.82299 17.0413 15.5769
165 6 7.03761 9.9598 13.5034
166 6 7.28616 19.0642 12.1024
167 6 5.24657 14.8386 16.3462
168 6 9.15417 14.2889 9.23023
169 4 4.89277 17.3806 10.1972
170 4 9.48736 11.6716 15.4775
171 4 2.6314 12.7273 11.2488
172 4 2.75756 16.4932 14.5783
173 4 0.997481 16.3645 11.3931
174 4 4.44947 12.722 14.1963
175 4 6.40263 11.5335 9.98932
176 4 7.81973 17.6082 15.5538
177 7 7.31414 13.3699 14.356
178 8 6.80321 13.0118 15.1087
179 8 6.84328 13.0186 13.592
180 7 6.91099 15.5969 12.4791
181 8 6.87576 16.533 12.7639
182 8 7.77046 15.2403 12.5234
183 7 5.3362 4.9273 12.9129
184 8 4.39895 5.07556 12.8927
185 8 5.64529 5.74185 13.346
186 7 7.12867 5.62634 11.3226
187 8 7.72307 5.58926 12.1464
188 8 7.85389 5.83851 10.8971
189 7 2.98678 4.86529 4.49069
190 8 2.86278 5.80413 4.34364
191 8 2.16405 4.69277 4.05739
192 7 4.64615 2.86299 4.19174
193 8 4.37813 2.85352 3.28664
194 8 5.21973 3.53668 4.46672
195 9 3.04507 9.61726 9.89449
196 10 3.29131 8.76434 9.0626
197 10 2.66936 10.3956 10.6255
198 9 9.00303 11.6805 10.5946
199 10 8.34944 11.3411 11.4806
200 10 0.800809 11.9332 9.72014
201 9 7.23237 6.76488 9.98942
202 10 7.36175 6.30673 8.9275
203 10 7.09086 7.29499 10.9969
204 9 1.79257 10.5909 7.89487
205 10 1.0989 9.82066 7.42091
206 10 2.5781 11.2624 8.413
207 9 6.29749 9.03511 7.22949
208 10 7.00193 9.2125 6.37755
209 10 5.67256 8.70314 8.15035
210 9 9.08308 7.813 7.01216
211 10 0.954409 7.4774 6.21512
212 10 8.29394 8.00034 7.85546
ITEM: TIMESTEP
16
ITEM: NUMBER OF ATOMS
212
ITEM: BOX BOUNDS xy xz yz pp pp pp
-5.7397701082750885e-03 9.5507354027414699e+00 0.0000000000000000e+00
-1.2483667507304119e-02 1.9399482767507315e+01 6.3119543263318723e-01
-1.0987080019358331e-02 1.7073802180019364e+01 0.0000000000000000e+00
ITEM: ATOMS id type x y z
1 1 8.67266 0.526651 3.72963
2 1 5.01622 9.16001 4.78282
3 1 7.09058 5.3912 0.494778
4 1 6.59127 4.29523 8.01852
5 2 7.68693 8.59618 3.14225
6 2 6.02451 1.10271 5.40963
7 2 8.09693 3.71357 1.10466
8 2 5.60179 5.95361 7.39855
9 2 6.45017 8.22822 3.52879
10 2 7.34427 1.47907 4.97218
11 2 0.423104 3.39313 0.748732
12 2 4.35716 6.27986 7.82285
13 2 7.09036 6.85979 1.94539
14 2 6.60957 2.80914 6.62295
15 2 8.7054 1.98532 2.34303
16 2 4.96652 7.68411 6.12373
17 5 1.08085 0.748668 5.22734
18 5 3.6992 8.95092 3.29703
19 5 1.58164 5.60811 7.56547
20 5 3.14906 4.09923 0.992097
21 5 3.21092 0.30482 5.75276
22 5 1.53762 9.3885 2.75589
23 5 8.44698 5.12367 7.07245
24 5 5.27676 4.53666 1.49727
25 3 8.06834 7.73496 2.19901
26 3 5.60286 1.91072 6.36809
27 3 7.68919 2.89225 2.08568
28 3 5.9844 6.79897 6.42281
29 3 6.12044 7.14811 2.77919
30 3 7.56004 2.48123 5.78566
31 3 0.756534 2.34553 1.51057
32 3 3.98001 7.38951 6.99612
33 6 2.28451 0.319974 5.01995
34 6 2.50193 9.36838 3.54461
35 6 0.41234 5.16789 7.79818
36 6 4.33318 4.51604 0.72285
37 4 0.202147 7.74881 1.76307
38 4 4.60089 1.82361 6.80914
39 4 6.69999 2.99797 2.44891
40 4 6.9908 6.82218 6.08205
41 4 5.12821 6.72212 2.79517
42 4 8.5817 2.83204 5.72501
43 4 1.68648 1.84347 1.47898
44 4 3.00784 7.94029 7.09941
45 1 4.52384 0.535122 12.2836
46 1 0.889602 9.15123 13.3132
47 1 2.96617 5.36211 9.04217
48 1 2.44309 4.2941 16.5503
49 2 3.53741 8.56576 11.7446
50 2 1.81134 1.08802 13.8676
51 2 3.93585 3.76458 9.68518
52 2 1.48184 5.96967 15.9581
53 2 2.2256 8.22306 11.9928
54 2 3.14156 1.3907 13.586
55 2 5.25585 3.37017 9.28872
56 2 9.11915 6.32688 16.3477
57 2 2.91461 6.84218 10.4323
58 2 2.45078 2.8656 15.1964
59 2 4.50463 1.94216 10.8777
60 2 0.861176 7.6508 14.684
61 5 5.84029 0.708614 13.7605
62 5 8.47319 9.01334 11.8838
63 5 6.35731 5.59802 16.1414
64 5 7.96567 4.07282 9.49658
65 5 7.97134 0.309478 14.2972
66 5 6.31013 9.39949 11.2814
67 5 4.2467 5.13739 15.6065
68 5 1.14574 4.54211 10.0411
69 3 4.01507 7.63803 10.8857
70 3 1.47441 1.92878 14.8492
71 3 3.54592 2.89304 10.5879
72 3 1.85552 6.81705 15.0162
73 3 1.92301 7.17131 11.2585
74 3 3.43287 2.49568 14.3124
75 3 5.54941 2.35821 10.0053
76 3 8.77669 7.35662 15.5357
77 6 6.98906 0.311133 13.5016
78 6 7.26156 9.35444 12.1261
79 6 5.19834 5.20301 16.3241
80 6 9.13207 4.5294 9.26212
81 4 4.83317 7.72869 10.2216
82 4 9.45172 1.90802 15.3688
83 4 2.58477 2.98652 11.1868
84 4 2.75351 6.7638 14.3781
85 4 0.967237 6.67585 11.2377
86 4 4.38242 2.88898 14.3089
87 4 6.47371 1.74495 10.0529
88 4 7.86311 7.78247 15.6289
89 1 8.65533 10.2319 3.7432
90 1 5.03444 18.8537 4.77079
91 1 7.10203 15.0801 0.518567
92 1 6.59482 13.9978 8.01628
93 2 7.70627 18.3038 3.14786
94 2 5.96516 10.8908 5.33508
95 2 8.09458 13.4174 1.07185
96 2 5.60047 15.6631 7.36241
97 2 6.40628 17.9784 3.48139
98 2 7.30078 11.1894 4.99196
99 2 0.430629 13.0725 0.738613
100 2 4.34305 16.0652 7.78267
101 2 7.10977 16.5596 1.87232
102 2 6.62253 12.5287 6.59917
103 2 8.63396 11.7093 2.36426
104 2 5.00333 17.3711 6.18422
105 5 1.11771 10.4429 5.20983
106 5 3.65635 18.7058 3.29491
107 5 1.60083 15.2958 7.57002
108 5 3.19451 13.8242 0.951489
109 5 3.20545 10.018 5.80668
110 5 1.51923 19.0752 2.73202
111 5 8.37576 14.8606 7.01417
112 5 5.29189 14.2437 1.49942
113 3 8.07171 17.4668 2.19217
114 3 5.64218 11.6443 6.33596
115 3 7.69386 12.6006 2.07363
116 3 5.97183 16.4548 6.43727
117 3 6.09582 16.8832 2.76786
118 3 7.63436 12.2016 5.79657
119 3 0.705271 12.0162 1.53737
120 3 4.01152 17.0691 6.9629
121 6 2.27398 10.0309 4.97858
122 6 2.54434 19.0998 3.50563
123 6 0.406789 14.8697 7.8484
124 6 4.31968 14.2451 0.715887
125 4 0.143468 17.3614 1.72702
126 4 4.65016 11.6192 6.65082
127 4 6.7241 12.5232 2.63867
128 4 6.90113 16.3306 6.07951
129 4 5.21805 16.2536 2.68905
130 4 8.67245 12.8274 5.71478
131 4 1.68614 11.4329 1.44766
132 4 3.04325 17.6344 7.09556
133 1 4.49525 10.2291 12.2688
134 1 0.881072 18.8452 13.3368
135 1 2.94161 15.0646 9.06191
136 1 2.43093 14.0075 16.5425
137 2 3.48129 18.3057 11.7136
138 2 1.8811 10.7844 13.9144
139 2 3.94324 13.4079 9.64213
140 2 1.49154 15.6578 15.9194
141 2 2.21432 17.9755 12.058
142 2 3.14321 11.1339 13.5604
143 2 5.17461 13.0776 9.29135
144 2 9.12449 16.0032 16.3367
145 2 2.97311 16.5453 10.4247
146 2 2.43468 12.5237 15.135
147 2 4.55191 11.7495 10.9078
148 2 0.834315 17.4054 14.7367
149 5 5.8991 10.4088 13.7615
150 5 8.47954 18.6792 11.8313
151 5 6.34544 15.3059 16.1224
152 5 7.97264 13.8075 9.47552
153 5 8.01001 10.0215 14.2946
154 5 6.31134 19.0598 11.2964
155 5 4.28486 14.8944 15.5874
156 5 1.18108 14.2058 10.0423
157 3 3.97407 17.4084 10.7426
158 3 1.50628 11.6304 14.8932
159 3 3.59319 12.5923 10.6084
160 3 1.80657 16.4678 15.0275
161 3 1.92537 16.897 11.2554
162 3 3.43697 12.1995 14.3527
163 3 5.51614 12.0438 10.0378
164 3 8.82518 17.042 15.5794
165 6 7.03742 9.95757 13.5042
166 6 7.28713 19.0634 12.1031
167 6 5.24913 14.8386 16.3463
168 6 9.15641 14.2928 9.23016
169 4 4.89473 17.3743 10.1944
170 4 9.49261 11.6769 15.4844
171 4 2.64006 12.7323 11.2575
172 4 2.75591 16.4983 14.582
173 4 0.997167 16.3636 11.3971
174 4 4.44727 12.7222 14.1933
175 4 6.40145 11.5323 9.98745
176 4 7.82302 17.6088 15.5532
177 7 7.31673 13.3701 14.3573
178 8 6.80581 13.015 15.1066
179 8 6.83506 13.0243 13.5974
180 7 6.91135 15.5976 12.4805
181 8 6.87396 16.5297 12.7628
182 8 7.77542 15.2443 12.5172
183 7 5.33577 4.92535 12.9125
184 8 4.39911 5.07445 12.8983
185 8 5.64197 5.7474 13.3332
186 7 7.12903 5.61814 11.328
187 8 7.72012 5.58481 12.1515
188 8 7.90232 5.79204 10.9175
189 7 2.98534 4.86628 4.48919
190 8 2.8493 5.8057 4.34169
191 8 2.16354 4.69755 4.04622
192 7 4.64687 2.86213 4.1901
193 8 4.38366 2.84328 3.28422
194 8 5.22194 3.53536 4.46492
195 9 3.04672 9.62061 9.89251
196 10 3.28664 8.76996 9.05195
197 10 2.66616 10.3952 10.6262
198 9 9.00217 11.6822 10.5942
199 10 8.35122 11.3428 11.4816
200 10 0.800532 11.9296 9.71896
201 9 7.232 6.76765 9.98676
202 10 7.36396 6.31075 8.92624
203 10 7.08804 7.29996 10.9941
204 9 1.79128 10.5941 7.89231
205 10 1.0998 9.82068 7.42018
206 10 2.57962 11.2615 8.41173
207 9 6.29766 9.03892 7.23155
208 10 7.00721 9.20568 6.38268
209 10 5.67458 8.70448 8.15352
210 9 9.08382 7.81708 7.01121
211 10 0.954068 7.47711 6.21386
212 10 8.29462 7.99981 7.85757
ITEM: TIMESTEP
17
ITEM: NUMBER OF ATOMS
212
ITEM: BOX BOUNDS xy xz yz pp pp pp
-6.4207344945952372e-03 9.5515126826770924e+00 0.0000000000000000e+00
-1.3964725602450656e-02 1.9400963825602460e+01 6.3129174818249034e-01
-1.2290583480593753e-02 1.7075105683480597e+01 0.0000000000000000e+00
ITEM: ATOMS id type x y z
1 1 8.67417 0.524768 3.72847
2 1 5.01524 9.16077 4.78218
3 1 7.08998 5.39077 0.492462
4 1 6.59197 4.29449 8.0191
5 2 7.68784 8.59685 3.14147
6 2 6.02643 1.10125 5.41098
7 2 8.09812 3.71175 1.1034
8 2 5.60085 5.95292 7.3968
9 2 6.45252 8.22778 3.52999
10 2 7.348 1.47928 4.9687
11 2 0.422459 3.39311 0.747244
12 2 4.3579 6.27828 7.82571
13 2 7.0905 6.85919 1.94641
14 2 6.61043 2.80728 6.62361
15 2 8.70797 1.98298 2.34233
16 2 4.96197 7.68296 6.11836
17 5 1.08027 0.748175 5.22718
18 5 3.7 8.95108 3.29621
19 5 1.57963 5.60849 7.56532
20 5 3.14837 4.09872 0.993427
21 5 3.20922 0.303412 5.75137
22 5 1.53793 9.38918 2.75563
23 5 8.45142 5.1207 7.07485
24 5 5.27468 4.5367 1.49593
25 3 8.06914 7.73396 2.199
26 3 5.60226 1.90815 6.37003
27 3 7.68986 2.89101 2.08557
28 3 5.98321 6.79856 6.42035
29 3 6.12284 7.14568 2.78089
30 3 7.55816 2.47924 5.78534
31 3 0.755904 2.34523 1.50973
32 3 3.97745 7.39064 6.99465
33 6 2.28434 0.320373 5.02178
34 6 2.50223 9.36682 3.54334
35 6 0.412265 5.16845 7.7972
36 6 4.33219 4.51391 0.722936
37 4 0.201699 7.74349 1.76686
38 4 4.59922 1.82099 6.80903
39 4 6.69727 2.99699 2.44475
40 4 6.99412 6.82782 6.08615
41 4 5.12743 6.72371 2.79456
42 4 8.58378 2.82257 5.72602
43 4 1.68733 1.84273 1.47821
44 4 3.00847 7.94247 7.09954
45 1 4.52459 0.533752 12.2845
46 1 0.889256 9.15145 13.3131
47 1 2.96636 5.35986 9.04145
48 1 2.44309 4.29333 16.5516
49 2 3.53828 8.5626 11.7506
50 2 1.80803 1.08614 13.8651
51 2 3.93627 3.76573 9.6873
52 2 1.48243 5.97017 15.9596
53 2 2.22277 8.22238 11.9909
54 2 3.14175 1.38574 13.588
55 2 5.25857 3.36929 9.28823
56 2 9.12006 6.3278 16.3511
57 2 2.91246 6.84009 10.4322
58 2 2.45057 2.86685 15.1997
59 2 4.50377 1.93752 10.8773
60 2 0.859559 7.64907 14.6826
61 5 5.83886 0.705731 13.761
62 5 8.47491 9.01725 11.8872
63 5 6.356 5.59827 16.1442
64 5 7.96829 4.06995 9.49684
65 5 7.96877 0.308393 14.2968
66 5 6.31058 9.40165 11.2817
67 5 4.24739 5.13556 15.6102
68 5 1.14405 4.54249 10.0412
69 3 4.02167 7.62729 10.9004
70 3 1.47413 1.92774 14.8485
71 3 3.54543 2.89149 10.5873
72 3 1.85553 6.81876 15.0182
73 3 1.9217 7.16984 11.2572
74 3 3.43059 2.49447 14.3129
75 3 5.55034 2.35771 10.0037
76 3 8.77714 7.35634 15.5357
77 6 6.98635 0.310971 13.502
78 6 7.26067 9.3518 12.1289
79 6 5.1983 5.20569 16.3237
80 6 9.13342 4.52766 9.26343
81 4 4.8354 7.72325 10.2214
82 4 9.45317 1.90888 15.3702
83 4 2.58855 2.98698 11.1911
84 4 2.74867 6.76475 14.3718
85 4 0.964418 6.67605 11.2328
86 4 4.3856 2.88286 14.3122
87 4 6.4729 1.74181 10.0536
88 4 7.85953 7.78146 15.6312
89 1 8.65575 10.2315 3.74288
90 1 5.03459 18.8552 4.76941
91 1 7.10215 15.0801 0.517701
92 1 6.59573 13.9983 8.01672
93 2 7.70814 18.306 3.14752
94 2 5.96129 10.899 5.32988
95 2 8.0956 13.4169 1.06864
96 2 5.59985 15.6641 7.35945
97 2 6.40613 17.9823 3.47977
98 2 7.30242 11.1922 4.98903
99 2 0.430305 13.0723 0.736552
100 2 4.34333 16.0695 7.78342
101 2 7.11085 16.5605 1.86943
102 2 6.62442 12.5293 6.59824
103 2 8.63248 11.7094 2.36481
104 2 5.00251 17.3718 6.18381
105 5 1.11909 10.4435 5.20781
106 5 3.65519 18.7102 3.29372
107 5 1.59972 15.2968 7.57003
108 5 3.19618 13.8262 0.950401
109 5 3.20315 10.0185 5.80809
110 5 1.51868 19.0761 2.73041
111 5 8.37637 14.8612 7.01399
112 5 5.29057 14.2452 1.49811
113 3 8.07237 17.4684 2.19145
114 3 5.64384 11.6451 6.33538
115 3 7.69416 12.6008 2.07326
116 3 5.96996 16.4537 6.43607
117 3 6.09722 16.8835 2.76799
118 3 7.6374 12.2025 5.79716
119 3 0.702093 12.015 1.53797
120 3 4.01094 17.0711 6.9599
121 6 2.27406 10.0331 4.97857
122 6 2.54588 19.1018 3.50232
123 6 0.40554 14.8722 7.84907
124 6 4.31879 14.246 0.715797
125 4 0.143714 17.3542 1.72881
126 4 4.64703 11.6245 6.64303
127 4 6.72612 12.5169 2.64061
128 4 6.90321 16.3275 6.08084
129 4 5.22106 16.249 2.68492
130 4 8.67079 12.8292 5.71339
131 4 1.68014 11.4298 1.44603
132 4 3.04538 17.6388 7.09707
133 1 4.49425 10.2285 12.2687
134 1 0.880191 18.8462 13.3382
135 1 2.94026 15.0636 9.06241
136 1 2.43018 14.0087 16.5432
137 2 3.47821 18.3079 11.7156
138 2 1.88174 10.7833 13.9149
139 2 3.94341 13.407 9.64188
140 2 1.49248 15.6584 15.9189
141 2 2.21071 17.9789 12.0596
142 2 3.14375 11.1327 13.5608
143 2 5.17319 13.0778 9.29101
144 2 9.12588 16.0036 16.3395
145 2 2.9742 16.5451 10.4235
146 2 2.43362 12.5241 15.135
147 2 4.55505 11.7528 10.9099
148 2 0.831543 17.4078 14.7386
149 5 5.90137 10.407 13.762
150 5 8.48129 18.6822 11.8314
151 5 6.3436 15.3078 16.1242
152 5 7.97553 13.8088 9.47444
153 5 8.00995 10.0222 14.294
154 5 6.31222 19.0598 11.2975
155 5 4.28811 14.8971 15.5901
156 5 1.18155 14.2057 10.0423
157 3 3.97648 17.4068 10.7443
158 3 1.50763 11.6303 14.8951
159 3 3.59566 12.5933 10.6091
160 3 1.80328 16.468 15.0299
161 3 1.92445 16.8987 11.2541
162 3 3.43599 12.1997 14.3551
163 3 5.51482 12.0446 10.0374
164 3 8.8273 17.0429 15.5818
165 6 7.03723 9.95538 13.5051
166 6 7.28813 19.0627 12.1038
167 6 5.25165 14.8387 16.3464
168 6 9.15852 14.2967 9.23018
169 4 4.89696 17.3683 10.1918
170 4 9.49797 11.682 15.491
171 4 2.64947 12.7373 11.2658
172 4 2.75464 16.5034 14.5857
173 4 0.996811 16.3625 11.401
174 4 4.44434 12.7223 14.1907
175 4 6.40089 11.5309 9.98545
176 4 7.82691 17.6089 15.5529
177 7 7.31933 13.3704 14.3586
178 8 6.80861 13.0184 15.1044
179 8 6.82696 13.0302 13.6028
180 7 6.91167 15.5984 12.4819
181 8 6.87243 16.526 12.7616
182 8 7.78086 15.2484 12.5111
183 7 5.33535 4.92339 12.9121
184 8 4.39905 5.07326 12.904
185 8 5.63865 5.75267 13.3204
186 7 7.12942 5.60956 11.3337
187 8 7.71637 5.57996 12.1564
188 8 7.95216 5.74486 10.9374
189 7 2.98388 4.86728 4.48765
190 8 2.83617 5.80752 4.33997
191 8 2.16275 4.70169 4.03493
192 7 4.64752 2.86121 4.18839
193 8 4.3893 2.83337 3.28155
194 8 5.22443 3.53452 4.46296
195 9 3.04833 9.62387 9.89027
196 10 3.2819 8.77582 9.04125
197 10 2.66277 10.3948 10.6269
198 9 9.00137 11.6839 10.5938
199 10 8.35305 11.3447 11.4827
200 10 0.800205 11.9258 9.71779
201 9 7.23161 6.77055 9.98395
202 10 7.36617 6.31483 8.92511
203 10 7.08522 7.30499 10.9911
204 9 1.79002 10.5974 7.88976
205 10 1.10062 9.82068 7.41952
206 10 2.58113 11.2607 8.41041
207 9 6.29785 9.04278 7.23381
208 10 7.01266 9.19875 6.38782
209 10 5.67667 8.70593 8.15682
210 9 9.0846 7.82109 7.01027
211 10 0.953651 7.47686 6.21257
212 10 8.29539 7.99927 7.85965
ITEM: TIMESTEP
18
ITEM: NUMBER OF ATOMS
212
ITEM: BOX BOUNDS xy xz yz pp pp pp
-7.1321332147675776e-03 9.5523247015763584e+00 0.0000000000000000e+00
-1.5511976610806499e-02 1.9402511076610818e+01 6.3139236836158241e-01
-1.3652344407732997e-02 1.7076467444407736e+01 0.0000000000000000e+00
ITEM: ATOMS id type x y z
1 1 8.67572 0.522824 3.72726
2 1 5.01428 9.16154 4.78151
3 1 7.0894 5.3903 0.490097
4 1 6.59269 4.29371 8.01969
5 2 7.68881 8.59755 3.14068
6 2 6.02845 1.09964 5.41226
7 2 8.09928 3.70995 1.10208
8 2 5.59986 5.95213 7.39498
9 2 6.45482 8.22733 3.53116
10 2 7.35165 1.47937 4.96524
11 2 0.42185 3.39304 0.745689
12 2 4.35856 6.27676 7.82849
13 2 7.09068 6.85848 1.9473
14 2 6.61124 2.80542 6.62432
15 2 8.71051 1.98056 2.34163
16 2 4.95735 7.68171 6.11282
17 5 1.07977 0.74759 5.22701
18 5 3.70069 8.95126 3.29534
19 5 1.57755 5.60877 7.56519
20 5 3.14776 4.0982 0.994697
21 5 3.20754 0.301936 5.75001
22 5 1.53825 9.38985 2.75535
23 5 8.45582 5.11767 7.07714
24 5 5.2726 4.53671 1.49453
25 3 8.07002 7.73297 2.19894
26 3 5.60172 1.90553 6.37199
27 3 7.69064 2.88971 2.08537
28 3 5.98194 6.79805 6.41784
29 3 6.12525 7.14328 2.7826
30 3 7.55639 2.4772 5.78494
31 3 0.75523 2.34488 1.50884
32 3 3.97486 7.3916 6.99317
33 6 2.284 0.320702 5.02342
34 6 2.5026 9.36525 3.54204
35 6 0.412386 5.16895 7.79635
36 6 4.33111 4.51176 0.72291
37 4 0.200525 7.73795 1.77073
38 4 4.59776 1.8186 6.80902
39 4 6.69441 2.99553 2.44094
40 4 6.99759 6.83347 6.08994
41 4 5.12664 6.72515 2.79386
42 4 8.58582 2.81345 5.72734
43 4 1.68847 1.84182 1.47729
44 4 3.00954 7.94427 7.09927
45 1 4.52534 0.532318 12.2854
46 1 0.888883 9.15167 13.313
47 1 2.96653 5.35759 9.04075
48 1 2.44307 4.29252 16.5529
49 2 3.53923 8.55928 11.7568
50 2 1.80475 1.08418 13.8626
51 2 3.93677 3.76685 9.68937
52 2 1.48298 5.97059 15.9611
53 2 2.2199 8.22171 11.9891
54 2 3.14192 1.38073 13.5901
55 2 5.26123 3.36846 9.28771
56 2 9.121 6.32869 16.3544
57 2 2.91038 6.83788 10.4322
58 2 2.45032 2.86803 15.203
59 2 4.50293 1.93288 10.8769
60 2 0.857902 7.64739 14.6812
61 5 5.83747 0.702774 13.7616
62 5 8.47661 9.02116 11.8907
63 5 6.35468 5.59849 16.1469
64 5 7.97103 4.067 9.49712
65 5 7.96618 0.307244 14.2963
66 5 6.31104 9.40391 11.282
67 5 4.24806 5.13371 15.6138
68 5 1.14233 4.54286 10.0412
69 3 4.02819 7.61635 10.9152
70 3 1.47385 1.9267 14.8479
71 3 3.5449 2.88984 10.5869
72 3 1.85552 6.82049 15.0202
73 3 1.92038 7.16833 11.2559
74 3 3.42824 2.49318 14.3134
75 3 5.55123 2.35701 10.0023
76 3 8.7777 7.35598 15.5358
77 6 6.98371 0.310737 13.5025
78 6 7.25982 9.34914 12.1318
79 6 5.19831 5.20827 16.3235
80 6 9.13473 4.52583 9.2647
81 4 4.83806 7.71792 10.2214
82 4 9.45454 1.90968 15.3716
83 4 2.59279 2.98732 11.1949
84 4 2.74374 6.76551 14.3658
85 4 0.961446 6.67634 11.2279
86 4 4.38937 2.87698 14.3155
87 4 6.47205 1.73904 10.0539
88 4 7.85529 7.781 15.6333
89 1 8.6562 10.2311 3.74253
90 1 5.03475 18.8568 4.768
91 1 7.10229 15.0801 0.516777
92 1 6.59664 13.9989 8.01716
93 2 7.71002 18.3084 3.14717
94 2 5.95741 10.9073 5.32451
95 2 8.09659 13.4165 1.0654
96 2 5.59921 15.6652 7.35656
97 2 6.40597 17.9862 3.47813
98 2 7.30406 11.1951 4.98606
99 2 0.42999 13.0721 0.734437
100 2 4.3436 16.0738 7.78415
101 2 7.11194 16.5615 1.86652
102 2 6.62629 12.53 6.59735
103 2 8.63104 11.7094 2.36537
104 2 5.00175 17.3726 6.18329
105 5 1.12047 10.4441 5.2057
106 5 3.65406 18.7147 3.29246
107 5 1.59849 15.2977 7.57005
108 5 3.19785 13.8282 0.949277
109 5 3.20083 10.019 5.80942
110 5 1.51819 19.0771 2.7288
111 5 8.37705 14.8618 7.01386
112 5 5.28923 14.2468 1.49672
113 3 8.07305 17.47 2.19062
114 3 5.64554 11.646 6.33478
115 3 7.69447 12.6011 2.07287
116 3 5.96803 16.4527 6.43486
117 3 6.09871 16.8838 2.76797
118 3 7.64057 12.2035 5.7977
119 3 0.698956 12.0139 1.5385
120 3 4.01027 17.0732 6.95696
121 6 2.2741 10.0353 4.97852
122 6 2.54726 19.104 3.49903
123 6 0.404373 14.8748 7.84962
124 6 4.31796 14.247 0.715634
125 4 0.143806 17.3472 1.73079
126 4 4.64353 11.6302 6.63562
127 4 6.72836 12.511 2.64204
128 4 6.90603 16.3248 6.08151
129 4 5.22377 16.2449 2.68121
130 4 8.66792 12.8303 5.71202
131 4 1.67355 11.427 1.44442
132 4 3.04798 17.6432 7.09844
133 1 4.49325 10.2279 12.2687
134 1 0.879283 18.8472 13.3396
135 1 2.93891 15.0627 9.06292
136 1 2.42942 14.0099 16.544
137 2 3.47522 18.3102 11.7176
138 2 1.88231 10.7821 13.9154
139 2 3.94354 13.4062 9.64164
140 2 1.49334 15.659 15.9186
141 2 2.20705 17.9824 12.0612
142 2 3.1443 11.1317 13.5614
143 2 5.17187 13.078 9.29064
144 2 9.12733 16.0041 16.3423
145 2 2.97526 16.545 10.4224
146 2 2.43255 12.5246 15.1352
147 2 4.5583 11.756 10.9122
148 2 0.828818 17.4103 14.7404
149 5 5.90368 10.4053 13.7626
150 5 8.48299 18.6853 11.8314
151 5 6.34178 15.3097 16.1261
152 5 7.97852 13.8102 9.47336
153 5 8.0099 10.0229 14.2934
154 5 6.31316 19.0598 11.2986
155 5 4.29136 14.8999 15.5929
156 5 1.18199 14.2058 10.0423
157 3 3.97877 17.4052 10.7461
158 3 1.50894 11.6301 14.897
159 3 3.59809 12.5944 10.6099
160 3 1.79995 16.4685 15.0322
161 3 1.92355 16.9004 11.2529
162 3 3.43508 12.1998 14.3574
163 3 5.51346 12.0453 10.0371
164 3 8.82934 17.0439 15.5843
165 6 7.03703 9.95323 13.5062
166 6 7.28917 19.062 12.1044
167 6 5.25412 14.8387 16.3467
168 6 9.16052 14.3005 9.23031
169 4 4.89944 17.3626 10.1893
170 4 9.50343 11.6868 15.4972
171 4 2.65959 12.7422 11.2736
172 4 2.75375 16.5087 14.5892
173 4 0.996432 16.3614 11.4048
174 4 4.4407 12.7223 14.1884
175 4 6.40094 11.5292 9.98332
176 4 7.83137 17.6085 15.5529
177 7 7.32194 13.3706 14.3599
178 8 6.81157 13.0219 15.1021
179 8 6.81897 13.0361 13.6083
180 7 6.91197 15.5992 12.4833
181 8 6.87114 16.5221 12.7604
182 8 7.78672 15.2526 12.5052
183 7 5.33494 4.9214 12.9118
184 8 4.39874 5.07196 12.9097
185 8 5.63534 5.75766 13.3075
186 7 7.12987 5.60065 11.3396
187 8 7.71179 5.57474 12.1614
188 8 8.00272 5.69694 10.9568
189 7 2.98239 4.86827 4.48607
190 8 2.82343 5.80957 4.3385
191 8 2.16173 4.70517 4.02355
192 7 4.64811 2.86022 4.18661
193 8 4.39505 2.82379 3.27862
194 8 5.22718 3.53413 4.46082
195 9 3.04992 9.62704 9.88776
196 10 3.27708 8.78191 9.03053
197 10 2.65921 10.3944 10.6276
198 9 9.00064 11.6857 10.5934
199 10 8.35495 11.3467 11.4837
200 10 0.79983 11.922 9.71664
201 9 7.2312 6.77359 9.98102
202 10 7.36838 6.31899 8.9241
203 10 7.08242 7.31007 10.988
204 9 1.78881 10.6007 7.88723
205 10 1.10136 9.82064 7.41893
206 10 2.58263 11.2599 8.40903
207 9 6.29806 9.04666 7.23625
208 10 7.01829 9.19172 6.39295
209 10 5.67882 8.7075 8.16023
210 9 9.08543 7.82505 7.00932
211 10 0.953156 7.47666 6.21124
212 10 8.29624 7.99874 7.8617
ITEM: TIMESTEP
19
ITEM: NUMBER OF ATOMS
212
ITEM: BOX BOUNDS xy xz yz pp pp pp
-7.8728262837586271e-03 9.5531701582148365e+00 0.0000000000000000e+00
-1.7122941130955027e-02 1.9404122041130968e+01 6.3149713193107004e-01
-1.5070180639023434e-02 1.7077885280639027e+01 0.0000000000000000e+00
ITEM: ATOMS id type x y z
1 1 8.67729 0.520822 3.72603
2 1 5.01331 9.16231 4.78082
3 1 7.08884 5.3898 0.487684
4 1 6.59343 4.29289 8.02027
5 2 7.68983 8.59829 3.13987
6 2 6.03058 1.09788 5.41347
7 2 8.10041 3.70817 1.10071
8 2 5.59883 5.95123 7.3931
9 2 6.45707 8.22686 3.53229
10 2 7.3552 1.47936 4.96182
11 2 0.421278 3.39293 0.744072
12 2 4.35914 6.2753 7.83118
13 2 7.09091 6.85765 1.94808
14 2 6.61199 2.80357 6.6251
15 2 8.713 1.97805 2.34094
16 2 4.95268 7.6804 6.10713
17 5 1.07936 0.746916 5.22683
18 5 3.70128 8.95146 3.29444
19 5 1.5754 5.60897 7.56508
20 5 3.14722 4.09768 0.995911
21 5 3.20589 0.300396 5.74867
22 5 1.53858 9.39053 2.75505
23 5 8.46018 5.11459 7.07931
24 5 5.27052 4.5367 1.49308
25 3 8.07096 7.73198 2.19882
26 3 5.60125 1.90288 6.37398
27 3 7.69152 2.88837 2.08509
28 3 5.98059 6.79745 6.4153
29 3 6.12766 7.14092 2.78432
30 3 7.55474 2.47512 5.78447
31 3 0.754515 2.34449 1.50791
32 3 3.97225 7.39238 6.99168
33 6 2.28347 0.320961 5.02489
34 6 2.50305 9.36367 3.54072
35 6 0.412704 5.16939 7.79563
36 6 4.32992 4.50958 0.722767
37 4 0.19865 7.73221 1.77467
38 4 4.59653 1.81643 6.8091
39 4 6.69144 2.99358 2.43748
40 4 7.00116 6.8391 6.09344
41 4 5.12585 6.72644 2.79306
42 4 8.5878 2.8047 5.729
43 4 1.68988 1.84077 1.47623
44 4 3.01103 7.94569 7.09856
45 1 4.52608 0.530821 12.2863
46 1 0.888483 9.15188 13.313
47 1 2.96669 5.35528 9.04005
48 1 2.44305 4.29167 16.5543
49 2 3.54026 8.5558 11.7632
50 2 1.80149 1.08213 13.8602
51 2 3.93735 3.76796 9.69139
52 2 1.48349 5.97093 15.9626
53 2 2.21701 8.22105 11.9874
54 2 3.14206 1.37567 13.5921
55 2 5.26382 3.36769 9.28716
56 2 9.12197 6.32956 16.3579
57 2 2.90838 6.83559 10.4323
58 2 2.45004 2.86915 15.2063
59 2 4.50213 1.92822 10.8764
60 2 0.856208 7.64577 14.6798
61 5 5.83613 0.699749 13.7622
62 5 8.47829 9.02505 11.8942
63 5 6.35334 5.59869 16.1497
64 5 7.97389 4.06398 9.49739
65 5 7.96357 0.306036 14.2959
66 5 6.31152 9.40628 11.2824
67 5 4.24871 5.13184 15.6174
68 5 1.1406 4.54319 10.0413
69 3 4.03462 7.60525 10.9301
70 3 1.47358 1.92568 14.8474
71 3 3.54435 2.88808 10.5865
72 3 1.8555 6.82224 15.0222
73 3 1.91905 7.16678 11.2546
74 3 3.42583 2.49183 14.3139
75 3 5.55207 2.35611 10.001
76 3 8.77837 7.35555 15.536
77 6 6.98115 0.310432 13.5031
78 6 7.259 9.34647 12.1346
79 6 5.19837 5.21076 16.3236
80 6 9.13601 4.52392 9.26592
81 4 4.84106 7.7127 10.2217
82 4 9.45586 1.9104 15.3729
83 4 2.59746 2.98755 11.1985
84 4 2.73874 6.76609 14.3601
85 4 0.958328 6.67675 11.2231
86 4 4.39368 2.87133 14.3189
87 4 6.47117 1.73664 10.0539
88 4 7.85044 7.78105 15.6354
89 1 8.65668 10.2306 3.74215
90 1 5.03491 18.8584 4.76657
91 1 7.10245 15.0802 0.515799
92 1 6.59758 13.9995 8.01759
93 2 7.71191 18.3109 3.14682
94 2 5.95353 10.9157 5.31897
95 2 8.09755 13.4161 1.06213
96 2 5.59854 15.6662 7.35374
97 2 6.4058 17.9902 3.47648
98 2 7.3057 11.198 4.98305
99 2 0.429687 13.0719 0.732271
100 2 4.34386 16.078 7.78486
101 2 7.11302 16.5625 1.86362
102 2 6.62815 12.5308 6.5965
103 2 8.62963 11.7093 2.36591
104 2 5.00106 17.3736 6.18266
105 5 1.12188 10.4448 5.2035
106 5 3.65294 18.7192 3.29112
107 5 1.59715 15.2987 7.57007
108 5 3.19951 13.8303 0.948119
109 5 3.19849 10.0194 5.81069
110 5 1.51775 19.0782 2.7272
111 5 8.37781 14.8624 7.01379
112 5 5.28786 14.2483 1.49527
113 3 8.07376 17.4716 2.18968
114 3 5.64727 11.6469 6.33415
115 3 7.69479 12.6013 2.07246
116 3 5.96606 16.4519 6.43364
117 3 6.10028 16.8841 2.76782
118 3 7.64386 12.2045 5.79821
119 3 0.695862 12.0128 1.53894
120 3 4.00954 17.0753 6.95407
121 6 2.27411 10.0376 4.97843
122 6 2.54847 19.1062 3.49579
123 6 0.403289 14.8775 7.85003
124 6 4.31719 14.248 0.715396
125 4 0.143745 17.3405 1.73298
126 4 4.63972 11.6364 6.62856
127 4 6.73081 12.5054 2.64292
128 4 6.90955 16.3226 6.08151
129 4 5.22618 16.2413 2.67793
130 4 8.66391 12.8306 5.71069
131 4 1.66638 11.4246 1.44283
132 4 3.05104 17.6476 7.09968
133 1 4.49225 10.2272 12.2688
134 1 0.878348 18.8483 13.3411
135 1 2.93755 15.0618 9.06343
136 1 2.42864 14.0111 16.5448
137 2 3.4723 18.3125 11.7195
138 2 1.88284 10.781 13.916
139 2 3.94361 13.4055 9.6414
140 2 1.49411 15.6595 15.9184
141 2 2.20335 17.9859 12.0629
142 2 3.14488 11.1306 13.5619
143 2 5.17066 13.0782 9.29023
144 2 9.12882 16.0045 16.3452
145 2 2.97629 16.5449 10.4212
146 2 2.43148 12.5253 15.1354
147 2 4.56165 11.7593 10.9145
148 2 0.826144 17.4128 14.7423
149 5 5.90604 10.4035 13.7633
150 5 8.48463 18.6885 11.8315
151 5 6.33999 15.3117 16.1281
152 5 7.98164 13.8116 9.47228
153 5 8.00985 10.0236 14.2929
154 5 6.31416 19.0599 11.2998
155 5 4.2946 14.9026 15.5957
156 5 1.18239 14.206 10.0422
157 3 3.98094 17.4037 10.7479
158 3 1.51019 11.63 14.8989
159 3 3.60046 12.5956 10.6107
160 3 1.79659 16.4691 15.0345
161 3 1.92267 16.9023 11.2517
162 3 3.43425 12.1999 14.3597
163 3 5.51205 12.0461 10.0367
164 3 8.8313 17.045 15.5869
165 6 7.03682 9.9511 13.5073
166 6 7.29025 19.0614 12.105
167 6 5.25654 14.8387 16.347
168 6 9.16238 14.3044 9.23053
169 4 4.90216 17.3572 10.187
170 4 9.509 11.6914 15.5031
171 4 2.6704 12.7471 11.281
172 4 2.75322 16.5139 14.5927
173 4 0.996048 16.3601 11.4085
174 4 4.43635 12.7223 14.1865
175 4 6.40157 11.5273 9.98107
176 4 7.83638 17.6077 15.5532
177 7 7.32457 13.3709 14.3613
178 8 6.81467 13.0255 15.0997
179 8 6.81112 13.0421 13.6138
180 7 6.91225 15.6001 12.4848
181 8 6.8701 16.5181 12.7592
182 8 7.79291 15.2568 12.4994
183 7 5.33454 4.91941 12.9115
184 8 4.3982 5.07056 12.9154
185 8 5.63206 5.76237 13.2945
186 7 7.13042 5.59141 11.3456
187 8 7.70639 5.56919 12.1665
188 8 8.05335 5.6483 10.976
189 7 2.98088 4.86926 4.48445
190 8 2.8111 5.81183 4.33732
191 8 2.16055 4.70798 4.01212
192 7 4.64864 2.85917 4.18477
193 8 4.40091 2.81453 3.27543
194 8 5.23016 3.53417 4.45847
195 9 3.05147 9.63012 9.885
196 10 3.27222 8.78821 9.01981
197 10 2.65549 10.3941 10.6282
198 9 8.99997 11.6874 10.593
199 10 8.35689 11.3489 11.4848
200 10 0.799405 11.9181 9.7155
201 9 7.23078 6.77673 9.97799
202 10 7.3706 6.32321 8.92322
203 10 7.07962 7.31517 10.9848
204 9 1.78764 10.604 7.88471
205 10 1.10202 9.82058 7.41842
206 10 2.58411 11.2592 8.4076
207 9 6.29828 9.05057 7.23888
208 10 7.02409 9.18463 6.39805
209 10 5.68104 8.70918 8.16375
210 9 9.08631 7.82894 7.00837
211 10 0.952583 7.47651 6.20987
212 10 8.29719 7.99821 7.86372
ITEM: TIMESTEP
20
ITEM: NUMBER OF ATOMS
212
ITEM: BOX BOUNDS xy xz yz pp pp pp
-8.6417101454072665e-03 9.5540477929494720e+00 0.0000000000000000e+00
-1.8795218992174512e-02 1.9405794318992186e+01 6.3160588280405650e-01
-1.6541979744941315e-02 1.7079357079744945e+01 0.0000000000000000e+00
ITEM: ATOMS id type x y z
1 1 8.67889 0.518764 3.72477
2 1 5.01236 9.16307 4.7801
3 1 7.0883 5.38927 0.485225
4 1 6.59419 4.29204 8.02085
5 2 7.69092 8.59906 3.13904
6 2 6.03281 1.09597 5.41462
7 2 8.10151 3.70643 1.09928
8 2 5.59776 5.95023 7.39116
9 2 6.45925 8.22637 3.53338
10 2 7.35865 1.47922 4.95842
11 2 0.420744 3.39276 0.742393
12 2 4.35962 6.2739 7.83379
13 2 7.0912 6.85672 1.94873
14 2 6.61268 2.80173 6.62593
15 2 8.71544 1.97547 2.34026
16 2 4.94795 7.67901 6.10129
17 5 1.07902 0.746154 5.22664
18 5 3.70176 8.95168 3.29351
19 5 1.57318 5.60908 7.56497
20 5 3.14676 4.09714 0.997068
21 5 3.20428 0.298793 5.74736
22 5 1.53892 9.3912 2.75474
23 5 8.46449 5.11146 7.08136
24 5 5.26846 4.53665 1.49159
25 3 8.07197 7.731 2.19866
26 3 5.60086 1.90018 6.37599
27 3 7.69251 2.88698 2.08473
28 3 5.97916 6.79675 6.41272
29 3 6.13006 7.1386 2.78605
30 3 7.55322 2.47299 5.78392
31 3 0.753763 2.34405 1.50693
32 3 3.96962 7.39298 6.99019
33 6 2.28275 0.32115 5.02616
34 6 2.50357 9.36207 3.53937
35 6 0.41322 5.16976 7.79505
36 6 4.32864 4.50738 0.722507
37 4 0.196106 7.72627 1.77868
38 4 4.59551 1.81448 6.80927
39 4 6.68839 2.99113 2.43434
40 4 7.00481 6.84471 6.09664
41 4 5.12509 6.72758 2.79217
42 4 8.58971 2.79632 5.731
43 4 1.69154 1.83958 1.47502
44 4 3.01289 7.94673 7.0974
45 1 4.52683 0.529264 12.2872
46 1 0.888058 9.15209 13.313
47 1 2.96685 5.35294 9.03936
48 1 2.44301 4.2908 16.5557
49 2 3.54137 8.55219 11.7697
50 2 1.79826 1.07999 13.8578
51 2 3.938 3.76905 9.69336
52 2 1.48395 5.97118 15.9643
53 2 2.2141 8.22039 11.9858
54 2 3.14217 1.37056 13.5942
55 2 5.26634 3.36697 9.28658
56 2 9.12296 6.33039 16.3613
57 2 2.90647 6.83321 10.4324
58 2 2.44972 2.87019 15.2097
59 2 4.50135 1.92356 10.8759
60 2 0.854476 7.64421 14.6784
61 5 5.83482 0.696657 13.7629
62 5 8.47994 9.02894 11.8977
63 5 6.35199 5.59888 16.1525
64 5 7.97687 4.06088 9.49768
65 5 7.96094 0.304771 14.2955
66 5 6.31202 9.40875 11.2829
67 5 4.24932 5.12995 15.621
68 5 1.13886 4.5435 10.0414
69 3 4.04093 7.59399 10.9451
70 3 1.47332 1.92467 14.847
71 3 3.54377 2.88621 10.5862
72 3 1.85548 6.82399 15.0242
73 3 1.9177 7.16518 11.2533
74 3 3.42337 2.49042 14.3145
75 3 5.55286 2.35499 9.99993
76 3 8.77914 7.35503 15.5362
77 6 6.97867 0.310054 13.5038
78 6 7.25822 9.3438 12.1376
79 6 5.19848 5.21315 16.3239
80 6 9.13724 4.52194 9.26709
81 4 4.84433 7.70761 10.2222
82 4 9.45711 1.91105 15.3741
83 4 2.60255 2.98766 11.2017
84 4 2.73366 6.76647 14.3547
85 4 0.955071 6.67729 11.2184
86 4 4.39849 2.86589 14.3225
87 4 6.47027 1.73462 10.0534
88 4 7.84505 7.78161 15.6373
89 1 8.65719 10.2302 3.74173
90 1 5.03508 18.8601 4.76512
91 1 7.10262 15.0803 0.514767
92 1 6.59852 14.0002 8.01801
93 2 7.7138 18.3134 3.14646
94 2 5.94967 10.9241 5.31329
95 2 8.09847 13.4158 1.05883
96 2 5.59783 15.6671 7.35101
97 2 6.40561 17.9942 3.47481
98 2 7.30733 11.201 4.98
99 2 0.429396 13.0717 0.730056
100 2 4.34411 16.0823 7.78556
101 2 7.1141 16.5635 1.8607
102 2 6.62999 12.5317 6.59571
103 2 8.62825 11.7092 2.36645
104 2 5.00044 17.3747 6.18194
105 5 1.12329 10.4455 5.20121
106 5 3.65185 18.7237 3.28971
107 5 1.59568 15.2996 7.5701
108 5 3.20117 13.8323 0.94693
109 5 3.19614 10.0199 5.81188
110 5 1.51737 19.0794 2.72561
111 5 8.37863 14.863 7.01378
112 5 5.28648 14.2499 1.49376
113 3 8.07449 17.4732 2.18864
114 3 5.64901 11.6478 6.33351
115 3 7.69513 12.6015 2.07204
116 3 5.96404 16.4511 6.43241
117 3 6.10195 16.8844 2.76753
118 3 7.64726 12.2057 5.79868
119 3 0.692811 12.0116 1.5393
120 3 4.00872 17.0775 6.95125
121 6 2.2741 10.0398 4.97828
122 6 2.5495 19.1086 3.49259
123 6 0.402286 14.8803 7.8503
124 6 4.31648 14.2491 0.71508
125 4 0.143534 17.334 1.73537
126 4 4.63562 11.643 6.62184
127 4 6.73344 12.5002 2.64327
128 4 6.9137 16.3208 6.08086
129 4 5.2283 16.2382 2.6751
130 4 8.65881 12.8302 5.70937
131 4 1.65867 11.4225 1.44128
132 4 3.05455 17.6518 7.1008
133 1 4.49127 10.2266 12.2688
134 1 0.877387 18.8494 13.3425
135 1 2.93619 15.0609 9.06395
136 1 2.42786 14.0123 16.5457
137 2 3.46948 18.3149 11.7215
138 2 1.88332 10.7798 13.9166
139 2 3.94363 13.405 9.64117
140 2 1.49479 15.6599 15.9184
141 2 2.19961 17.9894 12.0645
142 2 3.14549 11.1295 13.5625
143 2 5.16954 13.0785 9.28978
144 2 9.13036 16.0049 16.3481
145 2 2.97729 16.5448 10.4201
146 2 2.43041 12.526 15.1358
147 2 4.5651 11.7625 10.917
148 2 0.823522 17.4154 14.7442
149 5 5.90844 10.4017 13.7639
150 5 8.48621 18.6918 11.8317
151 5 6.33822 15.3137 16.13
152 5 7.98486 13.8132 9.47119
153 5 8.00979 10.0243 14.2923
154 5 6.31521 19.0601 11.301
155 5 4.29784 14.9054 15.5985
156 5 1.18276 14.2063 10.0421
157 3 3.98299 17.4022 10.7497
158 3 1.5114 11.6298 14.9009
159 3 3.60278 12.5969 10.6117
160 3 1.7932 16.4698 15.0367
161 3 1.92182 16.9042 11.2505
162 3 3.4335 12.2 14.362
163 3 5.51062 12.047 10.0364
164 3 8.83319 17.0462 15.5894
165 6 7.0366 9.94902 13.5086
166 6 7.29135 19.0608 12.1055
167 6 5.25891 14.8388 16.3475
168 6 9.16413 14.3082 9.23085
169 4 4.9051 17.3522 10.1848
170 4 0.583558 11.6958 15.5086
171 4 2.68186 12.7519 11.2879
172 4 2.75303 16.5193 14.596
173 4 0.995681 16.3588 11.412
174 4 4.43133 12.7223 14.1848
175 4 6.40274 11.5251 9.97869
176 4 7.84189 17.6064 15.5539
177 7 7.3272 13.3711 14.3628
178 8 6.81786 13.0292 15.0974
179 8 6.80343 13.0482 13.6193
180 7 6.91251 15.601 12.4863
181 8 6.8693 16.5139 12.758
182 8 7.79934 15.2612 12.4939
183 7 5.33415 4.9174 12.9112
184 8 4.3974 5.06905 12.921
185 8 5.62884 5.76681 13.2815
186 7 7.13109 5.58187 11.3519
187 8 7.70018 5.56337 12.1719
188 8 8.10352 5.59899 10.995
189 7 2.97933 4.87027 4.48278
190 8 2.79919 5.81425 4.33644
191 8 2.15928 4.71013 4.00066
192 7 4.64911 2.85807 4.18287
193 8 4.40689 2.80561 3.27198
194 8 5.23335 3.53459 4.45591
195 9 3.053 9.6331 9.88199
196 10 3.2673 8.79471 9.00913
197 10 2.6516 10.3937 10.6289
198 9 8.99936 11.6891 10.5926
199 10 8.35889 11.3512 11.4859
200 10 0.79893 11.9142 9.71439
201 9 7.23035 6.77999 9.97487
202 10 7.37282 6.32749 8.92245
203 10 7.07684 7.32027 10.9814
204 9 1.78652 10.6074 7.8822
205 10 1.10261 9.82048 7.41799
206 10 2.58559 11.2584 8.40611
207 9 6.29851 9.0545 7.2417
208 10 7.03003 9.17747 6.40312
209 10 5.68332 8.71098 8.16737
210 9 9.08724 7.83277 7.00743
211 10 0.951929 7.47641 6.20847
212 10 8.29823 7.99768 7.86571
ITEM: TIMESTEP
21
ITEM: NUMBER OF ATOMS
212
ITEM: BOX BOUNDS xy xz yz pp pp pp
-9.4377196840760291e-03 9.5549563900147554e+00 0.0000000000000000e+00
-2.0526493629645870e-02 1.9407525593629657e+01 6.3171847033066952e-01
-1.8065702878889311e-02 1.7080880802878895e+01 0.0000000000000000e+00
ITEM: ATOMS id type x y z
1 1 8.68051 0.516652 3.72347
2 1 5.0114 9.16383 4.77936
3 1 7.08777 5.38872 0.482723
4 1 6.59496 4.29115 8.02142
5 2 7.69206 8.59987 3.13819
6 2 6.03516 1.09392 5.41569
7 2 8.10257 3.70471 1.09781
8 2 5.59665 5.94912 7.38916
9 2 6.46137 8.22586 3.53443
10 2 7.36199 1.47898 4.95506
11 2 0.42025 3.39256 0.740657
12 2 4.36001 6.27257 7.8363
13 2 7.09153 6.85567 1.94925
14 2 6.61332 2.7999 6.62684
15 2 8.71784 1.9728 2.33958
16 2 4.94319 7.67755 6.09531
17 5 1.07876 0.745308 5.22645
18 5 3.70215 8.95192 3.29254
19 5 1.5709 5.60911 7.56488
20 5 3.14637 4.09659 0.998171
21 5 3.2027 0.29713 5.74609
22 5 1.53926 9.39187 2.75442
23 5 8.46875 5.10827 7.0833
24 5 5.26641 4.53658 1.49005
25 3 8.07304 7.73003 2.19846
26 3 5.60054 1.89746 6.37802
27 3 7.6936 2.88554 2.08428
28 3 5.97764 6.79597 6.41011
29 3 6.13246 7.13632 2.78779
30 3 7.55183 2.47083 5.78329
31 3 0.752979 2.34357 1.50592
32 3 3.96697 7.3934 6.9887
33 6 2.28186 0.321268 5.02723
34 6 2.50417 9.36046 3.538
35 6 0.413933 5.17006 7.79461
36 6 4.32727 4.50516 0.722125
37 4 0.192933 7.72015 1.78274
38 4 4.59471 1.81276 6.80954
39 4 6.68528 2.98817 2.43154
40 4 7.00849 6.85028 6.09956
41 4 5.12435 6.72859 2.79119
42 4 8.59152 2.78833 5.73335
43 4 1.69341 1.83828 1.47367
44 4 3.01508 7.9474 7.09577
45 1 4.52757 0.527649 12.2882
46 1 0.887608 9.15229 13.313
47 1 2.967 5.35058 9.03868
48 1 2.44296 4.28989 16.5572
49 2 3.54255 8.54842 11.7764
50 2 1.79507 1.07778 13.8555
51 2 3.93873 3.77012 9.69528
52 2 1.48437 5.97136 15.9661
53 2 2.21117 8.21974 11.9843
54 2 3.14225 1.36542 13.5964
55 2 5.26879 3.36631 9.28597
56 2 9.12398 6.3312 16.3647
57 2 2.90465 6.83075 10.4326
58 2 2.44937 2.87116 15.213
59 2 4.50061 1.9189 10.8754
60 2 0.852707 7.64271 14.677
61 5 5.83355 0.693502 13.7636
62 5 8.48155 9.0328 11.9013
63 5 6.35063 5.59905 16.1553
64 5 7.97997 4.05771 9.49796
65 5 7.9583 0.303452 14.2952
66 5 6.31253 9.41134 11.2835
67 5 4.24991 5.12806 15.6246
68 5 1.1371 4.54378 10.0415
69 3 4.04714 7.5826 10.96
70 3 1.47307 1.92368 14.8466
71 3 3.54318 2.88423 10.5861
72 3 1.85544 6.82577 15.0262
73 3 1.91633 7.16355 11.2521
74 3 3.42087 2.48895 14.3152
75 3 5.55361 2.35367 9.99901
76 3 8.78001 7.35445 15.5365
77 6 6.97628 0.309603 13.5045
78 6 7.25748 9.34112 12.1405
79 6 5.19864 5.21543 16.3245
80 6 9.13844 4.51988 9.2682
81 4 4.84778 7.70267 10.2232
82 4 9.45831 1.91162 15.3753
83 4 2.60801 2.98767 11.2047
84 4 2.72852 6.76665 14.3498
85 4 0.951682 6.67795 11.2137
86 4 4.40374 2.86064 14.3262
87 4 6.46935 1.73298 10.0526
88 4 7.83918 7.78263 15.6392
89 1 8.65772 10.2298 3.74128
90 1 5.03524 18.8618 4.76365
91 1 7.10281 15.0804 0.513684
92 1 6.59947 14.0009 8.01843
93 2 7.71571 18.3161 3.14609
94 2 5.94584 10.9325 5.30746
95 2 8.09936 13.4155 1.0555
96 2 5.5971 15.668 7.34835
97 2 6.40541 17.9983 3.47313
98 2 7.30894 11.204 4.97692
99 2 0.429115 13.0716 0.727796
100 2 4.34434 16.0866 7.78625
101 2 7.11517 16.5646 1.85779
102 2 6.63182 12.5326 6.59495
103 2 8.6269 11.709 2.36699
104 2 4.99989 17.3759 6.1811
105 5 1.12472 10.4462 5.19882
106 5 3.6508 18.7283 3.28822
107 5 1.5941 15.3005 7.57013
108 5 3.20281 13.8344 0.945712
109 5 3.19378 10.0203 5.81301
110 5 1.51705 19.0805 2.72403
111 5 8.37953 14.8636 7.01382
112 5 5.28507 14.2515 1.49218
113 3 8.07524 17.4748 2.18749
114 3 5.65077 11.6488 6.33286
115 3 7.69547 12.6017 2.07161
116 3 5.96198 16.4503 6.43116
117 3 6.1037 16.8847 2.7671
118 3 7.65077 12.2069 5.79911
119 3 0.689802 12.0105 1.53958
120 3 4.00784 17.0797 6.94848
121 6 2.27406 10.042 4.97809
122 6 2.55036 19.1111 3.48944
123 6 0.401367 14.8832 7.85045
124 6 4.31585 14.2502 0.714684
125 4 0.143179 17.3278 1.73797
126 4 4.63128 11.6502 6.61546
127 4 6.73624 12.4953 2.64307
128 4 6.91843 16.3194 6.0796
129 4 5.23015 16.2356 2.67271
130 4 8.65271 12.8291 5.70809
131 4 1.65044 11.4206 1.43977
132 4 3.05849 17.6561 7.10178
133 1 4.49028 10.226 12.2689
134 1 0.876401 18.8506 13.344
135 1 2.93482 15.0601 9.06446
136 1 2.42707 14.0136 16.5467
137 2 3.46674 18.3174 11.7234
138 2 1.88374 10.7785 13.9172
139 2 3.9436 13.4045 9.64094
140 2 1.49537 15.6602 15.9185
141 2 2.19584 17.9929 12.0661
142 2 3.14611 11.1285 13.5632
143 2 5.16852 13.0788 9.28929
144 2 9.13196 16.0054 16.351
145 2 2.97826 16.5446 10.419
146 2 2.42933 12.5269 15.1363
147 2 4.56864 11.7657 10.9195
148 2 0.820956 17.418 14.7462
149 5 5.91088 10.3999 13.7646
150 5 8.48773 18.6951 11.8318
151 5 6.33648 15.3157 16.1321
152 5 7.9882 13.8149 9.47011
153 5 8.00973 10.025 14.2918
154 5 6.31633 19.0603 11.3023
155 5 4.30107 14.9082 15.6014
156 5 1.1831 14.2067 10.042
157 3 3.98493 17.4008 10.7517
158 3 1.51256 11.6297 14.903
159 3 3.60505 12.5984 10.6127
160 3 1.78978 16.4708 15.0388
161 3 1.92099 16.9062 11.2494
162 3 3.43282 12.2001 14.3641
163 3 5.50915 12.0478 10.0362
164 3 8.83499 17.0476 15.592
165 6 7.03638 9.94696 13.51
166 6 7.29247 19.0603 12.1061
167 6 5.26122 14.8388 16.348
168 6 9.16574 14.312 9.23126
169 4 4.90823 17.3476 10.1829
170 4 0.587678 11.6999 15.5137
171 4 2.69393 12.7567 11.2943
172 4 2.75315 16.5246 14.5993
173 4 0.995349 16.3574 11.4153
174 4 4.42567 12.7222 14.1836
175 4 6.40443 11.5228 9.9762
176 4 7.84786 17.6047 15.5548
177 7 7.32985 13.3714 14.3642
178 8 6.8211 13.0329 15.0952
179 8 6.79589 13.0544 13.6249
180 7 6.91276 15.6019 12.4877
181 8 6.86874 16.5099 12.7568
182 8 7.80592 15.2658 12.4885
183 7 5.33376 4.91538 12.911
184 8 4.39636 5.0674 12.9267
185 8 5.62567 5.77097 13.2685
186 7 7.13192 5.57205 11.3583
187 8 7.69316 5.55733 12.1775
188 8 8.1528 5.5491 11.0138
189 7 2.97773 4.87128 4.48107
190 8 2.78773 5.8168 4.33587
191 8 2.15798 4.7116 3.98921
192 7 4.64952 2.85691 4.18091
193 8 4.41299 2.79703 3.26828
194 8 5.23671 3.53535 4.45311
195 9 3.0545 9.63598 9.87874
196 10 3.26235 8.80141 8.9985
197 10 2.64757 10.3934 10.6295
198 9 8.99882 11.6908 10.5922
199 10 8.36093 11.3537 11.4869
200 10 0.798406 11.9101 9.71329
201 9 7.2299 6.78334 9.97168
202 10 7.37504 6.33182 8.9218
203 10 7.07408 7.32536 10.9779
204 9 1.78545 10.6107 7.87971
205 10 1.10313 9.82037 7.41763
206 10 2.58705 11.2577 8.40458
207 9 6.29875 9.05843 7.24468
208 10 7.03611 9.17029 6.40815
209 10 5.68565 8.71288 8.17108
210 9 9.08821 7.83653 7.00649
211 10 0.951196 7.47636 6.20704
212 10 8.29936 7.99715 7.86765
ITEM: TIMESTEP
22
ITEM: NUMBER OF ATOMS
212
ITEM: BOX BOUNDS xy xz yz pp pp pp
-1.0259828662541715e-02 9.5558947780225498e+00 0.0000000000000000e+00
-2.2314533036857043e-02 1.9409313633036870e+01 6.3183474935999684e-01
-1.9639385615416671e-02 1.7082454485615422e+01 0.0000000000000000e+00
ITEM: ATOMS id type x y z
1 1 8.68216 0.514489 3.72215
2 1 5.01045 9.16459 4.7786
3 1 7.08726 5.38814 0.48018
4 1 6.59574 4.29022 8.02199
5 2 7.69325 8.60072 3.13733
6 2 6.03761 1.09172 5.41669
7 2 8.10361 3.70302 1.09629
8 2 5.59551 5.94791 7.38711
9 2 6.46343 8.22533 3.53545
10 2 7.36521 1.47863 4.95173
11 2 0.419797 3.39231 0.738866
12 2 4.36032 6.27132 7.83871
13 2 7.09191 6.85452 1.94966
14 2 6.61389 2.79807 6.62781
15 2 8.72018 1.97007 2.33892
16 2 4.9384 7.67604 6.08922
17 5 1.07858 0.74438 5.22626
18 5 3.70243 8.95219 3.29153
19 5 1.56856 5.60906 7.5648
20 5 3.14605 4.09604 0.99922
21 5 3.20117 0.29541 5.74485
22 5 1.53962 9.39253 2.75407
23 5 8.47294 5.10504 7.0851
24 5 5.26436 4.53649 1.48846
25 3 8.07417 7.72907 2.19821
26 3 5.60029 1.8947 6.38007
27 3 7.69479 2.88406 2.08376
28 3 5.97603 6.7951 6.40746
29 3 6.13484 7.13408 2.78954
30 3 7.55057 2.46863 5.78258
31 3 0.752167 2.34304 1.50486
32 3 3.96433 7.39362 6.98721
33 6 2.28078 0.321315 5.0281
34 6 2.50484 9.35885 3.53662
35 6 0.414841 5.17029 7.79434
36 6 4.3258 4.50293 0.72162
37 4 0.189176 7.71385 1.78683
38 4 4.59412 1.81126 6.80991
39 4 6.68216 2.98472 2.42906
40 4 7.01215 6.85579 6.10221
41 4 5.12367 6.72946 2.79011
42 4 8.59323 2.78073 5.73606
43 4 1.69548 1.83688 1.47218
44 4 3.01756 7.9477 7.09367
45 1 4.5283 0.525979 12.2891
46 1 0.887134 9.15249 13.3131
47 1 2.96713 5.3482 9.038
48 1 2.44289 4.28896 16.5587
49 2 3.5438 8.54453 11.7832
50 2 1.79191 1.07549 13.8532
51 2 3.93955 3.77117 9.69714
52 2 1.48473 5.97145 15.9679
53 2 2.20823 8.2191 11.9829
54 2 3.1423 1.36025 13.5985
55 2 5.27116 3.36571 9.28533
56 2 9.12503 6.33198 16.3682
57 2 2.90294 6.82822 10.4329
58 2 2.44899 2.87205 15.2164
59 2 4.4999 1.91425 10.8748
60 2 0.850903 7.64127 14.6756
61 5 5.83231 0.690288 13.7643
62 5 8.48313 9.03666 11.9048
63 5 6.34926 5.5992 16.1581
64 5 7.98317 4.05447 9.49825
65 5 7.95563 0.302081 14.2948
66 5 6.31305 9.41403 11.2842
67 5 4.25047 5.12614 15.6281
68 5 1.13533 4.54405 10.0416
69 3 4.05321 7.57108 10.9749
70 3 1.47283 1.92272 14.8464
71 3 3.54256 2.88215 10.586
72 3 1.8554 6.82756 15.0282
73 3 1.91494 7.16187 11.2508
74 3 3.41833 2.48743 14.3159
75 3 5.55431 2.35215 9.99827
76 3 8.78097 7.35379 15.537
77 6 6.97397 0.309078 13.5053
78 6 7.25677 9.33846 12.1435
79 6 5.19883 5.21761 16.3254
80 6 9.1396 4.51775 9.26925
81 4 4.85134 7.69785 10.2245
82 4 9.45945 1.91211 15.3765
83 4 2.61382 2.98758 11.2073
84 4 2.72331 6.7666 14.3451
85 4 0.94817 6.67877 11.209
86 4 4.40936 2.85556 14.3301
87 4 6.46844 1.7317 10.0513
88 4 7.83289 7.78409 15.6408
89 1 8.65827 10.2293 3.74081
90 1 5.03541 18.8636 4.76215
91 1 7.10302 15.0806 0.512551
92 1 6.60043 14.0016 8.01885
93 2 7.71762 18.3188 3.14573
94 2 5.94205 10.941 5.30149
95 2 8.10022 13.4154 1.05216
96 2 5.59633 15.6688 7.34578
97 2 6.4052 18.0024 3.47143
98 2 7.31054 11.207 4.97382
99 2 0.428847 13.0714 0.725495
100 2 4.34457 16.0909 7.78691
101 2 7.11625 16.5656 1.85489
102 2 6.63364 12.5337 6.59424
103 2 8.6256 11.7087 2.36753
104 2 4.99941 17.3773 6.18017
105 5 1.12616 10.4469 5.19636
106 5 3.64977 18.7329 3.28666
107 5 1.5924 15.3015 7.57016
108 5 3.20443 13.8365 0.944468
109 5 3.19141 10.0208 5.81406
110 5 1.51679 19.0818 2.72246
111 5 8.38049 14.8643 7.01391
112 5 5.28364 14.2532 1.49055
113 3 8.07602 17.4763 2.18624
114 3 5.65254 11.6498 6.33219
115 3 7.69583 12.6019 2.07117
116 3 5.95989 16.4497 6.42988
117 3 6.10553 16.885 2.76653
118 3 7.65436 12.2081 5.7995
119 3 0.686833 12.0094 1.53977
120 3 4.00688 17.0819 6.94579
121 6 2.27399 10.0442 4.97784
122 6 2.55104 19.1137 3.48636
123 6 0.400529 14.8862 7.85047
124 6 4.31529 14.2513 0.714205
125 4 0.142687 17.322 1.74079
126 4 4.62675 11.6577 6.60941
127 4 6.73918 12.4909 2.64233
128 4 6.92366 16.3186 6.07773
129 4 5.23173 16.2336 2.67078
130 4 8.6457 12.8275 5.70682
131 4 1.64174 11.4191 1.43829
132 4 3.06284 17.6603 7.10262
133 1 4.4893 10.2254 12.269
134 1 0.875389 18.8519 13.3455
135 1 2.93345 15.0593 9.06498
136 1 2.42627 14.0149 16.5477
137 2 3.4641 18.3199 11.7252
138 2 1.88411 10.7772 13.9179
139 2 3.94351 13.4042 9.64071
140 2 1.49586 15.6605 15.9188
141 2 2.19203 17.9963 12.0678
142 2 3.14675 11.1275 13.5639
143 2 5.1676 13.0792 9.28876
144 2 9.1336 16.0058 16.354
145 2 2.9792 16.5445 10.4179
146 2 2.42826 12.5279 15.1369
147 2 4.57226 11.7689 10.9221
148 2 0.818447 17.4207 14.7481
149 5 5.91334 10.3981 13.7654
150 5 8.4892 18.6985 11.832
151 5 6.33478 15.3178 16.1341
152 5 7.99165 13.8166 9.46902
153 5 8.00967 10.0256 14.2912
154 5 6.3175 19.0606 11.3036
155 5 4.30429 14.9111 15.6043
156 5 1.1834 14.2072 10.0418
157 3 3.98675 17.3995 10.7536
158 3 1.51368 11.6296 14.9051
159 3 3.60728 12.5999 10.6138
160 3 1.78635 16.4719 15.0409
161 3 1.92018 16.9083 11.2483
162 3 3.43221 12.2001 14.3663
163 3 5.50767 12.0487 10.0359
164 3 8.83672 17.049 15.5946
165 6 7.03615 9.94494 13.5115
166 6 7.29362 19.0599 12.1065
167 6 5.26347 14.8389 16.3487
168 6 9.16723 14.3158 9.23178
169 4 4.91153 17.3433 10.1812
170 4 0.591797 11.7037 15.5184
171 4 2.70655 12.7616 11.3004
172 4 2.75355 16.53 14.6025
173 4 0.995074 16.3559 11.4185
174 4 4.4194 12.7222 14.1826
175 4 6.40658 11.5203 9.97359
176 4 7.85423 17.6027 15.5561
177 7 7.33251 13.3717 14.3657
178 8 6.82436 13.0366 15.0933
179 8 6.78854 13.0608 13.6305
180 7 6.91301 15.6028 12.4892
181 8 6.8684 16.506 12.7558
182 8 7.81255 15.2706 12.4832
183 7 5.33339 4.91336 12.9109
184 8 4.39508 5.06561 12.9324
185 8 5.62259 5.77487 13.2555
186 7 7.13291 5.56196 11.3648
187 8 7.68538 5.55113 12.1834
188 8 8.20084 5.49872 11.0326
189 7 2.9761 4.8723 4.47931
190 8 2.77674 5.81943 4.33565
191 8 2.15673 4.71242 3.97781
192 7 4.64988 2.85571 4.17889
193 8 4.41923 2.78878 3.26434
194 8 5.24021 3.53641 4.45004
195 9 3.05596 9.63875 9.87526
196 10 3.25736 8.80828 8.98795
197 10 2.6434 10.393 10.6301
198 9 8.99835 11.6925 10.5917
199 10 8.36301 11.3564 11.488
200 10 0.797832 11.906 9.71221
201 9 7.22944 6.78678 9.96845
202 10 7.37727 6.33621 8.92126
203 10 7.07134 7.33042 10.9743
204 9 1.78442 10.6142 7.87723
205 10 1.10357 9.82022 7.41735
206 10 2.58849 11.2571 8.40299
207 9 6.29899 9.06237 7.24784
208 10 7.04232 9.16308 6.41313
209 10 5.68804 8.71488 8.17489
210 9 9.08923 7.84022 7.00556
211 10 0.950381 7.47637 6.20558
212 10 8.30059 7.99663 7.86956
ITEM: TIMESTEP
23
ITEM: NUMBER OF ATOMS
212
ITEM: BOX BOUNDS xy xz yz pp pp pp
-1.1107049261446456e-02 9.5568618294364036e+00 0.0000000000000000e+00
-2.4157188763924253e-02 1.9411156288763937e+01 6.3195458017494632e-01
-2.1261137068631086e-02 1.7084076237068636e+01 0.0000000000000000e+00
ITEM: ATOMS id type x y z
1 1 8.68384 0.512277 3.7208
2 1 5.00951 9.16534 4.77781
3 1 7.08677 5.38753 0.477598
4 1 6.59654 4.28927 8.02256
5 2 7.6945 8.60159 3.13645
6 2 6.04017 1.08939 5.41762
7 2 8.10461 3.70137 1.09472
8 2 5.59434 5.9466 7.38502
9 2 6.46543 8.22478 3.53643
10 2 7.36831 1.47816 4.94845
11 2 0.419384 3.39201 0.737022
12 2 4.36052 6.27016 7.84102
13 2 7.09234 6.85326 1.94995
14 2 6.61439 2.79625 6.62884
15 2 8.72246 1.96727 2.33826
16 2 4.93358 7.67447 6.08301
17 5 1.07847 0.743372 5.22607
18 5 3.70261 8.95248 3.2905
19 5 1.56616 5.60894 7.56474
20 5 3.14581 4.09548 1.00022
21 5 3.19967 0.293635 5.74365
22 5 1.53998 9.39319 2.75372
23 5 8.47708 5.10175 7.08679
24 5 5.26233 4.53637 1.48684
25 3 8.07534 7.72812 2.19792
26 3 5.60012 1.89191 6.38213
27 3 7.69608 2.88254 2.08316
28 3 5.97435 6.79414 6.40477
29 3 6.13721 7.13188 2.79132
30 3 7.54945 2.46639 5.78179
31 3 0.751331 2.34247 1.50377
32 3 3.9617 7.39365 6.98573
33 6 2.27953 0.32129 5.02876
34 6 2.50558 9.35722 3.53522
35 6 0.41594 5.17046 7.79422
36 6 4.32425 4.50069 0.72099
37 4 0.184888 7.70739 1.79095
38 4 4.59374 1.80999 6.81037
39 4 6.67904 2.98076 2.42687
40 4 7.01577 6.86124 6.10458
41 4 5.12307 6.7302 2.78894
42 4 8.59482 2.77352 5.73912
43 4 1.69771 1.83539 1.47056
44 4 3.02027 7.94764 7.09107
45 1 4.52904 0.524254 12.2901
46 1 0.886635 9.15269 13.3132
47 1 2.96726 5.34579 9.03733
48 1 2.44282 4.288 16.5602
49 2 3.5451 8.5405 11.7901
50 2 1.7888 1.07313 13.8509
51 2 3.94046 3.7722 9.69895
52 2 1.48505 5.97147 15.9698
53 2 2.20527 8.21847 11.9816
54 2 3.14231 1.35505 13.6007
55 2 5.27344 3.36517 9.28466
56 2 9.12611 6.33274 16.3716
57 2 2.90134 6.82562 10.4332
58 2 2.44858 2.87287 15.2197
59 2 4.49922 1.90961 10.8742
60 2 0.849064 7.63989 14.6742
61 5 5.8311 0.687016 13.7651
62 5 8.48468 9.04049 11.9085
63 5 6.34789 5.59935 16.1609
64 5 7.98648 4.05117 9.49855
65 5 7.95295 0.30066 14.2944
66 5 6.31359 9.41683 11.285
67 5 4.251 5.12422 15.6317
68 5 1.13356 4.54428 10.0418
69 3 4.05915 7.55944 10.9897
70 3 1.47259 1.92179 14.8462
71 3 3.54194 2.87996 10.586
72 3 1.85534 6.82937 15.0302
73 3 1.91353 7.16015 11.2496
74 3 3.41575 2.48585 14.3167
75 3 5.55495 2.35041 9.9977
76 3 8.782 7.35306 15.5374
77 6 6.97175 0.308479 13.5061
78 6 7.25611 9.33581 12.1465
79 6 5.19907 5.21968 16.3265
80 6 9.14071 4.51555 9.27023
81 4 4.85493 7.69318 10.2263
82 4 9.46055 1.91252 15.3775
83 4 2.61994 2.9874 11.2096
84 4 2.71805 6.76634 14.3409
85 4 0.944544 6.67974 11.2044
86 4 4.41528 2.85062 14.334
87 4 6.46754 1.73078 10.0496
88 4 7.82628 7.78595 15.6423
89 1 8.65885 10.2289 3.7403
90 1 5.03558 18.8655 4.76064
91 1 7.10325 15.0807 0.51137
92 1 6.6014 14.0023 8.01926
93 2 7.71952 18.3217 3.14536
94 2 5.93832 10.9494 5.2954
95 2 8.10103 13.4153 1.0488
96 2 5.59552 15.6696 7.34329
97 2 6.40498 18.0066 3.46972
98 2 7.3121 11.21 4.9707
99 2 0.42859 13.0713 0.723155
100 2 4.34479 16.0951 7.78755
101 2 7.11732 16.5667 1.85199
102 2 6.63544 12.5349 6.59358
103 2 8.62432 11.7084 2.36806
104 2 4.999 17.3787 6.17912
105 5 1.12761 10.4476 5.19382
106 5 3.64879 18.7375 3.28502
107 5 1.59059 15.3024 7.5702
108 5 3.20603 13.8387 0.943201
109 5 3.18902 10.0212 5.81505
110 5 1.51659 19.0831 2.7209
111 5 8.38152 14.8649 7.01406
112 5 5.2822 14.2548 1.48886
113 3 8.07682 17.4779 2.18489
114 3 5.65431 11.6509 6.33151
115 3 7.6962 12.6022 2.07071
116 3 5.95777 16.4491 6.42858
117 3 6.10745 16.8853 2.76582
118 3 7.65804 12.2095 5.79984
119 3 0.683903 12.0084 1.53988
120 3 4.00585 17.0841 6.94316
121 6 2.27391 10.0464 4.97753
122 6 2.55152 19.1165 3.48335
123 6 0.399772 14.8893 7.85035
124 6 4.3148 14.2526 0.71364
125 4 0.142066 17.3164 1.74384
126 4 4.62209 11.6658 6.60366
127 4 6.74224 12.4869 2.64105
128 4 6.92931 16.3182 6.0753
129 4 5.23306 16.2322 2.66932
130 4 8.63788 12.8254 5.70557
131 4 1.63261 11.4178 1.43684
132 4 3.06756 17.6646 7.10334
133 1 4.48833 10.2248 12.2692
134 1 0.874354 18.8532 13.3471
135 1 2.93207 15.0586 9.0655
136 1 2.42547 14.0162 16.5487
137 2 3.46155 18.3225 11.7271
138 2 1.88443 10.7759 13.9187
139 2 3.94337 13.4041 9.64049
140 2 1.49625 15.6608 15.9193
141 2 2.18819 17.9998 12.0694
142 2 3.14741 11.1266 13.5646
143 2 5.16678 13.0795 9.2882
144 2 9.1353 16.0063 16.357
145 2 2.9801 16.5444 10.4168
146 2 2.4272 12.529 15.1376
147 2 4.57596 11.7721 10.9247
148 2 0.815999 17.4234 14.75
149 5 5.91583 10.3962 13.7661
150 5 8.4906 18.702 11.8322
151 5 6.33311 15.32 16.1362
152 5 7.9952 13.8184 9.46794
153 5 8.00961 10.0263 14.2907
154 5 6.31873 19.0609 11.305
155 5 4.3075 14.9139 15.6073
156 5 1.18367 14.2079 10.0417
157 3 3.98844 17.3982 10.7556
158 3 1.51475 11.6295 14.9073
159 3 3.60946 12.6016 10.615
160 3 1.78291 16.4732 15.0429
161 3 1.9194 16.9105 11.2472
162 3 3.43168 12.2001 14.3683
163 3 5.50618 12.0495 10.0357
164 3 8.83838 17.0506 15.5973
165 6 7.03593 9.94295 13.513
166 6 7.29479 19.0594 12.107
167 6 5.26566 14.8389 16.3494
168 6 9.1686 14.3196 9.2324
169 4 4.91497 17.3394 10.1797
170 4 0.595898 11.7072 15.5227
171 4 2.71967 12.7664 11.306
172 4 2.75419 16.5354 14.6057
173 4 0.994877 16.3544 11.4214
174 4 4.41257 12.7222 14.182
175 4 6.40915 11.5176 9.97086
176 4 7.86093 17.6003 15.5576
177 7 7.33518 13.3719 14.3672
178 8 6.8276 13.0403 15.0916
179 8 6.78138 13.0672 13.6362
180 7 6.91327 15.6038 12.4907
181 8 6.86828 16.5023 12.7548
182 8 7.81913 15.2756 12.4781
183 7 5.33301 4.91132 12.9107
184 8 4.39357 5.06367 12.938
185 8 5.61959 5.77851 13.2424
186 7 7.13407 5.55162 11.3714
187 8 7.67687 5.54483 12.1897
188 8 8.24741 5.44796 11.0513
189 7 2.97441 4.87335 4.4775
190 8 2.76622 5.82211 4.33577
191 8 2.15561 4.71258 3.9665
192 7 4.65019 2.85447 4.17682
193 8 4.4256 2.78088 3.26018
194 8 5.24379 3.53769 4.44669
195 9 3.05738 9.64142 9.87155
196 10 3.25234 8.81532 8.97748
197 10 2.6391 10.3927 10.6307
198 9 8.99795 11.6942 10.5913
199 10 8.36514 11.3591 11.489
200 10 0.797209 11.9018 9.71115
201 9 7.22896 6.79031 9.96517
202 10 7.3795 6.34065 8.92083
203 10 7.06862 7.33541 10.9705
204 9 1.78344 10.6176 7.87478
205 10 1.10394 9.82006 7.41714
206 10 2.58993 11.2564 8.40134
207 9 6.29924 9.06631 7.25116
208 10 7.04864 9.15586 6.41805
209 10 5.69047 8.71698 8.17878
210 9 9.0903 7.84384 7.00464
211 10 0.949484 7.47643 6.2041
212 10 8.30192 7.99611 7.87142
ITEM: TIMESTEP
24
ITEM: NUMBER OF ATOMS
212
ITEM: BOX BOUNDS xy xz yz pp pp pp
-1.1978430318692723e-02 9.5578564585619290e+00 0.0000000000000000e+00
-2.6052392088383058e-02 1.9413051492088396e+01 6.3207782824322556e-01
-2.2929136522044757e-02 1.7085744236522046e+01 0.0000000000000000e+00
ITEM: ATOMS id type x y z
1 1 8.68554 0.510018 3.71942
2 1 5.00857 9.1661 4.77701
3 1 7.0863 5.38689 0.474978
4 1 6.59735 4.28828 8.02312
5 2 7.69581 8.60251 3.13555
6 2 6.04284 1.08693 5.41847
7 2 8.10557 3.69975 1.09311
8 2 5.59313 5.94519 7.38287
9 2 6.46737 8.22421 3.53738
10 2 7.37129 1.47759 4.94521
11 2 0.419013 3.39167 0.735128
12 2 4.36064 6.26907 7.84323
13 2 7.09282 6.85188 1.95012
14 2 6.61483 2.79444 6.62994
15 2 8.72469 1.9644 2.33762
16 2 4.92874 7.67286 6.0767
17 5 1.07844 0.742288 5.22587
18 5 3.70269 8.95278 3.28943
19 5 1.56372 5.60874 7.56468
20 5 3.14563 4.09492 1.00116
21 5 3.19821 0.291808 5.74249
22 5 1.54035 9.39385 2.75334
23 5 8.48115 5.09842 7.08834
24 5 5.26031 4.53623 1.48518
25 3 8.07656 7.72717 2.1976
26 3 5.60002 1.8891 6.3842
27 3 7.69747 2.88097 2.08249
28 3 5.97258 6.79311 6.40204
29 3 6.13956 7.12973 2.79311
30 3 7.54848 2.46412 5.78092
31 3 0.750475 2.34185 1.50263
32 3 3.95908 7.39349 6.98425
33 6 2.2781 0.321192 5.0292
34 6 2.50639 9.3556 3.53383
35 6 0.417226 5.17055 7.79427
36 6 4.32261 4.49844 0.720233
37 4 0.180128 7.70077 1.79507
38 4 4.59356 1.80893 6.81093
39 4 6.67598 2.97629 2.42498
40 4 7.01928 6.86659 6.1067
41 4 5.12255 6.73082 2.78769
42 4 8.59628 2.76671 5.74255
43 4 1.70008 1.83385 1.4688
44 4 3.02316 7.94723 7.08798
45 1 4.52977 0.522478 12.2912
46 1 0.886114 9.15289 13.3133
47 1 2.96739 5.34336 9.03666
48 1 2.44274 4.28701 16.5619
49 2 3.54646 8.53634 11.7971
50 2 1.78573 1.07071 13.8486
51 2 3.94145 3.7732 9.70071
52 2 1.48532 5.97141 15.9717
53 2 2.20231 8.21784 11.9804
54 2 3.14229 1.34982 13.603
55 2 5.27563 3.36469 9.28397
56 2 9.12722 6.33347 16.3751
57 2 2.89987 6.82296 10.4337
58 2 2.44813 2.87361 15.223
59 2 4.49857 1.90498 10.8736
60 2 0.847191 7.63857 14.6728
61 5 5.82992 0.683689 13.7659
62 5 8.48619 9.0443 11.9121
63 5 6.34652 5.59949 16.1636
64 5 7.98989 4.0478 9.49885
65 5 7.95025 0.299193 14.294
66 5 6.31414 9.41975 11.2859
67 5 4.2515 5.12229 15.6352
68 5 1.13178 4.5445 10.0419
69 3 4.06496 7.54771 11.0044
70 3 1.47237 1.92088 14.8462
71 3 3.54131 2.87766 10.586
72 3 1.85528 6.83119 15.0322
73 3 1.9121 7.1584 11.2483
74 3 3.41315 2.48423 14.3175
75 3 5.55553 2.34848 9.99731
76 3 8.78311 7.35227 15.538
77 6 6.96963 0.307805 13.5069
78 6 7.25549 9.33319 12.1495
79 6 5.19934 5.22163 16.3279
80 6 9.14179 4.5133 9.27114
81 4 4.85847 7.68863 10.2286
82 4 9.4616 1.91285 15.3784
83 4 2.62632 2.98715 11.2117
84 4 2.71273 6.76584 14.337
85 4 0.94081 6.68088 11.1998
86 4 4.42142 2.84581 14.3381
87 4 6.46667 1.73021 10.0476
88 4 7.81941 7.78816 15.6437
89 1 8.65946 10.2285 3.73977
90 1 5.03575 18.8674 4.75911
91 1 7.10349 15.081 0.510143
92 1 6.60238 14.003 8.01966
93 2 7.72143 18.3246 3.14499
94 2 5.93466 10.9578 5.28918
95 2 8.1018 13.4153 1.04543
96 2 5.59467 15.6703 7.34089
97 2 6.40475 18.0108 3.46799
98 2 7.31364 11.2131 4.96757
99 2 0.428345 13.0712 0.72078
100 2 4.34499 16.0994 7.78817
101 2 7.11838 16.5679 1.84911
102 2 6.63722 12.5361 6.59296
103 2 8.62308 11.7081 2.36859
104 2 4.99867 17.3803 6.17798
105 5 1.12906 10.4484 5.19119
106 5 3.64784 18.7421 3.28331
107 5 1.58867 15.3033 7.57024
108 5 3.20761 13.8408 0.941912
109 5 3.18663 10.0216 5.81597
110 5 1.51646 19.0845 2.71935
111 5 8.38262 14.8656 7.01427
112 5 5.28075 14.2565 1.48712
113 3 8.07765 17.4794 2.18343
114 3 5.65608 11.652 6.33083
115 3 7.69658 12.6023 2.07023
116 3 5.95564 16.4487 6.42725
117 3 6.10945 16.8856 2.76498
118 3 7.66179 12.2108 5.80015
119 3 0.681009 12.0074 1.5399
120 3 4.00475 17.0864 6.94059
121 6 2.27381 10.0486 4.97717
122 6 2.55181 19.1194 3.4804
123 6 0.399095 14.8925 7.85011
124 6 4.31439 14.2538 0.712988
125 4 0.141326 17.3111 1.7471
126 4 4.61734 11.6743 6.5982
127 4 6.74537 12.4833 2.63924
128 4 6.93531 16.3183 6.07234
129 4 5.23414 16.2314 2.66832
130 4 8.62936 12.8227 5.70432
131 4 1.62311 11.4167 1.43543
132 4 3.07263 17.6688 7.10394
133 1 4.48736 10.2242 12.2693
134 1 0.873295 18.8546 13.3486
135 1 2.93069 15.0578 9.06601
136 1 2.42466 14.0175 16.5498
137 2 3.4591 18.3251 11.7288
138 2 1.8847 10.7745 13.9195
139 2 3.94318 13.404 9.64027
140 2 1.49654 15.6609 15.92
141 2 2.18432 18.0033 12.071
142 2 3.14809 11.1256 13.5654
143 2 5.16607 13.0799 9.28759
144 2 9.13705 16.0068 16.36
145 2 2.98097 16.5443 10.4158
146 2 2.42614 12.5302 15.1384
147 2 4.57973 11.7753 10.9275
148 2 0.813612 17.4262 14.752
149 5 5.91835 10.3944 13.7669
150 5 8.49195 18.7056 11.8325
151 5 6.33149 15.3222 16.1383
152 5 7.99886 13.8202 9.46686
153 5 8.00956 10.0269 14.2902
154 5 6.32001 19.0613 11.3065
155 5 4.31069 14.9168 15.6103
156 5 1.18391 14.2086 10.0414
157 3 3.99001 17.397 10.7577
158 3 1.51578 11.6295 14.9094
159 3 3.61161 12.6034 10.6163
160 3 1.77946 16.4747 15.0447
161 3 1.91864 16.9128 11.2462
162 3 3.4312 12.2001 14.3703
163 3 5.50468 12.0504 10.0355
164 3 8.83997 17.0523 15.6
165 6 7.03571 9.94099 13.5147
166 6 7.29598 19.0591 12.1074
167 6 5.26777 14.839 16.3503
168 6 9.16984 14.3234 9.23311
169 4 4.91852 17.336 10.1786
170 4 0.599963 11.7104 15.5266
171 4 2.73322 12.7712 11.3112
172 4 2.75505 16.5409 14.6089
173 4 0.994779 16.3528 11.4243
174 4 4.40524 12.7223 14.1817
175 4 6.41208 11.5149 9.96804
176 4 7.86792 17.5976 15.5595
177 7 7.33787 13.3722 14.3687
178 8 6.83078 13.044 15.0904
179 8 6.77443 13.0738 13.6418
180 7 6.91353 15.6047 12.4922
181 8 6.86836 16.4991 12.754
182 8 7.82559 15.2808 12.4731
183 7 5.33263 4.90929 12.9106
184 8 4.39186 5.06156 12.9437
185 8 5.61669 5.78189 13.2293
186 7 7.13542 5.54104 11.3782
187 8 7.66769 5.53847 12.1964
188 8 8.29233 5.39693 11.0699
189 7 2.97267 4.87441 4.47564
190 8 2.75619 5.82479 4.33626
191 8 2.15467 4.7121 3.95532
192 7 4.65044 2.85318 4.17471
193 8 4.43212 2.77331 3.25582
194 8 5.24743 3.53915 4.44303
195 9 3.05877 9.64398 9.86764
196 10 3.24729 8.82254 8.96713
197 10 2.63469 10.3923 10.6313
198 9 8.99761 11.6959 10.5909
199 10 8.3673 11.3621 11.4901
200 10 0.796536 11.8975 9.7101
201 9 7.22848 6.79392 9.96188
202 10 7.38172 6.34513 8.92049
203 10 7.06593 7.34034 10.9666
204 9 1.7825 10.621 7.87233
205 10 1.10424 9.81988 7.417
206 10 2.59135 11.2558 8.39965
207 9 6.2995 9.07024 7.25463
208 10 7.05507 9.14865 6.42291
209 10 5.69294 8.71919 8.18275
210 9 9.09141 7.84738 7.00372
211 10 0.948504 7.47655 6.2026
212 10 8.30334 7.9956 7.87324
ITEM: TIMESTEP
25
ITEM: NUMBER OF ATOMS
212
ITEM: BOX BOUNDS xy xz yz pp pp pp
-1.2873055351327878e-02 9.5588776192888947e+00 0.0000000000000000e+00
-2.7998149712894715e-02 1.9414997249712911e+01 6.3220436393755763e-01
-2.4641629642058405e-02 1.7087456729642064e+01 0.0000000000000000e+00
ITEM: ATOMS id type x y z
1 1 8.68726 0.507713 3.71802
2 1 5.00763 9.16685 4.77618
3 1 7.08584 5.38623 0.472322
4 1 6.59818 4.28726 8.02369
5 2 7.69717 8.60345 3.13465
6 2 6.04561 1.08433 5.41925
7 2 8.1065 3.69816 1.09146
8 2 5.5919 5.94369 7.38068
9 2 6.46924 8.22362 3.53829
10 2 7.37414 1.47691 4.94202
11 2 0.418683 3.39128 0.733186
12 2 4.36065 6.26808 7.84532
13 2 7.09336 6.85041 1.95017
14 2 6.6152 2.79263 6.6311
15 2 8.72686 1.96147 2.33699
16 2 4.92389 7.67119 6.0703
17 5 1.07849 0.74113 5.22567
18 5 3.70267 8.95311 3.28832
19 5 1.56124 5.60847 7.56463
20 5 3.14552 4.09435 1.00206
21 5 3.1968 0.28993 5.74137
22 5 1.54074 9.3945 2.75296
23 5 8.48516 5.09504 7.08977
24 5 5.25831 4.53607 1.48349
25 3 8.07782 7.72623 2.19724
26 3 5.60001 1.88627 6.38629
27 3 7.69895 2.87935 2.08175
28 3 5.97073 6.79201 6.39927
29 3 6.14189 7.12763 2.79492
30 3 7.54764 2.46183 5.77998
31 3 0.749606 2.34118 1.50146
32 3 3.95648 7.39313 6.98278
33 6 2.27649 0.321021 5.02942
34 6 2.50727 9.35397 3.53243
35 6 0.418693 5.17057 7.79449
36 6 4.32088 4.49619 0.719347
37 4 0.174958 7.69401 1.79917
38 4 4.59357 1.80809 6.8116
39 4 6.67301 2.97133 2.42336
40 4 7.02264 6.87183 6.10857
41 4 5.12214 6.73134 2.78635
42 4 8.59759 2.7603 5.74634
43 4 1.70254 1.83225 1.4669
44 4 3.02617 7.94647 7.0844
45 1 4.5305 0.520651 12.2922
46 1 0.88557 9.15308 13.3134
47 1 2.9675 5.34091 9.036
48 1 2.44265 4.28599 16.5635
49 2 3.54788 8.53206 11.8042
50 2 1.78271 1.06822 13.8464
51 2 3.94254 3.77418 9.70241
52 2 1.48553 5.97128 15.9737
53 2 2.19935 8.21723 11.9793
54 2 3.14222 1.34457 13.6052
55 2 5.27774 3.36428 9.28326
56 2 9.12836 6.33418 16.3786
57 2 2.89851 6.82024 10.4342
58 2 2.44765 2.87426 15.2263
59 2 4.49796 1.90038 10.8729
60 2 0.845285 7.63731 14.6715
61 5 5.82877 0.680311 13.7667
62 5 8.48765 9.0481 11.9158
63 5 6.34514 5.59962 16.1663
64 5 7.99341 4.04438 9.49915
65 5 7.94753 0.297681 14.2937
66 5 6.31471 9.42277 11.2868
67 5 4.25196 5.12035 15.6387
68 5 1.12999 4.54469 10.0421
69 3 4.07062 7.53588 11.0191
70 3 1.47215 1.92 14.8462
71 3 3.54068 2.87526 10.5862
72 3 1.85521 6.83303 15.0341
73 3 1.91064 7.1566 11.2471
74 3 3.41054 2.48255 14.3184
75 3 5.55606 2.34634 9.99709
76 3 8.78428 7.35142 15.5387
77 6 6.96761 0.307056 13.5078
78 6 7.25491 9.33059 12.1525
79 6 5.19963 5.22347 16.3295
80 6 9.14283 4.51098 9.27198
81 4 4.8619 7.68421 10.2315
82 4 9.46262 1.91309 15.3792
83 4 2.63291 2.98683 11.2136
84 4 2.70737 6.7651 14.3335
85 4 0.936979 6.68219 11.1952
86 4 4.42771 2.8411 14.3424
87 4 6.46585 1.72998 10.0451
88 4 7.81239 7.7907 15.6449
89 1 8.66008 10.2281 3.73922
90 1 5.03592 18.8693 4.75756
91 1 7.10375 15.0812 0.508871
92 1 6.60337 14.0038 8.02006
93 2 7.72334 18.3276 3.14462
94 2 5.93108 10.9662 5.28285
95 2 8.10253 13.4153 1.04205
96 2 5.59377 15.671 7.33858
97 2 6.40452 18.015 3.46624
98 2 7.31515 11.2162 4.96443
99 2 0.42811 13.071 0.718372
100 2 4.34519 16.1037 7.78876
101 2 7.11944 16.569 1.84624
102 2 6.63899 12.5375 6.59238
103 2 8.62187 11.7077 2.36912
104 2 4.9984 17.3821 6.17672
105 5 1.13051 10.4492 5.18849
106 5 3.64693 18.7468 3.28152
107 5 1.58665 15.3043 7.57029
108 5 3.20917 13.8429 0.940604
109 5 3.18424 10.022 5.81682
110 5 1.51638 19.0859 2.71782
111 5 8.38379 14.8663 7.01453
112 5 5.27927 14.2582 1.48533
113 3 8.07849 17.4809 2.18188
114 3 5.65784 11.6532 6.33014
115 3 7.69699 12.6025 2.06974
116 3 5.9535 16.4483 6.42588
117 3 6.11154 16.8859 2.76401
118 3 7.6656 12.2122 5.80042
119 3 0.678148 12.0064 1.53985
120 3 4.00359 17.0886 6.9381
121 6 2.2737 10.0507 4.97673
122 6 2.55191 19.1224 3.47754
123 6 0.398495 14.8958 7.84975
124 6 4.31407 14.2552 0.712245
125 4 0.140479 17.3061 1.75059
126 4 4.61257 11.6833 6.59302
127 4 6.74854 12.4801 2.63691
128 4 6.94155 16.319 6.06888
129 4 5.23499 16.2311 2.66779
130 4 8.62026 12.8197 5.70307
131 4 1.61329 11.4158 1.43405
132 4 3.07801 17.6731 7.10441
133 1 4.4864 10.2236 12.2695
134 1 0.872213 18.856 13.3502
135 1 2.9293 15.0571 9.06653
136 1 2.42384 14.0189 16.5509
137 2 3.45675 18.3278 11.7306
138 2 1.88492 10.7732 13.9203
139 2 3.94293 13.4041 9.64006
140 2 1.49674 15.661 15.9208
141 2 2.18042 18.0067 12.0726
142 2 3.14879 11.1247 13.5662
143 2 5.16545 13.0804 9.28695
144 2 9.13885 16.0073 16.363
145 2 2.9818 16.5441 10.4147
146 2 2.42508 12.5315 15.1393
147 2 4.58356 11.7784 10.9303
148 2 0.811289 17.429 14.7539
149 5 5.92089 10.3926 13.7678
150 5 8.49324 18.7092 11.8328
151 5 6.32991 15.3244 16.1405
152 5 8.00262 13.8222 9.46577
153 5 8.0095 10.0275 14.2896
154 5 6.32135 19.0617 11.308
155 5 4.31387 14.9197 15.6133
156 5 1.18412 14.2094 10.0412
157 3 3.99147 17.3958 10.7598
158 3 1.51677 11.6294 14.9117
159 3 3.61372 12.6052 10.6176
160 3 1.77601 16.4763 15.0465
161 3 1.91791 16.9152 11.2452
162 3 3.43079 12.2001 14.3723
163 3 5.50318 12.0513 10.0353
164 3 8.84148 17.054 15.6027
165 6 7.03549 9.93906 13.5165
166 6 7.29718 19.0588 12.1078
167 6 5.26982 14.839 16.3513
168 6 9.17097 14.3271 9.23392
169 4 4.92215 17.3329 10.1777
170 4 0.603971 11.7132 15.5302
171 4 2.74715 12.776 11.3161
172 4 2.75609 16.5464 14.612
173 4 0.994798 16.3512 11.4269
174 4 4.39745 12.7225 14.1817
175 4 6.41531 11.512 9.96511
176 4 7.8751 17.5945 15.5617
177 7 7.34058 13.3725 14.3702
178 8 6.83386 13.0477 15.0895
179 8 6.7677 13.0805 13.6474
180 7 6.9138 15.6057 12.4937
181 8 6.86864 16.4964 12.7533
182 8 7.83183 15.2863 12.4682
183 7 5.33225 4.90725 12.9106
184 8 4.38997 5.05929 12.9494
185 8 5.6139 5.78503 13.2161
186 7 7.13695 5.53023 11.385
187 8 7.6579 5.5321 12.2035
188 8 8.33548 5.34574 11.0884
189 7 2.97087 4.87549 4.47373
190 8 2.74667 5.82742 4.33713
191 8 2.15399 4.71098 3.9443
192 7 4.65066 2.85186 4.17255
193 8 4.4388 2.76607 3.25127
194 8 5.25105 3.54072 4.43904
195 9 3.06011 9.64645 9.86352
196 10 3.24222 8.82991 8.95689
197 10 2.63016 10.392 10.6319
198 9 8.99735 11.6976 10.5904
199 10 8.36949 11.3651 11.4912
200 10 0.795814 11.8932 9.70908
201 9 7.22798 6.7976 9.95857
202 10 7.38395 6.34964 8.92025
203 10 7.06326 7.34518 10.9626
204 9 1.78161 10.6245 7.8699
205 10 1.10447 9.81968 7.41694
206 10 2.59277 11.2553 8.3979
207 9 6.29977 9.07416 7.25825
208 10 7.0616 9.14145 6.42772
209 10 5.69546 8.72148 8.1868
210 9 9.09256 7.85085 7.00282
211 10 0.947441 7.47672 6.20107
212 10 8.30487 7.99509 7.87502
ITEM: TIMESTEP
26
ITEM: NUMBER OF ATOMS
212
ITEM: BOX BOUNDS xy xz yz pp pp pp
-1.3790039757466843e-02 9.5599243018974001e+00 0.0000000000000000e+00
-2.9992537679603970e-02 1.9416991637679622e+01 6.3233406213992160e-01
-2.6396923121884797e-02 1.7089212023121888e+01 0.0000000000000000e+00
ITEM: ATOMS id type x y z
1 1 8.68901 0.505365 3.7166
2 1 5.0067 9.16761 4.77534
3 1 7.08539 5.38555 0.469633
4 1 6.59902 4.28622 8.02425
5 2 7.69858 8.60442 3.13373
6 2 6.0485 1.08161 5.41995
7 2 8.10739 3.69662 1.08976
8 2 5.59065 5.94208 7.37845
9 2 6.47105 8.22301 3.53917
10 2 7.37685 1.47611 4.93888
11 2 0.418395 3.39085 0.7312
12 2 4.36058 6.26718 7.84731
13 2 7.09395 6.84883 1.9501
14 2 6.6155 2.79084 6.63232
15 2 8.72896 1.95848 2.33636
16 2 4.91904 7.66948 6.06382
17 5 1.07861 0.7399 5.22548
18 5 3.70256 8.95346 3.28719
19 5 1.55871 5.60812 7.5646
20 5 3.14548 4.09377 1.0029
21 5 3.19543 0.288003 5.7403
22 5 1.54113 9.39515 2.75256
23 5 8.4891 5.09161 7.09106
24 5 5.25632 4.53589 1.48177
25 3 8.0791 7.72531 2.19686
26 3 5.60008 1.88341 6.38839
27 3 7.70052 2.8777 2.08094
28 3 5.9688 6.79085 6.39647
29 3 6.1442 7.12557 2.79675
30 3 7.54695 2.45951 5.77896
31 3 0.748726 2.34048 1.50025
32 3 3.95391 7.39257 6.98132
33 6 2.27471 0.320777 5.02942
34 6 2.50821 9.35235 3.53104
35 6 0.420336 5.17051 7.79488
36 6 4.31908 4.49395 0.718334
37 4 0.169445 7.68711 1.80324
38 4 4.59377 1.80746 6.81237
39 4 6.67016 2.96586 2.422
40 4 7.02581 6.87694 6.1102
41 4 5.12185 6.73174 2.78493
42 4 8.59875 2.75429 5.75049
43 4 1.70506 1.83064 1.46488
44 4 3.02925 7.94539 7.08032
45 1 4.53122 0.518775 12.2932
46 1 0.885004 9.15327 13.3136
47 1 2.96761 5.33844 9.03535
48 1 2.44254 4.28495 16.5652
49 2 3.54933 8.52765 11.8114
50 2 1.77974 1.06567 13.8442
51 2 3.94372 3.77513 9.70405
52 2 1.4857 5.97108 15.9758
53 2 2.19639 8.21663 11.9783
54 2 3.14211 1.3393 13.6075
55 2 5.27975 3.36393 9.28252
56 2 9.12954 6.33486 16.382
57 2 2.8973 6.81748 10.4348
58 2 2.44714 2.87483 15.2296
59 2 4.49739 1.89581 10.8722
60 2 0.843348 7.6361 14.6701
61 5 5.82764 0.676883 13.7676
62 5 8.48908 9.05186 11.9194
63 5 6.34377 5.59975 16.169
64 5 7.99702 4.04089 9.49946
65 5 7.9448 0.296127 14.2933
66 5 6.31529 9.42591 11.2879
67 5 4.25239 5.1184 15.6421
68 5 1.12821 4.54486 10.0423
69 3 4.07612 7.52398 11.0336
70 3 1.47194 1.91915 14.8463
71 3 3.54005 2.87276 10.5864
72 3 1.85514 6.83489 15.0361
73 3 1.90916 7.15477 11.2459
74 3 3.40792 2.48084 14.3193
75 3 5.55652 2.34401 9.99705
76 3 8.7855 7.35052 15.5394
77 6 6.96568 0.30623 13.5088
78 6 7.25439 9.32803 12.1556
79 6 5.19995 5.22519 16.3315
80 6 9.14384 4.50862 9.27274
81 4 4.86513 7.67989 10.2351
82 4 9.4636 1.91325 15.3799
83 4 2.63968 2.98644 11.2153
84 4 2.70199 6.76413 14.3304
85 4 0.933058 6.68369 11.1907
86 4 4.43407 2.83645 14.3467
87 4 6.4651 1.73005 10.0423
88 4 7.8053 7.79351 15.6458
89 1 8.66073 10.2277 3.73863
90 1 5.03609 18.8713 4.75599
91 1 7.10402 15.0815 0.507556
92 1 6.60437 14.0046 8.02045
93 2 7.72523 18.3307 3.14424
94 2 5.92758 10.9745 5.27641
95 2 8.10322 13.4154 1.03867
96 2 5.59284 15.6717 7.33637
97 2 6.40428 18.0192 3.46448
98 2 7.31661 11.2192 4.96128
99 2 0.427885 13.0709 0.715935
100 2 4.34539 16.1079 7.78934
101 2 7.12049 16.5702 1.84338
102 2 6.64075 12.5389 6.59185
103 2 8.62069 11.7072 2.36964
104 2 4.9982 17.3839 6.17537
105 5 1.13196 10.45 5.18573
106 5 3.64607 18.7514 3.27966
107 5 1.58452 15.3052 7.57034
108 5 3.21069 13.8451 0.939278
109 5 3.18183 10.0224 5.81761
110 5 1.51637 19.0873 2.7163
111 5 8.38502 14.867 7.01484
112 5 5.27779 14.2599 1.48349
113 3 8.07934 17.4824 2.18023
114 3 5.65959 11.6544 6.32944
115 3 7.69741 12.6027 2.06924
116 3 5.95136 16.448 6.42447
117 3 6.1137 16.8862 2.7629
118 3 7.66945 12.2136 5.80065
119 3 0.675316 12.0054 1.53971
120 3 4.00237 17.0909 6.93568
121 6 2.27358 10.0529 4.97624
122 6 2.5518 19.1255 3.47476
123 6 0.397968 14.8992 7.84926
124 6 4.31383 14.2566 0.71141
125 4 0.139536 17.3015 1.7543
126 4 4.60784 11.6927 6.5881
127 4 6.75172 12.4773 2.63406
128 4 6.94795 16.3201 6.06497
129 4 5.23563 16.2315 2.66772
130 4 8.61073 12.8164 5.70182
131 4 1.6032 11.4151 1.4327
132 4 3.08366 17.6775 7.10478
133 1 4.48545 10.223 12.2698
134 1 0.871108 18.8575 13.3518
135 1 2.92791 15.0565 9.06706
136 1 2.42302 14.0203 16.5521
137 2 3.4545 18.3305 11.7323
138 2 1.88509 10.7717 13.9212
139 2 3.94262 13.4043 9.63985
140 2 1.49683 15.661 15.9218
141 2 2.1765 18.0102 12.0742
142 2 3.14951 11.1238 13.567
143 2 5.16494 13.0808 9.28626
144 2 9.1407 16.0078 16.3661
145 2 2.9826 16.544 10.4138
146 2 2.42403 12.5329 15.1404
147 2 4.58745 11.7815 10.9332
148 2 0.80903 17.4319 14.7559
149 5 5.92344 10.3908 13.7686
150 5 8.49448 18.7129 11.833
151 5 6.32838 15.3267 16.1426
152 5 8.00647 13.8242 9.4647
153 5 8.00944 10.0281 14.2891
154 5 6.32274 19.0621 11.3095
155 5 4.31702 14.9226 15.6163
156 5 1.18429 14.2104 10.0409
157 3 3.9928 17.3948 10.7619
158 3 1.51771 11.6293 14.914
159 3 3.6158 12.6072 10.619
160 3 1.77256 16.4781 15.0482
161 3 1.91719 16.9176 11.2443
162 3 3.43044 12.1999 14.3742
163 3 5.50169 12.0521 10.0351
164 3 8.84294 17.0559 15.6054
165 6 7.03527 9.93716 13.5184
166 6 7.29839 19.0585 12.1082
167 6 5.2718 14.839 16.3524
168 6 9.17198 14.3308 9.23483
169 4 4.92583 17.3302 10.1772
170 4 0.6079 11.7157 15.5333
171 4 2.76138 12.7809 11.3206
172 4 2.75725 16.5518 14.6151
173 4 0.994956 16.3495 11.4293
174 4 4.38928 12.7228 14.182
175 4 6.41879 11.5092 9.9621
176 4 7.88241 17.5913 15.5643
177 7 7.3433 13.3728 14.3717
178 8 6.83681 13.0512 15.0892
179 8 6.76121 13.0874 13.6529
180 7 6.91409 15.6066 12.4952
181 8 6.86911 16.4942 12.7529
182 8 7.83777 15.2921 12.4636
183 7 5.33187 4.9052 12.9105
184 8 4.38793 5.05682 12.955
185 8 5.61123 5.78792 13.203
186 7 7.13866 5.5192 11.3919
187 8 7.64757 5.52577 12.2111
188 8 8.3768 5.29447 11.1069
189 7 2.96901 4.8766 4.47176
190 8 2.73765 5.82997 4.33839
191 8 2.15362 4.70926 3.93348
192 7 4.65082 2.85052 4.17034
193 8 4.44563 2.75918 3.24658
194 8 5.25464 3.54236 4.4347
195 9 3.06141 9.64881 9.85921
196 10 3.23714 8.83743 8.94678
197 10 2.62554 10.3916 10.6324
198 9 8.99716 11.6992 10.5899
199 10 8.37171 11.3683 11.4923
200 10 0.795042 11.8888 9.70807
201 9 7.22747 6.80135 9.95527
202 10 7.38618 6.35419 8.92009
203 10 7.06061 7.34992 10.9584
204 9 1.78076 10.6279 7.86748
205 10 1.10463 9.81946 7.41695
206 10 2.59417 11.2547 8.39611
207 9 6.30006 9.07806 7.26199
208 10 7.0682 9.13428 6.43246
209 10 5.69801 8.72387 8.19092
210 9 9.09375 7.85424 7.00194
211 10 0.946294 7.47696 6.19953
212 10 8.30651 7.99458 7.87675
ITEM: TIMESTEP
27
ITEM: NUMBER OF ATOMS
212
ITEM: BOX BOUNDS xy xz yz pp pp pp
-1.4728528091925597e-02 9.5609955299481548e+00 0.0000000000000000e+00
-3.2033695444788179e-02 1.9419032795444807e+01 6.3246680185621784e-01
-2.8193379466552315e-02 1.7091008479466556e+01 0.0000000000000000e+00
ITEM: ATOMS id type x y z
1 1 8.69077 0.502976 3.71515
2 1 5.00577 9.16836 4.77447
3 1 7.08496 5.38485 0.466913
4 1 6.59988 4.28515 8.0248
5 2 7.70005 8.60543 3.1328
6 2 6.05149 1.07876 5.42058
7 2 8.10824 3.6951 1.08803
8 2 5.58937 5.94038 7.37619
9 2 6.4728 8.22237 3.54001
10 2 7.37943 1.47521 4.9358
11 2 0.418148 3.39038 0.729172
12 2 4.3604 6.26638 7.84918
13 2 7.09459 6.84714 1.94993
14 2 6.61573 2.78905 6.63361
15 2 8.731 1.95544 2.33575
16 2 4.91419 7.66774 6.05727
17 5 1.07881 0.738601 5.22529
18 5 3.70236 8.95382 3.28602
19 5 1.55615 5.60772 7.56457
20 5 3.14551 4.09319 1.0037
21 5 3.19411 0.28603 5.73928
22 5 1.54153 9.39579 2.75214
23 5 8.49296 5.08815 7.09223
24 5 5.25435 4.53569 1.48001
25 3 8.08041 7.72439 2.19645
26 3 5.60024 1.88054 6.39049
27 3 7.70218 2.876 2.08007
28 3 5.96679 6.78961 6.39362
29 3 6.14649 7.12355 2.7986
30 3 7.5464 2.45717 5.77786
31 3 0.747842 2.33972 1.499
32 3 3.95139 7.3918 6.97988
33 6 2.27277 0.320458 5.02919
34 6 2.50921 9.35074 3.52966
35 6 0.422146 5.17038 7.79545
36 6 4.3172 4.49171 0.71719
37 4 0.163658 7.68008 1.80726
38 4 4.59413 1.80703 6.81324
39 4 6.66748 2.95991 2.42087
40 4 7.02873 6.88189 6.11159
41 4 5.1217 6.73206 2.78343
42 4 8.59975 2.74868 5.755
43 4 1.70762 1.82902 1.46274
44 4 3.03234 7.944 7.07575
45 1 4.53195 0.516852 12.2943
46 1 0.884417 9.15346 13.3138
47 1 2.96771 5.33594 9.03471
48 1 2.44243 4.28389 16.567
49 2 3.55083 8.52313 11.8186
50 2 1.77682 1.06306 13.8421
51 2 3.94499 3.77606 9.70563
52 2 1.48581 5.9708 15.978
53 2 2.19343 8.21604 11.9773
54 2 3.14196 1.33401 13.6098
55 2 5.28166 3.36365 9.28177
56 2 9.13075 6.33551 16.3855
57 2 2.89622 6.81467 10.4355
58 2 2.44659 2.87532 15.2329
59 2 4.49685 1.89126 10.8715
60 2 0.841381 7.63496 14.6688
61 5 5.82654 0.673409 13.7685
62 5 8.49045 9.05561 11.9231
63 5 6.3424 5.59988 16.1717
64 5 8.00072 4.03735 9.49978
65 5 7.94206 0.294533 14.293
66 5 6.31588 9.42916 11.289
67 5 4.25278 5.11645 15.6455
68 5 1.12642 4.54502 10.0425
69 3 4.08147 7.51201 11.048
70 3 1.47174 1.91833 14.8466
71 3 3.53944 2.87016 10.5867
72 3 1.85505 6.83677 15.038
73 3 1.90764 7.15291 11.2447
74 3 3.40531 2.47909 14.3202
75 3 5.55693 2.34149 9.99718
76 3 8.78677 7.34956 15.5402
77 6 6.96385 0.305327 13.5097
78 6 7.25391 9.32551 12.1587
79 6 5.20029 5.22679 16.3337
80 6 9.14481 4.5062 9.27342
81 4 4.86811 7.67567 10.2394
82 4 9.46455 1.91333 15.3805
83 4 2.64657 2.986 11.2167
84 4 2.69658 6.7629 14.3276
85 4 0.929056 6.68538 11.1862
86 4 4.4404 2.83186 14.3512
87 4 6.46442 1.73042 10.039
88 4 7.79824 7.79654 15.6466
89 1 8.66139 10.2273 3.73802
90 1 5.03627 18.8734 4.75441
91 1 7.10431 15.0818 0.506199
92 1 6.60537 14.0054 8.02084
93 2 7.72712 18.3339 3.14387
94 2 5.92418 10.9827 5.26987
95 2 8.10386 13.4156 1.03528
96 2 5.59186 15.6722 7.33425
97 2 6.40404 18.0235 3.4627
98 2 7.31803 11.2223 4.95813
99 2 0.42767 13.0708 0.713471
100 2 4.34557 16.1121 7.78988
101 2 7.12154 16.5714 1.84055
102 2 6.6425 12.5404 6.59136
103 2 8.61955 11.7066 2.37016
104 2 4.99808 17.3859 6.17392
105 5 1.13341 10.4509 5.18289
106 5 3.64526 18.7561 3.27773
107 5 1.58229 15.3061 7.57038
108 5 3.21219 13.8472 0.937936
109 5 3.17943 10.0228 5.81833
110 5 1.51642 19.0888 2.7148
111 5 8.38632 14.8677 7.01521
112 5 5.27629 14.2616 1.48161
113 3 8.08021 17.4839 2.17848
114 3 5.66131 11.6556 6.32875
115 3 7.69786 12.6029 2.06871
116 3 5.94923 16.4477 6.42301
117 3 6.11594 16.8865 2.76166
118 3 7.67334 12.2151 5.80084
119 3 0.672511 12.0045 1.53949
120 3 4.00109 17.0932 6.93334
121 6 2.27345 10.055 4.97567
122 6 2.5515 19.1288 3.47208
123 6 0.397514 14.9026 7.84865
124 6 4.31368 14.258 0.710479
125 4 0.138513 17.2971 1.75822
126 4 4.60321 11.7025 6.58343
127 4 6.75488 12.475 2.63073
128 4 6.95441 16.3217 6.06063
129 4 5.23606 16.2325 2.66811
130 4 8.60088 12.8129 5.70054
131 4 1.59292 11.4145 1.43137
132 4 3.08954 17.6819 7.10504
133 1 4.4845 10.2224 12.27
134 1 0.869981 18.859 13.3535
135 1 2.92651 15.0558 9.06758
136 1 2.42219 14.0217 16.5533
137 2 3.45234 18.3332 11.7339
138 2 1.88521 10.7703 13.9221
139 2 3.94226 13.4046 9.63964
140 2 1.49681 15.6609 15.923
141 2 2.17257 18.0136 12.0757
142 2 3.15024 11.123 13.5679
143 2 5.16453 13.0813 9.28554
144 2 9.1426 16.0083 16.3691
145 2 2.98337 16.5439 10.4128
146 2 2.423 12.5345 15.1415
147 2 4.59139 11.7846 10.9362
148 2 0.806836 17.4348 14.7578
149 5 5.92601 10.389 13.7695
150 5 8.49565 18.7166 11.8334
151 5 6.32689 15.3291 16.1448
152 5 8.01042 13.8263 9.46362
153 5 8.00939 10.0288 14.2886
154 5 6.32418 19.0626 11.3111
155 5 4.32016 14.9256 15.6193
156 5 1.18444 14.2114 10.0406
157 3 3.99401 17.3937 10.7641
158 3 1.51862 11.6293 14.9163
159 3 3.61786 12.6092 10.6205
160 3 1.76912 16.4801 15.0498
161 3 1.91649 16.9201 11.2434
162 3 3.43013 12.1998 14.376
163 3 5.50022 12.053 10.0349
164 3 8.84433 17.0578 15.6082
165 6 7.03507 9.93528 13.5204
166 6 7.29961 19.0583 12.1086
167 6 5.2737 14.839 16.3536
168 6 9.17288 14.3345 9.23583
169 4 4.92953 17.328 10.177
170 4 0.611726 11.7179 15.536
171 4 2.77583 12.7858 11.3249
172 4 2.75851 16.5573 14.6183
173 4 0.995271 16.3479 11.4315
174 4 4.38078 12.7233 14.1826
175 4 6.42244 11.5063 9.959
176 4 7.88976 17.5878 15.5671
177 7 7.34603 13.3731 14.3732
178 8 6.8396 13.0546 15.0895
179 8 6.75498 13.0944 13.6585
180 7 6.91441 15.6075 12.4967
181 8 6.86974 16.4928 12.7527
182 8 7.84334 15.2982 12.459
183 7 5.33148 4.90316 12.9105
184 8 4.38576 5.05417 12.9607
185 8 5.60869 5.79058 13.1898
186 7 7.14055 5.50797 11.3988
187 8 7.63678 5.5195 12.2191
188 8 8.41623 5.24323 11.1253
189 7 2.96708 4.87773 4.46973
190 8 2.72914 5.8324 4.34004
191 8 2.15362 4.70694 3.92289
192 7 4.65095 2.84914 4.16808
193 8 4.45262 2.75263 3.24176
194 8 5.25812 3.54399 4.43
195 9 3.06265 9.65109 9.85473
196 10 3.23205 8.84509 8.93682
197 10 2.62083 10.3912 10.6329
198 9 8.99704 11.7009 10.5895
199 10 8.37396 11.3717 11.4933
200 10 0.794222 11.8844 9.70708
201 9 7.22694 6.80516 9.952
202 10 7.38841 6.35876 8.92
203 10 7.058 7.35455 10.9542
204 9 1.77995 10.6314 7.86508
205 10 1.10473 9.81924 7.41703
206 10 2.59556 11.2542 8.39426
207 9 6.30037 9.08194 7.26585
208 10 7.07488 9.12715 6.43714
209 10 5.70059 8.72635 8.19511
210 9 9.09499 7.85754 7.00106
211 10 0.945063 7.47726 6.19797
212 10 8.30824 7.99408 7.87843
ITEM: TIMESTEP
28
ITEM: NUMBER OF ATOMS
212
ITEM: BOX BOUNDS xy xz yz pp pp pp
-1.5687691627010558e-02 9.5620903574982865e+00 0.0000000000000000e+00
-3.4119820573714321e-02 1.9421118920573733e+01 6.3260246587126623e-01
-3.0029412323763438e-02 1.7092844512323765e+01 0.0000000000000000e+00
ITEM: ATOMS id type x y z
1 1 8.69256 0.500547 3.71368
2 1 5.00485 9.16911 4.77359
3 1 7.08455 5.38412 0.464162
4 1 6.60075 4.28405 8.02536
5 2 7.70156 8.60646 3.13187
6 2 6.05458 1.0758 5.42113
7 2 8.10905 3.69363 1.08625
8 2 5.58806 5.93858 7.37388
9 2 6.47448 8.22172 3.54081
10 2 7.38187 1.4742 4.93277
11 2 0.417941 3.38986 0.727104
12 2 4.36013 6.26567 7.85093
13 2 7.09528 6.84536 1.94964
14 2 6.61589 2.78726 6.63496
15 2 8.73297 1.95234 2.33515
16 2 4.90935 7.66595 6.05065
17 5 1.07907 0.737236 5.2251
18 5 3.70207 8.9542 3.28483
19 5 1.55357 5.60725 7.56455
20 5 3.14559 4.0926 1.00445
21 5 3.19283 0.284013 5.7383
22 5 1.54195 9.39642 2.75171
23 5 8.49676 5.08464 7.09326
24 5 5.25239 4.53546 1.47823
25 3 8.08174 7.72347 2.19601
26 3 5.60048 1.87765 6.3926
27 3 7.70392 2.87425 2.07914
28 3 5.96471 6.78832 6.39074
29 3 6.14875 7.12159 2.80047
30 3 7.54601 2.45482 5.7767
31 3 0.746957 2.33892 1.49772
32 3 3.94891 7.39083 6.97844
33 6 2.27067 0.320064 5.02873
34 6 2.51027 9.34913 3.52829
35 6 0.424115 5.17017 7.7962
36 6 4.31525 4.48948 0.715917
37 4 0.157671 7.67294 1.8112
38 4 4.59466 1.8068 6.81421
39 4 6.665 2.95347 2.41996
40 4 7.03136 6.88666 6.11276
41 4 5.1217 6.73228 2.78186
42 4 8.60057 2.74347 5.75987
43 4 1.71016 1.82742 1.46048
44 4 3.03538 7.94232 7.0707
45 1 4.53266 0.514884 12.2954
46 1 0.883808 9.15365 13.314
47 1 2.96781 5.33343 9.03407
48 1 2.44231 4.28281 16.5688
49 2 3.55235 8.51849 11.826
50 2 1.77396 1.0604 13.84
51 2 3.94635 3.77696 9.70717
52 2 1.48586 5.97046 15.9802
53 2 2.19048 8.21546 11.9765
54 2 3.14175 1.32872 13.6121
55 2 5.28348 3.36343 9.281
56 2 9.13199 6.33615 16.3889
57 2 2.8953 6.81181 10.4362
58 2 2.446 2.87572 15.2361
59 2 4.49634 1.88674 10.8707
60 2 0.839384 7.63388 14.6675
61 5 5.82546 0.669891 13.7695
62 5 8.49178 9.05933 11.9268
63 5 6.34104 5.6 16.1744
64 5 8.00451 4.03376 9.50009
65 5 7.9393 0.2929 14.2926
66 5 6.31649 9.43253 11.2902
67 5 4.25315 5.11449 15.6489
68 5 1.12463 4.54515 10.0428
69 3 4.08666 7.49997 11.0622
70 3 1.47155 1.91754 14.8469
71 3 3.53884 2.86746 10.587
72 3 1.85495 6.83866 15.0399
73 3 1.9061 7.15101 11.2434
74 3 3.40271 2.47729 14.3212
75 3 5.55727 2.33877 9.99748
76 3 8.78807 7.34857 15.5411
77 6 6.96213 0.304346 13.5107
78 6 7.25348 9.32303 12.1618
79 6 5.20064 5.22827 16.3362
80 6 9.14575 4.50374 9.27401
81 4 4.87079 7.67153 10.2444
82 4 9.46548 1.91332 15.3809
83 4 2.65353 2.98551 11.2181
84 4 2.69117 6.76142 14.3252
85 4 0.924982 6.68727 11.1816
86 4 4.44663 2.82728 14.3559
87 4 6.46386 1.73105 10.0354
88 4 7.7913 7.79975 15.6472
89 1 8.66208 10.2269 3.73739
90 1 5.03644 18.8754 4.75281
91 1 7.10461 15.0821 0.504801
92 1 6.60638 14.0062 8.02122
93 2 7.729 18.3371 3.1435
94 2 5.92089 10.991 5.26323
95 2 8.10447 13.4158 1.0319
96 2 5.59083 15.6727 7.33223
97 2 6.40379 18.0277 3.4609
98 2 7.3194 11.2255 4.95499
99 2 0.427463 13.0707 0.710983
100 2 4.34575 16.1163 7.7904
101 2 7.12258 16.5726 1.83774
102 2 6.64423 12.5421 6.59091
103 2 8.61845 11.706 2.37069
104 2 4.99802 17.388 6.17236
105 5 1.13486 10.4518 5.17999
106 5 3.6445 18.7608 3.27572
107 5 1.57997 15.307 7.57043
108 5 3.21365 13.8494 0.936581
109 5 3.17703 10.0232 5.81898
110 5 1.51653 19.0903 2.7133
111 5 8.38768 14.8684 7.01564
112 5 5.27479 14.2633 1.4797
113 3 8.0811 17.4853 2.17664
114 3 5.66301 11.6569 6.32805
115 3 7.69833 12.6031 2.06817
116 3 5.94712 16.4476 6.42151
117 3 6.11825 16.8868 2.7603
118 3 7.67723 12.2165 5.801
119 3 0.669728 12.0036 1.5392
120 3 3.99976 17.0955 6.93106
121 6 2.27332 10.057 4.97503
122 6 2.55099 19.1322 3.46948
123 6 0.397127 14.9061 7.84793
124 6 4.31361 14.2596 0.709453
125 4 0.137425 17.2931 1.76235
126 4 4.59874 11.7128 6.57898
127 4 6.75796 12.4731 2.62691
128 4 6.96084 16.3238 6.05592
129 4 5.2363 16.234 2.66895
130 4 8.59085 12.8092 5.69923
131 4 1.58249 11.4139 1.43007
132 4 3.09562 17.6865 7.10521
133 1 4.48356 10.2218 12.2703
134 1 0.868832 18.8605 13.3551
135 1 2.92512 15.0552 9.0681
136 1 2.42136 14.0231 16.5545
137 2 3.45028 18.336 11.7355
138 2 1.88529 10.7688 13.923
139 2 3.94185 13.405 9.63944
140 2 1.4967 15.6608 15.9244
141 2 2.16862 18.017 12.0773
142 2 3.15099 11.1222 13.5688
143 2 5.16422 13.0817 9.28478
144 2 9.14455 16.0087 16.3722
145 2 2.98409 16.5438 10.4119
146 2 2.42197 12.5362 15.1427
147 2 4.59537 11.7876 10.9393
148 2 0.804707 17.4377 14.7598
149 5 5.92858 10.3872 13.7705
150 5 8.49677 18.7204 11.8337
151 5 6.32546 15.3315 16.147
152 5 8.01446 13.8284 9.46255
153 5 8.00933 10.0294 14.2881
154 5 6.32567 19.0632 11.3128
155 5 4.32326 14.9285 15.6224
156 5 1.18455 14.2125 10.0403
157 3 3.9951 17.3928 10.7664
158 3 1.51949 11.6293 14.9186
159 3 3.61989 12.6113 10.622
160 3 1.7657 16.4822 15.0512
161 3 1.91581 16.9227 11.2426
162 3 3.42987 12.1996 14.3777
163 3 5.49878 12.0539 10.0347
164 3 8.84568 17.0598 15.611
165 6 7.03487 9.93342 13.5225
166 6 7.30083 19.0582 12.1089
167 6 5.27552 14.839 16.3549
168 6 9.17368 14.3381 9.23692
169 4 4.9332 17.3262 10.1772
170 4 0.615426 11.7197 15.5384
171 4 2.79044 12.7907 11.3289
172 4 2.75982 16.5628 14.6215
173 4 0.995759 16.3462 11.4335
174 4 4.37202 12.724 14.1835
175 4 6.42621 11.5035 9.95583
176 4 7.89709 17.5842 15.5702
177 7 7.34878 13.3735 14.3747
178 8 6.84223 13.0579 15.0904
179 8 6.74901 13.1016 13.664
180 7 6.91475 15.6083 12.4982
181 8 6.87054 16.4921 12.7527
182 8 7.84849 15.3046 12.4546
183 7 5.33108 4.90112 12.9106
184 8 4.38351 5.05132 12.9663
185 8 5.60627 5.79302 13.1766
186 7 7.14261 5.49655 11.4058
187 8 7.62559 5.51333 12.2278
188 8 8.45376 5.19211 11.1437
189 7 2.96509 4.87889 4.46764
190 8 2.72115 5.83467 4.34208
191 8 2.15405 4.70404 3.91257
192 7 4.65104 2.84774 4.16579
193 8 4.45979 2.74642 3.23684
194 8 5.26148 3.54558 4.42492
195 9 3.06383 9.65327 9.85007
196 10 3.22694 8.8529 8.92699
197 10 2.61604 10.3907 10.6334
198 9 8.997 11.7025 10.5889
199 10 8.37623 11.3751 11.4944
200 10 0.793353 11.8798 9.7061
201 9 7.2264 6.80904 9.94875
202 10 7.39065 6.36336 8.91998
203 10 7.05542 7.35904 10.9498
204 9 1.77918 10.6348 7.86269
205 10 1.10476 9.819 7.41718
206 10 2.59694 11.2538 8.39236
207 9 6.30071 9.0858 7.26982
208 10 7.08162 9.12006 6.44176
209 10 5.7032 8.72891 8.19937
210 9 9.09626 7.86076 7.00021
211 10 0.943748 7.47762 6.19639
212 10 8.31009 7.99359 7.88006
ITEM: TIMESTEP
29
ITEM: NUMBER OF ATOMS
212
ITEM: BOX BOUNDS xy xz yz pp pp pp
-1.6666725917692915e-02 9.5632078663221289e+00 0.0000000000000000e+00
-3.6249163445043919e-02 1.9423248263445061e+01 6.3274094040442519e-01
-3.1903481823153612e-02 1.7094718581823159e+01 0.0000000000000000e+00
ITEM: ATOMS id type x y z
1 1 8.69437 0.498081 3.71218
2 1 5.00393 9.16986 4.77269
3 1 7.08415 5.38337 0.461382
4 1 6.60163 4.28292 8.02591
5 2 7.70313 8.60752 3.13092
6 2 6.05778 1.07271 5.4216
7 2 8.10982 3.69219 1.08444
8 2 5.58674 5.93669 7.37155
9 2 6.4761 8.22105 3.54158
10 2 7.38416 1.47308 4.9298
11 2 0.417774 3.38931 0.724998
12 2 4.35976 6.26507 7.85256
13 2 7.09602 6.84348 1.94924
14 2 6.61597 2.78549 6.63637
15 2 8.73487 1.9492 2.33455
16 2 4.90452 7.66413 6.04399
17 5 1.07939 0.735807 5.22491
18 5 3.70169 8.95459 3.2836
19 5 1.55096 5.60672 7.56454
20 5 3.14573 4.09201 1.00516
21 5 3.1916 0.281953 5.73736
22 5 1.54238 9.39704 2.75126
23 5 8.50048 5.08108 7.09417
24 5 5.25045 4.53522 1.47642
25 3 8.08307 7.72257 2.19555
26 3 5.60082 1.87475 6.39471
27 3 7.70574 2.87247 2.07815
28 3 5.96255 6.78697 6.38781
29 3 6.15098 7.11967 2.80236
30 3 7.54576 2.45245 5.77546
31 3 0.746075 2.33808 1.49641
32 3 3.9465 7.38966 6.97701
33 6 2.26842 0.319593 5.02805
34 6 2.51138 9.34754 3.52694
35 6 0.426234 5.16988 7.79714
36 6 4.31323 4.48726 0.714515
37 4 0.151557 7.6657 1.81505
38 4 4.59534 1.80675 6.81528
39 4 6.66276 2.94656 2.41925
40 4 7.03366 6.89123 6.11371
41 4 5.12187 6.73242 2.78022
42 4 8.60123 2.73866 5.76509
43 4 1.71266 1.82584 1.45811
44 4 3.03831 7.94036 7.06518
45 1 4.53338 0.512872 12.2965
46 1 0.883179 9.15383 13.3142
47 1 2.9679 5.33091 9.03344
48 1 2.44218 4.2817 16.5706
49 2 3.55391 8.51374 11.8334
50 2 1.77116 1.05769 13.838
51 2 3.94781 3.77782 9.70864
52 2 1.48586 5.97005 15.9825
53 2 2.18755 8.21489 11.9757
54 2 3.1415 1.32341 13.6145
55 2 5.28519 3.36327 9.28021
56 2 9.13326 6.33676 16.3923
57 2 2.89452 6.80892 10.4371
58 2 2.44538 2.87603 15.2393
59 2 4.49587 1.88227 10.8698
60 2 0.837358 7.63285 14.6662
61 5 5.82439 0.66633 13.7704
62 5 8.49307 9.06302 11.9306
63 5 6.33969 5.60013 16.177
64 5 8.00838 4.03011 9.50041
65 5 7.93653 0.291231 14.2923
66 5 6.31711 9.43601 11.2915
67 5 4.25348 5.11252 15.6522
68 5 1.12285 4.54526 10.0431
69 3 4.09168 7.48789 11.0763
70 3 1.47136 1.91679 14.8473
71 3 3.53826 2.86465 10.5874
72 3 1.85484 6.84057 15.0418
73 3 1.90453 7.14907 11.2423
74 3 3.40012 2.47547 14.3222
75 3 5.55754 2.33588 9.99795
76 3 8.7894 7.34753 15.5421
77 6 6.9605 0.303287 13.5117
78 6 7.2531 9.32061 12.1649
79 6 5.20101 5.22963 16.3389
80 6 9.14666 4.50124 9.27452
81 4 4.8731 7.66744 10.2502
82 4 9.4664 1.91323 15.3812
83 4 2.6605 2.98499 11.2193
84 4 2.68576 6.75969 14.3232
85 4 0.920844 6.68935 11.1771
86 4 4.45267 2.82271 14.3606
87 4 6.46341 1.73193 10.0315
88 4 7.78458 7.80308 15.6476
89 1 8.66279 10.2265 3.73674
90 1 5.03662 18.8776 4.7512
91 1 7.10492 15.0825 0.503364
92 1 6.6074 14.0071 8.0216
93 2 7.73087 18.3404 3.14312
94 2 5.91771 10.9991 5.25649
95 2 8.10503 13.4161 1.02851
96 2 5.58975 15.6732 7.33031
97 2 6.40355 18.032 3.45908
98 2 7.32073 11.2286 4.95186
99 2 0.427263 13.0705 0.708474
100 2 4.34592 16.1205 7.7909
101 2 7.12361 16.5738 1.83496
102 2 6.64596 12.5438 6.59051
103 2 8.61738 11.7053 2.3712
104 2 4.99803 17.3902 6.17071
105 5 1.1363 10.4527 5.17702
106 5 3.64378 18.7655 3.27364
107 5 1.57756 15.3079 7.57048
108 5 3.21508 13.8516 0.935214
109 5 3.17462 10.0236 5.81957
110 5 1.5167 19.0919 2.71183
111 5 8.3891 14.8691 7.01612
112 5 5.27327 14.2651 1.47774
113 3 8.082 17.4868 2.17471
114 3 5.66467 11.6583 6.32736
115 3 7.69883 12.6033 2.0676
116 3 5.94503 16.4475 6.41995
117 3 6.12064 16.8871 2.75882
118 3 7.68113 12.218 5.80112
119 3 0.666963 12.0027 1.53882
120 3 3.99838 17.0978 6.92885
121 6 2.27319 10.0591 4.97432
122 6 2.55029 19.1358 3.46699
123 6 0.396803 14.9097 7.8471
124 6 4.31363 14.2612 0.708327
125 4 0.136287 17.2894 1.76668
126 4 4.5945 11.7235 6.57474
127 4 6.76093 12.4717 2.62263
128 4 6.96714 16.3265 6.05088
129 4 5.23636 16.2362 2.67023
130 4 8.5808 12.8055 5.69788
131 4 1.572 11.4134 1.42877
132 4 3.10183 17.6912 7.10529
133 1 4.48262 10.2213 12.2706
134 1 0.867662 18.8621 13.3568
135 1 2.92372 15.0547 9.06862
136 1 2.42052 14.0245 16.5558
137 2 3.44833 18.3388 11.7371
138 2 1.88532 10.7673 13.924
139 2 3.94139 13.4055 9.63924
140 2 1.49647 15.6605 15.9259
141 2 2.16466 18.0203 12.0788
142 2 3.15175 11.1214 13.5698
143 2 5.164 13.0823 9.28398
144 2 9.14655 16.0093 16.3753
145 2 2.98478 16.5437 10.411
146 2 2.42095 12.5379 15.1441
147 2 4.59939 11.7906 10.9424
148 2 0.802645 17.4406 14.7618
149 5 5.93116 10.3854 13.7714
150 5 8.49784 18.7243 11.8341
151 5 6.32409 15.3339 16.1493
152 5 8.01858 13.8306 9.46149
153 5 8.00928 10.03 14.2875
154 5 6.32721 19.0638 11.3145
155 5 4.32634 14.9315 15.6255
156 5 1.18462 14.2137 10.0399
157 3 3.99607 17.3919 10.7687
158 3 1.52032 11.6292 14.9209
159 3 3.62192 12.6135 10.6237
160 3 1.76231 16.4845 15.0526
161 3 1.91515 16.9253 11.2418
162 3 3.42965 12.1993 14.3794
163 3 5.49738 12.0548 10.0346
164 3 8.84697 17.0618 15.6138
165 6 7.03469 9.93159 13.5247
166 6 7.30206 19.0581 12.1092
167 6 5.27727 14.8389 16.3563
168 6 9.17437 14.3417 9.2381
169 4 4.93684 17.3248 10.1778
170 4 0.618974 11.7212 15.5403
171 4 2.80512 12.7958 11.3326
172 4 2.76114 16.5683 14.6247
173 4 0.996436 16.3445 11.4353
174 4 4.36307 12.725 14.1846
175 4 6.43003 11.5008 9.95259
176 4 7.9043 17.5805 15.5737
177 7 7.35154 13.3738 14.3762
178 8 6.84466 13.0611 15.0919
179 8 6.74331 13.1089 13.6695
180 7 6.91512 15.6092 12.4996
181 8 6.87149 16.4922 12.7529
182 8 7.85316 15.3113 12.4503
183 7 5.33066 4.89908 12.9106
184 8 4.38119 5.04826 12.972
185 8 5.60398 5.79524 13.1635
186 7 7.14483 5.48494 11.4129
187 8 7.61408 5.50727 12.237
188 8 8.48936 5.14118 11.1619
189 7 2.96302 4.88008 4.4655
190 8 2.71367 5.83675 4.34453
191 8 2.15494 4.70059 3.90253
192 7 4.6511 2.84633 4.16345
193 8 4.46712 2.74054 3.23186
194 8 5.26466 3.54706 4.41945
195 9 3.06495 9.65537 9.84527
196 10 3.22183 8.86084 8.91732
197 10 2.61119 10.3903 10.6339
198 9 8.99703 11.7041 10.5884
199 10 8.37852 11.3787 11.4955
200 10 0.792435 11.8753 9.70514
201 9 7.22585 6.81298 9.94554
202 10 7.39288 6.36797 8.92002
203 10 7.05287 7.3634 10.9453
204 9 1.77845 10.6383 7.86031
205 10 1.10473 9.81876 7.4174
206 10 2.59831 11.2534 8.39041
207 9 6.30109 9.08963 7.27388
208 10 7.08841 9.11303 6.44632
209 10 5.70583 8.73156 8.20369
210 9 9.09758 7.86389 6.99937
211 10 0.942349 7.47805 6.1948
212 10 8.31204 7.99311 7.88163
ITEM: TIMESTEP
30
ITEM: NUMBER OF ATOMS
212
ITEM: BOX BOUNDS xy xz yz pp pp pp
-1.7664848708285774e-02 9.5643471635218091e+00 0.0000000000000000e+00
-3.8420022697971845e-02 1.9425419122697988e+01 6.3288211481351198e-01
-3.3814090569240562e-02 1.7096629190569246e+01 0.0000000000000000e+00
ITEM: ATOMS id type x y z
1 1 8.69619 0.495579 3.71067
2 1 5.00302 9.17061 4.77177
3 1 7.08376 5.3826 0.458576
4 1 6.60253 4.28178 8.02646
5 2 7.70474 8.6086 3.12997
6 2 6.06107 1.06952 5.422
7 2 8.11056 3.6908 1.08259
8 2 5.58539 5.93472 7.36918
9 2 6.47766 8.22036 3.54231
10 2 7.38631 1.47186 4.92689
11 2 0.417646 3.38871 0.722857
12 2 4.35929 6.26456 7.85407
13 2 7.09682 6.8415 1.94874
14 2 6.61599 2.78371 6.63784
15 2 8.73671 1.94601 2.33397
16 2 4.89972 7.66228 6.03728
17 5 1.07978 0.734316 5.22473
18 5 3.70123 8.95501 3.28234
19 5 1.54834 5.60613 7.56454
20 5 3.14593 4.09141 1.00582
21 5 3.19041 0.279853 5.73648
22 5 1.54282 9.39766 2.75081
23 5 8.50413 5.07749 7.09495
24 5 5.24852 4.53496 1.47459
25 3 8.0844 7.72168 2.19508
26 3 5.60124 1.87184 6.39681
27 3 7.70764 2.87064 2.0771
28 3 5.96032 6.78558 6.38485
29 3 6.15318 7.1178 2.80428
30 3 7.54565 2.45007 5.77416
31 3 0.745201 2.33718 1.49506
32 3 3.94414 7.38828 6.97559
33 6 2.26603 0.319047 5.02713
34 6 2.51254 9.34596 3.52561
35 6 0.428492 5.16951 7.79825
36 6 4.31115 4.48506 0.712985
37 4 0.145389 7.65836 1.81878
38 4 4.59616 1.80689 6.81645
39 4 6.6608 2.93919 2.41871
40 4 7.03557 6.89556 6.11445
41 4 5.12222 6.73249 2.77852
42 4 8.60171 2.73425 5.77064
43 4 1.71509 1.82432 1.45562
44 4 3.04108 7.93814 7.05922
45 1 4.53409 0.510817 12.2976
46 1 0.882529 9.15401 13.3144
47 1 2.96798 5.32836 9.03282
48 1 2.44205 4.28058 16.5725
49 2 3.5555 8.50888 11.8408
50 2 1.76843 1.05494 13.836
51 2 3.94937 3.77866 9.71006
52 2 1.48581 5.96958 15.9848
53 2 2.18464 8.21433 11.9751
54 2 3.1412 1.31811 13.6169
55 2 5.28681 3.36318 9.27942
56 2 9.13457 6.33734 16.3957
57 2 2.89391 6.80599 10.438
58 2 2.44473 2.87626 15.2425
59 2 4.49544 1.87782 10.8689
60 2 0.835307 7.63189 14.6649
61 5 5.82334 0.662729 13.7715
62 5 8.4943 9.06668 11.9343
63 5 6.33836 5.60026 16.1796
64 5 8.01233 4.02641 9.50073
65 5 7.93375 0.289528 14.292
66 5 6.31775 9.4396 11.293
67 5 4.25377 5.11056 15.6555
68 5 1.12107 4.54536 10.0433
69 3 4.09652 7.47577 11.0902
70 3 1.47118 1.91607 14.8478
71 3 3.53771 2.86176 10.5879
72 3 1.85472 6.8425 15.0436
73 3 1.90293 7.14711 11.2411
74 3 3.39757 2.47361 14.3233
75 3 5.55774 2.33281 9.99858
76 3 8.79075 7.34645 15.5431
77 6 6.95899 0.30215 13.5127
78 6 7.25277 9.31824 12.168
79 6 5.20137 5.23086 16.342
80 6 9.14754 4.4987 9.27493
81 4 4.87501 7.66339 10.2568
82 4 9.4673 1.91306 15.3814
83 4 2.66744 2.98444 11.2204
84 4 2.68037 6.7577 14.3216
85 4 0.916649 6.69164 11.1726
86 4 4.45844 2.81811 14.3655
87 4 6.4631 1.73302 10.0271
88 4 7.77816 7.80649 15.6477
89 1 8.66351 10.2262 3.73606
90 1 5.0368 18.8797 4.74957
91 1 7.10525 15.0829 0.50189
92 1 6.60843 14.008 8.02197
93 2 7.73272 18.3437 3.14275
94 2 5.91464 11.0072 5.24967
95 2 8.10555 13.4164 1.02514
96 2 5.58863 15.6736 7.32848
97 2 6.40331 18.0363 3.45725
98 2 7.322 11.2317 4.94874
99 2 0.427069 13.0704 0.705946
100 2 4.34609 16.1247 7.79137
101 2 7.12464 16.5751 1.83221
102 2 6.64767 12.5456 6.59014
103 2 8.61634 11.7046 2.37172
104 2 4.99811 17.3925 6.16896
105 5 1.13773 10.4536 5.174
106 5 3.64312 18.7702 3.27149
107 5 1.57506 15.3089 7.57053
108 5 3.21647 13.8538 0.933836
109 5 3.17222 10.0239 5.8201
110 5 1.51693 19.0935 2.71036
111 5 8.39059 14.8699 7.01664
112 5 5.27175 14.2668 1.47575
113 3 8.08291 17.4882 2.17269
114 3 5.66629 11.6597 6.32666
115 3 7.69936 12.6034 2.067
116 3 5.94298 16.4475 6.41833
117 3 6.12309 16.8874 2.75721
118 3 7.68502 12.2194 5.80121
119 3 0.664212 12.0019 1.53837
120 3 3.99695 17.1 6.92672
121 6 2.27307 10.0611 4.97352
122 6 2.54938 19.1395 3.46459
123 6 0.396539 14.9134 7.84617
124 6 4.31374 14.2628 0.707102
125 4 0.135116 17.286 1.77121
126 4 4.59054 11.7346 6.57069
127 4 6.76376 12.4706 2.61792
128 4 6.97322 16.3296 6.04554
129 4 5.23626 16.239 2.67194
130 4 8.57084 12.8019 5.69646
131 4 1.56149 11.4128 1.42749
132 4 3.10815 17.696 7.1053
133 1 4.48169 10.2207 12.2709
134 1 0.866471 18.8638 13.3584
135 1 2.92232 15.0541 9.06914
136 1 2.41968 14.0259 16.5571
137 2 3.44647 18.3416 11.7386
138 2 1.8853 10.7658 13.9251
139 2 3.94088 13.4062 9.63904
140 2 1.49614 15.6603 15.9275
141 2 2.16069 18.0237 12.0803
142 2 3.15252 11.1206 13.5708
143 2 5.16389 13.0828 9.28314
144 2 9.1486 16.0098 16.3783
145 2 2.98543 16.5435 10.4101
146 2 2.41995 12.5398 15.1455
147 2 4.60344 11.7935 10.9456
148 2 0.800649 17.4436 14.7637
149 5 5.93374 10.3836 13.7724
150 5 8.49885 18.7282 11.8345
151 5 6.32277 15.3364 16.1516
152 5 8.02278 13.8329 9.46043
153 5 8.00924 10.0306 14.287
154 5 6.3288 19.0644 11.3162
155 5 4.32939 14.9345 15.6286
156 5 1.18467 14.215 10.0395
157 3 3.99692 17.3911 10.771
158 3 1.52112 11.6292 14.9233
159 3 3.62393 12.6157 10.6253
160 3 1.75894 16.487 15.0539
161 3 1.91451 16.928 11.241
162 3 3.42947 12.199 14.3811
163 3 5.49602 12.0556 10.0344
164 3 8.84823 17.064 15.6166
165 6 7.03452 9.92978 13.5269
166 6 7.30329 19.058 12.1095
167 6 5.27893 14.8388 16.3579
168 6 9.17496 14.3453 9.23937
169 4 4.94039 17.3238 10.1789
170 4 0.622344 11.7223 15.542
171 4 2.81981 12.801 11.3363
172 4 2.76243 16.5738 14.628
173 4 0.997318 16.3429 11.4369
174 4 4.35401 12.7262 14.186
175 4 6.43384 11.4982 9.9493
176 4 7.91132 17.5767 15.5774
177 7 7.35432 13.3742 14.3776
178 8 6.8469 13.0642 15.0941
179 8 6.7379 13.1163 13.6749
180 7 6.91553 15.6099 12.5011
181 8 6.87259 16.4931 12.7534
182 8 7.85731 15.3183 12.4462
183 7 5.33023 4.89704 12.9107
184 8 4.37886 5.04499 12.9776
185 8 5.60183 5.79725 13.1503
186 7 7.14722 5.47315 11.42
187 8 7.60233 5.50135 12.2468
188 8 8.52306 5.09054 11.1801
189 7 2.96089 4.8813 4.46329
190 8 2.7067 5.83861 4.34738
191 8 2.15634 4.69661 3.89282
192 7 4.65113 2.8449 4.16108
193 8 4.47463 2.73499 3.22685
194 8 5.26762 3.54839 4.41358
195 9 3.06599 9.65739 9.84032
196 10 3.21672 8.8689 8.90781
197 10 2.60628 10.3898 10.6343
198 9 8.99713 11.7057 10.5879
199 10 8.38082 11.3824 11.4967
200 10 0.79147 11.8707 9.7042
201 9 7.22528 6.81697 9.94239
202 10 7.39511 6.37258 8.9201
203 10 7.05035 7.36762 10.9406
204 9 1.77775 10.6417 7.85794
205 10 1.10464 9.81851 7.41769
206 10 2.59967 11.253 8.38841
207 9 6.3015 9.09343 7.27802
208 10 7.09523 9.10605 6.45083
209 10 5.70848 8.73429 8.20806
210 9 9.09893 7.86693 6.99855
211 10 0.940865 7.47854 6.1932
212 10 8.3141 7.99263 7.88316
ITEM: TIMESTEP
31
ITEM: NUMBER OF ATOMS
212
ITEM: BOX BOUNDS xy xz yz pp pp pp
-1.8681298808140845e-02 9.5655073802439325e+00 0.0000000000000000e+00
-4.0630742786927243e-02 1.9427629842786942e+01 6.3302588143578087e-01
-3.5759781489280940e-02 1.7098574881489288e+01 0.0000000000000000e+00
ITEM: ATOMS id type x y z
1 1 8.69804 0.493043 3.70913
2 1 5.00211 9.17135 4.77083
3 1 7.08338 5.38181 0.455744
4 1 6.60343 4.2806 8.027
5 2 7.70641 8.60971 3.12901
6 2 6.06447 1.06621 5.42233
7 2 8.11125 3.68944 1.08071
8 2 5.58403 5.93265 7.36679
9 2 6.47916 8.21965 3.54301
10 2 7.38831 1.47054 4.92404
11 2 0.417556 3.38807 0.720684
12 2 4.35873 6.26416 7.85546
13 2 7.09767 6.83942 1.94813
14 2 6.61594 2.78195 6.63936
15 2 8.73847 1.94278 2.33339
16 2 4.89494 7.6604 6.03054
17 5 1.08023 0.732767 5.22456
18 5 3.70069 8.95543 3.28105
19 5 1.54571 5.60549 7.56455
20 5 3.14619 4.09081 1.00643
21 5 3.18926 0.277715 5.73564
22 5 1.54327 9.39827 2.75034
23 5 8.5077 5.07386 7.0956
24 5 5.24661 4.53468 1.47273
25 3 8.08573 7.72079 2.19459
26 3 5.60176 1.86891 6.39892
27 3 7.70961 2.86876 2.07601
28 3 5.95802 6.78413 6.38184
29 3 6.15535 7.11597 2.80621
30 3 7.54569 2.44768 5.77279
31 3 0.744339 2.33624 1.49368
32 3 3.94186 7.3867 6.97418
33 6 2.26349 0.318423 5.02599
34 6 2.51374 9.3444 3.5243
35 6 0.430879 5.16905 7.79955
36 6 4.30902 4.48287 0.711327
37 4 0.13924 7.65093 1.82239
38 4 4.5971 1.80719 6.81772
39 4 6.65916 2.93136 2.41832
40 4 7.03706 6.89964 6.11499
41 4 5.12277 6.73249 2.77677
42 4 8.60202 2.73022 5.77652
43 4 1.7174 1.82287 1.45303
44 4 3.04363 7.93569 7.05282
45 1 4.5348 0.508722 12.2987
46 1 0.88186 9.15419 13.3147
47 1 2.96805 5.3258 9.0322
48 1 2.44191 4.27944 16.5744
49 2 3.5571 8.50392 11.8483
50 2 1.76576 1.05214 13.834
51 2 3.95102 3.77946 9.71142
52 2 1.4857 5.96904 15.9872
53 2 2.18175 8.21377 11.9745
54 2 3.14084 1.3128 13.6193
55 2 5.28831 3.36315 9.27861
56 2 9.13591 6.3379 16.3991
57 2 2.89346 6.80303 10.4391
58 2 2.44405 2.87639 15.2456
59 2 4.49503 1.87342 10.868
60 2 0.833229 7.63098 14.6636
61 5 5.82231 0.65909 13.7725
62 5 8.49547 9.07032 11.938
63 5 6.33703 5.60039 16.1822
64 5 8.01636 4.02266 9.50106
65 5 7.93096 0.287793 14.2917
66 5 6.3184 9.4433 11.2945
67 5 4.25404 5.10859 15.6587
68 5 1.11929 4.54543 10.0437
69 3 4.10119 7.46361 11.1039
70 3 1.47101 1.91539 14.8484
71 3 3.53719 2.85877 10.5884
72 3 1.85458 6.84444 15.0455
73 3 1.9013 7.14512 11.2399
74 3 3.39505 2.47172 14.3244
75 3 5.55787 2.32958 9.99937
76 3 8.79211 7.34535 15.5443
77 6 6.95758 0.300933 13.5137
78 6 7.2525 9.31593 12.1712
79 6 5.20174 5.23196 16.3453
80 6 9.14841 4.49613 9.27526
81 4 4.87648 7.65936 10.2643
82 4 9.4682 1.91281 15.3814
83 4 2.67429 2.98387 11.2215
84 4 2.67503 6.75546 14.3203
85 4 0.912407 6.69414 11.1681
86 4 4.46385 2.81347 14.3705
87 4 6.46295 1.7343 10.0225
88 4 7.77215 7.80993 15.6476
89 1 8.66426 10.2258 3.73536
90 1 5.03697 18.882 4.74793
91 1 7.10559 15.0833 0.500379
92 1 6.60945 14.0089 8.02234
93 2 7.73456 18.3471 3.14238
94 2 5.9117 11.0152 5.24276
95 2 8.10602 13.4168 1.02178
96 2 5.58745 15.6739 7.32676
97 2 6.40307 18.0406 3.45539
98 2 7.32321 11.2349 4.94563
99 2 0.42688 13.0703 0.703403
100 2 4.34624 16.1289 7.79181
101 2 7.12565 16.5763 1.82948
102 2 6.64937 12.5474 6.58981
103 2 8.61534 11.7038 2.37223
104 2 4.99826 17.3949 6.16712
105 5 1.13915 10.4546 5.17092
106 5 3.64251 18.7749 3.26927
107 5 1.57247 15.3098 7.57057
108 5 3.21782 13.8559 0.93245
109 5 3.16982 10.0243 5.82056
110 5 1.51722 19.0952 2.70891
111 5 8.39213 14.8706 7.01722
112 5 5.27023 14.2686 1.47373
113 3 8.08382 17.4895 2.17059
114 3 5.66786 11.6611 6.32597
115 3 7.69992 12.6036 2.06638
116 3 5.94098 16.4476 6.41665
117 3 6.12561 16.8877 2.7555
118 3 7.68888 12.2209 5.80127
119 3 0.66147 12.0012 1.53784
120 3 3.99549 17.1023 6.92466
121 6 2.27295 10.0631 4.97265
122 6 2.54828 19.1433 3.46231
123 6 0.396329 14.9171 7.84513
124 6 4.31394 14.2645 0.705775
125 4 0.133931 17.2829 1.77593
126 4 4.58693 11.7461 6.56683
127 4 6.76639 12.47 2.61279
128 4 6.97898 16.3332 6.03996
129 4 5.23601 16.2423 2.67407
130 4 8.56112 12.7984 5.69497
131 4 1.55104 11.4122 1.4262
132 4 3.11453 17.701 7.10526
133 1 4.48077 10.2201 12.2713
134 1 0.86526 18.8654 13.3601
135 1 2.92092 15.0536 9.06966
136 1 2.41884 14.0274 16.5585
137 2 3.44471 18.3445 11.74
138 2 1.88525 10.7642 13.9261
139 2 3.94031 13.407 9.63885
140 2 1.49571 15.6599 15.9294
141 2 2.15672 18.027 12.0817
142 2 3.15331 11.1199 13.5719
143 2 5.16387 13.0833 9.28227
144 2 9.1507 16.0103 16.3814
145 2 2.98604 16.5434 10.4093
146 2 2.41896 12.5418 15.147
147 2 4.60751 11.7964 10.9489
148 2 0.798719 17.4466 14.7657
149 5 5.93631 10.3819 13.7735
150 5 8.49981 18.7321 11.8349
151 5 6.32151 15.3389 16.1539
152 5 8.02706 13.8352 9.45938
153 5 8.0092 10.0311 14.2865
154 5 6.33044 19.065 11.3179
155 5 4.33241 14.9374 15.6316
156 5 1.18468 14.2164 10.0391
157 3 3.99766 17.3903 10.7734
158 3 1.52189 11.6292 14.9257
159 3 3.62594 12.618 10.627
160 3 1.75561 16.4896 15.055
161 3 1.91389 16.9308 11.2403
162 3 3.42931 12.1986 14.3826
163 3 5.49472 12.0564 10.0342
164 3 8.84945 17.0661 15.6195
165 6 7.03437 9.92799 13.5293
166 6 7.30451 19.0581 12.1098
167 6 5.28052 14.8387 16.3595
168 6 9.17547 14.3488 9.24072
169 4 4.94383 17.3233 10.1803
170 4 0.62551 11.7231 15.5432
171 4 2.83443 12.8062 11.3398
172 4 2.76364 16.5793 14.6313
173 4 0.998415 16.3412 11.4383
174 4 4.34489 12.7277 14.1876
175 4 6.43756 11.4957 9.94596
176 4 7.91806 17.5729 15.5815
177 7 7.35711 13.3745 14.3791
178 8 6.84896 13.0671 15.097
179 8 6.73278 13.124 13.6803
180 7 6.91596 15.6107 12.5026
181 8 6.87382 16.4949 12.7542
182 8 7.8609 15.3256 12.4423
183 7 5.32978 4.895 12.9109
184 8 4.37654 5.0415 12.9833
185 8 5.5998 5.79905 13.1371
186 7 7.14976 5.4612 11.4271
187 8 7.5904 5.49557 12.2573
188 8 8.55485 5.04024 11.1982
189 7 2.95868 4.88255 4.46102
190 8 2.70025 5.84023 4.35062
191 8 2.15828 4.69213 3.88345
192 7 4.65113 2.84346 4.15866
193 8 4.48232 2.72978 3.22183
194 8 5.27035 3.54953 4.40731
195 9 3.06696 9.65934 9.83525
196 10 3.2116 8.87709 8.89845
197 10 2.60131 10.3892 10.6346
198 9 8.99731 11.7072 10.5873
199 10 8.38314 11.3863 11.4978
200 10 0.790458 11.8661 9.70327
201 9 7.2247 6.82102 9.9393
202 10 7.39734 6.3772 8.92022
203 10 7.04787 7.37168 10.9359
204 9 1.77708 10.6451 7.85558
205 10 1.10448 9.81827 7.41806
206 10 2.60103 11.2527 8.38636
207 9 6.30197 9.09719 7.28223
208 10 7.10208 9.09914 6.45528
209 10 5.71115 8.73709 8.2125
210 9 9.10033 7.86988 6.99775
211 10 0.939296 7.4791 6.19159
212 10 8.31628 7.99216 7.88463
ITEM: TIMESTEP
32
ITEM: NUMBER OF ATOMS
212
ITEM: BOX BOUNDS xy xz yz pp pp pp
-1.9715334935078488e-02 9.5666876703594284e+00 0.0000000000000000e+00
-4.2879711466111914e-02 1.9429878811466125e+01 6.3317213542433881e-01
-3.7739135619371922e-02 1.7100554235619377e+01 0.0000000000000000e+00
ITEM: ATOMS id type x y z
1 1 8.6999 0.490474 3.70758
2 1 5.0012 9.1721 4.76988
3 1 7.08302 5.381 0.452888
4 1 6.60435 4.27941 8.02755
5 2 7.70812 8.61084 3.12805
6 2 6.06795 1.0628 5.42258
7 2 8.11191 3.68812 1.07879
8 2 5.58264 5.9305 7.36438
9 2 6.4806 8.21893 3.54367
10 2 7.39017 1.4691 4.92126
11 2 0.417502 3.38739 0.718481
12 2 4.35807 6.26387 7.85671
13 2 7.09857 6.83726 1.94742
14 2 6.61582 2.78019 6.64095
15 2 8.74017 1.93951 2.33283
16 2 4.89019 7.65848 6.02377
17 5 1.08074 0.731162 5.22439
18 5 3.70007 8.95587 3.27974
19 5 1.54307 5.60479 7.56456
20 5 3.14649 4.09021 1.007
21 5 3.18816 0.275539 5.73485
22 5 1.54374 9.39887 2.74985
23 5 8.5112 5.0702 7.09612
24 5 5.24472 4.53438 1.47086
25 3 8.08704 7.71991 2.19408
26 3 5.60237 1.86598 6.40102
27 3 7.71165 2.86684 2.07486
28 3 5.95564 6.78264 6.3788
29 3 6.15748 7.11419 2.80817
30 3 7.54588 2.44529 5.77137
31 3 0.743493 2.33526 1.49227
32 3 3.93966 7.38491 6.97278
33 6 2.26083 0.317721 5.02461
34 6 2.51498 9.34286 3.52303
35 6 0.433382 5.16851 7.80103
36 6 4.30684 4.48071 0.709544
37 4 0.133183 7.64342 1.82585
38 4 4.59815 1.80766 6.81909
39 4 6.65787 2.9231 2.41807
40 4 7.03809 6.90343 6.11532
41 4 5.1235 6.73244 2.77497
42 4 8.60215 2.72658 5.78272
43 4 1.71956 1.8215 1.45035
44 4 3.04592 7.93302 7.04603
45 1 4.5355 0.506587 12.2999
46 1 0.881172 9.15436 13.315
47 1 2.96812 5.32323 9.03159
48 1 2.44176 4.27828 16.5763
49 2 3.55872 8.49884 11.8558
50 2 1.76315 1.04931 13.8321
51 2 3.95276 3.78022 9.71273
52 2 1.48553 5.96845 15.9897
53 2 2.17889 8.21323 11.974
54 2 3.14042 1.3075 13.6217
55 2 5.28971 3.36317 9.2778
56 2 9.13729 6.33844 16.4025
57 2 2.89318 6.80005 10.4402
58 2 2.44333 2.87643 15.2487
59 2 4.49467 1.86907 10.867
60 2 0.831127 7.63012 14.6623
61 5 5.82129 0.655415 13.7736
62 5 8.4966 9.07392 11.9418
63 5 6.33573 5.60053 16.1848
64 5 8.02046 4.01886 9.50139
65 5 7.92816 0.286027 14.2915
66 5 6.31907 9.44711 11.2961
67 5 4.25427 5.10662 15.6619
68 5 1.11752 4.54549 10.044
69 3 4.10567 7.45144 11.1174
70 3 1.47084 1.91473 14.849
71 3 3.53672 2.85568 10.589
72 3 1.85443 6.84639 15.0473
73 3 1.89963 7.1431 11.2388
74 3 3.39258 2.4698 14.3255
75 3 5.55793 2.32618 10.0003
76 3 8.79347 7.34422 15.5455
77 6 6.95627 0.299636 13.5147
78 6 7.25228 9.3137 12.1743
79 6 5.20209 5.23293 16.3489
80 6 9.14926 4.49354 9.2755
81 4 4.87748 7.65533 10.2727
82 4 9.46909 1.91249 15.3813
83 4 2.681 2.98328 11.2227
84 4 2.66973 6.75296 14.3193
85 4 0.908126 6.69684 11.1635
86 4 4.46884 2.80877 14.3756
87 4 6.46298 1.73574 10.0175
88 4 7.76662 7.81335 15.6473
89 1 8.66502 10.2254 3.73464
90 1 5.03715 18.8842 4.74628
91 1 7.10594 15.0837 0.498833
92 1 6.61049 14.0098 8.02271
93 2 7.73637 18.3506 3.142
94 2 5.90889 11.0231 5.23578
95 2 8.10646 13.4172 1.01843
96 2 5.58623 15.6742 7.32513
97 2 6.40284 18.0449 3.4535
98 2 7.32436 11.238 4.94254
99 2 0.426694 13.0702 0.700845
100 2 4.3464 16.133 7.79222
101 2 7.12666 16.5776 1.82678
102 2 6.65106 12.5494 6.58952
103 2 8.61437 11.703 2.37273
104 2 4.99847 17.3975 6.16519
105 5 1.14055 10.4556 5.16779
106 5 3.64194 18.7796 3.26698
107 5 1.56981 15.3107 7.57061
108 5 3.21913 13.8581 0.931055
109 5 3.16742 10.0246 5.82096
110 5 1.51757 19.0969 2.70747
111 5 8.39374 14.8714 7.01785
112 5 5.2687 14.2704 1.47168
113 3 8.08474 17.4909 2.16841
114 3 5.66938 11.6626 6.32528
115 3 7.70052 12.6038 2.06573
116 3 5.93903 16.4478 6.4149
117 3 6.12819 16.888 2.75367
118 3 7.6927 12.2223 5.80129
119 3 0.658732 12.0005 1.53724
120 3 3.994 17.1045 6.92266
121 6 2.27285 10.065 4.9717
122 6 2.54698 19.1472 3.46013
123 6 0.396169 14.9209 7.84399
124 6 4.31423 14.2663 0.704345
125 4 0.132749 17.2802 1.78082
126 4 4.58371 11.7579 6.56312
127 4 6.76879 12.4699 2.60727
128 4 6.98434 16.3374 6.03419
129 4 5.23561 16.2463 2.6766
130 4 8.55177 12.7951 5.6934
131 4 1.54071 11.4116 1.42491
132 4 3.12093 17.7063 7.10516
133 1 4.47986 10.2195 12.2716
134 1 0.864029 18.8672 13.3618
135 1 2.91951 15.0531 9.07018
136 1 2.418 14.0289 16.5598
137 2 3.44305 18.3473 11.7414
138 2 1.88515 10.7626 13.9273
139 2 3.9397 13.408 9.63866
140 2 1.49517 15.6595 15.9314
141 2 2.15276 18.0303 12.0832
142 2 3.1541 11.1192 13.573
143 2 5.16394 13.0839 9.28136
144 2 9.15284 16.0108 16.3845
145 2 2.98661 16.5433 10.4085
146 2 2.41799 12.5439 15.1486
147 2 4.6116 11.7993 10.9522
148 2 0.796855 17.4497 14.7677
149 5 5.93888 10.3801 13.7745
150 5 8.50072 18.7361 11.8353
151 5 6.32032 15.3415 16.1562
152 5 8.03141 13.8376 9.45834
153 5 8.00917 10.0317 14.2861
154 5 6.33212 19.0657 11.3197
155 5 4.33539 14.9405 15.6347
156 5 1.18466 14.2179 10.0386
157 3 3.99828 17.3896 10.7758
158 3 1.52263 11.6292 14.9282
159 3 3.62795 12.6204 10.6288
160 3 1.75231 16.4924 15.056
161 3 1.91328 16.9336 11.2396
162 3 3.42918 12.1982 14.3841
163 3 5.49348 12.0572 10.0341
164 3 8.85064 17.0684 15.6224
165 6 7.03424 9.92621 13.5317
166 6 7.30573 19.0581 12.1101
167 6 5.28203 14.8386 16.3613
168 6 9.17589 14.3524 9.24215
169 4 4.94714 17.3232 10.1822
170 4 0.628445 11.7235 15.5441
171 4 2.8489 12.8117 11.3432
172 4 2.76474 16.5848 14.6348
173 4 0.999739 16.3397 11.4394
174 4 4.33579 12.7295 14.1893
175 4 6.44114 11.4935 9.94259
176 4 7.92446 17.5692 15.5858
177 7 7.35991 13.3749 14.3805
178 8 6.85084 13.0699 15.1006
179 8 6.72797 13.1318 13.6857
180 7 6.91644 15.6113 12.504
181 8 6.87517 16.4975 12.7552
182 8 7.86392 15.3331 12.4384
183 7 5.32931 4.89297 12.911
184 8 4.37427 5.03779 12.9889
185 8 5.5979 5.80067 13.1239
186 7 7.15244 5.44909 11.4343
187 8 7.57835 5.48995 12.2684
188 8 8.58477 4.99035 11.2163
189 7 2.95639 4.88384 4.45869
190 8 2.69429 5.84157 4.35426
191 8 2.16077 4.68718 3.87444
192 7 4.6511 2.84201 4.15621
193 8 4.49018 2.7249 3.21683
194 8 5.2728 3.55045 4.40064
195 9 3.06785 9.66122 9.83005
196 10 3.20649 8.88539 8.88926
197 10 2.59631 10.3886 10.6349
198 9 8.99757 11.7088 10.5867
199 10 8.38547 11.3902 11.4989
200 10 0.789399 11.8614 9.70236
201 9 7.2241 6.82511 9.93628
202 10 7.39957 6.38182 8.92037
203 10 7.04542 7.37558 10.9311
204 9 1.77645 10.6485 7.85322
205 10 1.10427 9.81802 7.41849
206 10 2.60237 11.2525 8.38427
207 9 6.3025 9.10091 7.28649
208 10 7.10895 9.0923 6.45969
209 10 5.71383 8.73998 8.21699
210 9 9.10176 7.87274 6.99698
211 10 0.937643 7.47972 6.18997
212 10 8.31856 7.9917 7.88604
ITEM: TIMESTEP
33
ITEM: NUMBER OF ATOMS
212
ITEM: BOX BOUNDS xy xz yz pp pp pp
-2.0766235153536705e-02 9.5678872098222261e+00 0.0000000000000000e+00
-4.5165358567494707e-02 1.9432164458567506e+01 6.3332077466867642e-01
-3.9750771028936427e-02 1.7102565871028943e+01 0.0000000000000000e+00
ITEM: ATOMS id type x y z
1 1 8.70178 0.487873 3.70601
2 1 5.0003 9.17285 4.76892
3 1 7.08267 5.38017 0.45001
4 1 6.60529 4.2782 8.02809
5 2 7.70987 8.61199 3.12708
6 2 6.07153 1.05929 5.42276
7 2 8.11254 3.68685 1.07683
8 2 5.58124 5.92826 7.36194
9 2 6.48198 8.21819 3.5443
10 2 7.39188 1.46757 4.91854
11 2 0.417484 3.38667 0.71625
12 2 4.35732 6.26368 7.85785
13 2 7.09953 6.835 1.94661
14 2 6.61563 2.77843 6.64258
15 2 8.74179 1.93621 2.33227
16 2 4.88548 7.65654 6.01699
17 5 1.08129 0.729503 5.22423
18 5 3.69937 8.95632 3.27839
19 5 1.54044 5.60405 7.56458
20 5 3.14684 4.0896 1.00753
21 5 3.18709 0.273328 5.7341
22 5 1.54422 9.39945 2.74935
23 5 8.51463 5.06649 7.09652
24 5 5.24284 4.53407 1.46896
25 3 8.08834 7.71903 2.19356
26 3 5.60308 1.86303 6.4031
27 3 7.71376 2.86488 2.07368
28 3 5.9532 6.78112 6.37571
29 3 6.15958 7.11245 2.81014
30 3 7.54621 2.4429 5.76988
31 3 0.742665 2.33422 1.49083
32 3 3.93755 7.38292 6.97139
33 6 2.25804 0.316941 5.02301
34 6 2.51625 9.34134 3.52178
35 6 0.43599 5.16787 7.80269
36 6 4.30462 4.47857 0.707637
37 4 0.127286 7.63585 1.82914
38 4 4.59931 1.80828 6.82056
39 4 6.65695 2.91443 2.41792
40 4 7.03862 6.90692 6.11545
41 4 5.12445 6.73233 2.77314
42 4 8.60211 2.72331 5.78923
43 4 1.72155 1.82023 1.44757
44 4 3.04788 7.93015 7.03887
45 1 4.53621 0.504415 12.3011
46 1 0.880465 9.15453 13.3153
47 1 2.96818 5.32064 9.03099
48 1 2.4416 4.2771 16.5783
49 2 3.56035 8.49366 11.8634
50 2 1.76062 1.04645 13.8302
51 2 3.9546 3.78095 9.71399
52 2 1.4853 5.96781 15.9922
53 2 2.17605 8.2127 11.9736
54 2 3.13995 1.3022 13.6242
55 2 5.29101 3.36325 9.27698
56 2 9.1387 6.33895 16.4058
57 2 2.89307 6.79703 10.4414
58 2 2.44257 2.87638 15.2517
59 2 4.49433 1.86475 10.866
60 2 0.829002 7.62933 14.661
61 5 5.82028 0.651706 13.7747
62 5 8.49766 9.07749 11.9455
63 5 6.33444 5.60067 16.1873
64 5 8.02462 4.01502 9.50171
65 5 7.92537 0.284232 14.2912
66 5 6.31976 9.45103 11.2978
67 5 4.25447 5.10465 15.6651
68 5 1.11575 4.54553 10.0444
69 3 4.10997 7.43925 11.1306
70 3 1.47067 1.91411 14.8498
71 3 3.53629 2.85251 10.5896
72 3 1.85426 6.84835 15.0491
73 3 1.89792 7.14105 11.2376
74 3 3.39016 2.46786 14.3267
75 3 5.55792 2.32263 10.0014
76 3 8.79482 7.34307 15.5467
77 6 6.95507 0.298259 13.5158
78 6 7.25211 9.31153 12.1775
79 6 5.20244 5.23377 16.3528
80 6 9.15009 4.49091 9.27565
81 4 4.87799 7.65128 10.282
82 4 9.46999 1.9121 15.3809
83 4 2.68753 2.98269 11.2238
84 4 2.6645 6.75019 14.3187
85 4 0.903812 6.69975 11.1589
86 4 4.47332 2.80398 14.3809
87 4 6.4632 1.7373 10.0122
88 4 7.76167 7.81671 15.6468
89 1 8.6658 10.2251 3.7339
90 1 5.03733 18.8865 4.74461
91 1 7.10631 15.0841 0.497252
92 1 6.61153 14.0107 8.02306
93 2 7.73817 18.3541 3.14162
94 2 5.90622 11.0309 5.22872
95 2 8.10685 13.4177 1.0151
96 2 5.58495 15.6744 7.32361
97 2 6.40262 18.0492 3.4516
98 2 7.32544 11.2412 4.93947
99 2 0.42651 13.07 0.698276
100 2 4.34654 16.1371 7.79261
101 2 7.12767 16.5789 1.82411
102 2 6.65275 12.5514 6.58927
103 2 8.61344 11.7021 2.37323
104 2 4.99874 17.4001 6.16316
105 5 1.14194 10.4567 5.16461
106 5 3.64143 18.7843 3.26462
107 5 1.56708 15.3116 7.57065
108 5 3.2204 13.8603 0.929655
109 5 3.16503 10.025 5.8213
110 5 1.51797 19.0986 2.70605
111 5 8.3954 14.8721 7.01853
112 5 5.26717 14.2722 1.46961
113 3 8.08567 17.4922 2.16615
114 3 5.67085 11.6642 6.3246
115 3 7.70115 12.6039 2.06505
116 3 5.93714 16.4481 6.41307
117 3 6.13083 16.8884 2.75174
118 3 7.69646 12.2236 5.80129
119 3 0.655996 11.9999 1.53656
120 3 3.99248 17.1068 6.92073
121 6 2.27276 10.0669 4.97066
122 6 2.54549 19.1512 3.45806
123 6 0.396053 14.9248 7.84277
124 6 4.3146 14.2681 0.702811
125 4 0.131588 17.2777 1.78588
126 4 4.58094 11.77 6.55957
127 4 6.77093 12.4701 2.60138
128 4 6.98922 16.342 6.02825
129 4 5.23509 16.2508 2.67951
130 4 8.54292 12.7921 5.69171
131 4 1.53056 11.4108 1.42361
132 4 3.12729 17.7117 7.10504
133 1 4.47896 10.219 12.272
134 1 0.862778 18.8689 13.3635
135 1 2.91811 15.0527 9.0707
136 1 2.41715 14.0304 16.5612
137 2 3.44148 18.3502 11.7428
138 2 1.88501 10.761 13.9284
139 2 3.93904 13.409 9.63848
140 2 1.49453 15.659 15.9335
141 2 2.14879 18.0335 12.0846
142 2 3.15491 11.1185 13.5741
143 2 5.1641 13.0845 9.28041
144 2 9.15503 16.0113 16.3876
145 2 2.98713 16.5432 10.4078
146 2 2.41704 12.5461 15.1503
147 2 4.6157 11.8021 10.9556
148 2 0.795056 17.4527 14.7696
149 5 5.94144 10.3784 13.7756
150 5 8.50157 18.7402 11.8357
151 5 6.31918 15.3441 16.1585
152 5 8.03583 13.84 9.45731
153 5 8.00914 10.0323 14.2856
154 5 6.33384 19.0664 11.3216
155 5 4.33834 14.9435 15.6378
156 5 1.1846 14.2195 10.0381
157 3 3.99878 17.389 10.7782
158 3 1.52334 11.6292 14.9306
159 3 3.62997 12.6228 10.6306
160 3 1.74906 16.4954 15.057
161 3 1.91269 16.9365 11.239
162 3 3.42906 12.1977 14.3856
163 3 5.4923 12.058 10.0339
164 3 8.8518 17.0707 15.6253
165 6 7.03413 9.92445 13.5341
166 6 7.30695 19.0583 12.1104
167 6 5.28346 14.8384 16.3632
168 6 9.17624 14.3558 9.24365
169 4 4.95028 17.3236 10.1846
170 4 0.631125 11.7235 15.5447
171 4 2.86317 12.8173 11.3467
172 4 2.76569 16.5903 14.6383
173 4 1.0013 16.3381 11.4403
174 4 4.32678 12.7317 14.1913
175 4 6.44453 11.4914 9.93919
176 4 7.93042 17.5655 15.5904
177 7 7.36272 13.3753 14.3819
178 8 6.85256 13.0725 15.1048
179 8 6.72346 13.1397 13.6909
180 7 6.91695 15.612 12.5054
181 8 6.87664 16.5009 12.7564
182 8 7.86634 15.341 12.4348
183 7 5.32881 4.89095 12.9112
184 8 4.37208 5.03386 12.9946
185 8 5.59612 5.80209 13.1108
186 7 7.15527 5.43683 11.4414
187 8 7.56625 5.48448 12.2802
188 8 8.61284 4.94094 11.2342
189 7 2.95403 4.88515 4.45631
190 8 2.68881 5.84263 4.35828
191 8 2.16385 4.68177 3.86581
192 7 4.65104 2.84056 4.15371
193 8 4.49822 2.72035 3.21189
194 8 5.27497 3.55112 4.39357
195 9 3.06865 9.66304 9.82476
196 10 3.20139 8.8938 8.88024
197 10 2.59128 10.388 10.6352
198 9 8.99791 11.7103 10.5861
199 10 8.38781 11.3943 11.5001
200 10 0.788293 11.8567 9.70146
201 9 7.22349 6.82926 9.93334
202 10 7.4018 6.38642 8.92053
203 10 7.043 7.37932 10.9262
204 9 1.77584 10.6519 7.85088
205 10 1.10401 9.81778 7.41899
206 10 2.60371 11.2523 8.38213
207 9 6.30309 9.10459 7.29079
208 10 7.11582 9.08555 6.46405
209 10 5.71652 8.74293 8.22153
210 9 9.10323 7.8755 6.99622
211 10 0.935907 7.48041 6.18834
212 10 8.32096 7.99125 7.8874
ITEM: TIMESTEP
34
ITEM: NUMBER OF ATOMS
212
ITEM: BOX BOUNDS xy xz yz pp pp pp
-2.1833296684453884e-02 9.5691051964522451e+00 0.0000000000000000e+00
-4.7486155587328938e-02 1.9434485255587340e+01 6.3347169976777862e-01
-4.1793342456816873e-02 1.7104608442456826e+01 0.0000000000000000e+00
ITEM: ATOMS id type x y z
1 1 8.70367 0.485244 3.70442
2 1 4.9994 9.1736 4.76793
3 1 7.08234 5.37933 0.447111
4 1 6.60623 4.27696 8.02863
5 2 7.71166 8.61316 3.1261
6 2 6.0752 1.05568 5.42287
7 2 8.11312 3.68561 1.07485
8 2 5.57983 5.92595 7.35948
9 2 6.4833 8.21744 3.54489
10 2 7.39344 1.46593 4.91589
11 2 0.4175 3.38591 0.713994
12 2 4.35648 6.26359 7.85885
13 2 7.10053 6.83266 1.94571
14 2 6.61537 2.77667 6.64426
15 2 8.74335 1.93287 2.33171
16 2 4.8808 7.65457 6.0102
17 5 1.0819 0.727794 5.22408
18 5 3.6986 8.95678 3.27701
19 5 1.53782 5.60326 7.56461
20 5 3.14724 4.08899 1.00802
21 5 3.18607 0.271084 5.7334
22 5 1.54472 9.40003 2.74884
23 5 8.51799 5.06276 7.0968
24 5 5.24099 4.53374 1.46704
25 3 8.0896 7.71816 2.19303
26 3 5.60389 1.86009 6.40518
27 3 7.71593 2.86287 2.07245
28 3 5.95068 6.77956 6.37258
29 3 6.16165 7.11075 2.81213
30 3 7.54668 2.44051 5.76835
31 3 0.741859 2.33314 1.48936
32 3 3.93553 7.38073 6.97
33 6 2.25515 0.316082 5.02118
34 6 2.51755 9.33985 3.52056
35 6 0.43869 5.16715 7.80453
36 6 4.30237 4.47647 0.705608
37 4 0.121616 7.62821 1.83226
38 4 4.60055 1.80904 6.82211
39 4 6.65644 2.90535 2.41786
40 4 7.03863 6.91007 6.11539
41 4 5.12561 6.73217 2.77127
42 4 8.60191 2.72042 5.79602
43 4 1.72334 1.81907 1.4447
44 4 3.04948 7.9271 7.03136
45 1 4.5369 0.502205 12.3022
46 1 0.879739 9.1547 13.3156
47 1 2.96824 5.31804 9.03039
48 1 2.44144 4.2759 16.5803
49 2 3.56198 8.48838 11.871
50 2 1.75816 1.04355 13.8284
51 2 3.95653 3.78165 9.7152
52 2 1.48501 5.96711 15.9947
53 2 2.17326 8.21218 11.9733
54 2 3.13942 1.29691 13.6266
55 2 5.29219 3.36339 9.27617
56 2 9.14015 6.33944 16.4092
57 2 2.89315 6.79399 10.4428
58 2 2.44178 2.87623 15.2547
59 2 4.49403 1.86049 10.865
60 2 0.826854 7.62858 14.6598
61 5 5.81929 0.647965 13.7759
62 5 8.49867 9.08102 11.9493
63 5 6.33318 5.60082 16.1898
64 5 8.02885 4.01113 9.50204
65 5 7.92256 0.282409 14.291
66 5 6.32046 9.45506 11.2996
67 5 4.25464 5.10268 15.6681
68 5 1.11399 4.54555 10.0448
69 3 4.11407 7.42706 11.1437
70 3 1.47051 1.91351 14.8506
71 3 3.53591 2.84926 10.5902
72 3 1.85408 6.85033 15.0509
73 3 1.89619 7.13899 11.2365
74 3 3.38779 2.46589 14.328
75 3 5.55784 2.31893 10.0026
76 3 8.79615 7.34191 15.5481
77 6 6.95397 0.296802 13.5168
78 6 7.25199 9.30944 12.1807
79 6 5.20276 5.23449 16.357
80 6 9.15092 4.48827 9.27571
81 4 4.87799 7.64719 10.2922
82 4 9.47089 1.91163 15.3805
83 4 2.69383 2.9821 11.225
84 4 2.65936 6.74718 14.3184
85 4 0.899475 6.70286 11.1543
86 4 4.47724 2.79909 14.3862
87 4 6.46361 1.73896 10.0067
88 4 7.75735 7.81995 15.6461
89 1 8.66659 10.2247 3.73314
90 1 5.03751 18.8888 4.74294
91 1 7.10669 15.0846 0.495639
92 1 6.61257 14.0117 8.02342
93 2 7.73994 18.3577 3.14124
94 2 5.90368 11.0386 5.2216
95 2 8.1072 13.4182 1.01179
96 2 5.58362 15.6746 7.32219
97 2 6.40241 18.0535 3.44967
98 2 7.32646 11.2443 4.93642
99 2 0.426326 13.0699 0.695699
100 2 4.34668 16.1412 7.79297
101 2 7.12866 16.5802 1.82148
102 2 6.65443 12.5536 6.58905
103 2 8.61255 11.7011 2.37372
104 2 4.99908 17.4029 6.16105
105 5 1.14331 10.4578 5.16138
106 5 3.64097 18.7891 3.26219
107 5 1.56428 15.3125 7.57068
108 5 3.22163 13.8625 0.928249
109 5 3.16265 10.0253 5.82158
110 5 1.51842 19.1004 2.70463
111 5 8.39713 14.8729 7.01926
112 5 5.26565 14.2739 1.46751
113 3 8.08659 17.4936 2.16382
114 3 5.67225 11.6658 6.32392
115 3 7.70183 12.6041 2.06433
116 3 5.93532 16.4484 6.41117
117 3 6.13353 16.8888 2.74971
118 3 7.70016 12.225 5.80126
119 3 0.653257 11.9993 1.53582
120 3 3.99094 17.109 6.91887
121 6 2.27268 10.0687 4.96953
122 6 2.54381 19.1554 3.45611
123 6 0.395976 14.9287 7.84146
124 6 4.31507 14.27 0.701173
125 4 0.130466 17.2756 1.7911
126 4 4.57867 11.7825 6.55615
127 4 6.77275 12.4707 2.59515
128 4 6.99355 16.347 6.0222
129 4 5.23444 16.2559 2.68278
130 4 8.53468 12.7896 5.68991
131 4 1.52065 11.4098 1.42228
132 4 3.1336 17.7174 7.1049
133 1 4.47806 10.2184 12.2724
134 1 0.861508 18.8707 13.3652
135 1 2.9167 15.0522 9.07122
136 1 2.41631 14.0319 16.5627
137 2 3.44001 18.353 11.7441
138 2 1.88484 10.7594 13.9296
139 2 3.93834 13.4102 9.63829
140 2 1.49378 15.6584 15.9359
141 2 2.14484 18.0367 12.086
142 2 3.15572 11.1178 13.5752
143 2 5.16435 13.0851 9.27942
144 2 9.15726 16.0118 16.3906
145 2 2.98762 16.5431 10.4071
146 2 2.41611 12.5484 15.152
147 2 4.61981 11.8049 10.9591
148 2 0.793322 17.4558 14.7716
149 5 5.94398 10.3766 13.7768
150 5 8.50237 18.7443 11.8362
151 5 6.31811 15.3468 16.1608
152 5 8.04031 13.8425 9.45629
153 5 8.00913 10.0328 14.2851
154 5 6.3356 19.0672 11.3234
155 5 4.34124 14.9465 15.6409
156 5 1.18452 14.2211 10.0376
157 3 3.99917 17.3884 10.7807
158 3 1.52403 11.6291 14.933
159 3 3.63201 12.6252 10.6325
160 3 1.74587 16.4985 15.0578
161 3 1.91212 16.9394 11.2384
162 3 3.42896 12.1971 14.387
163 3 5.49121 12.0588 10.0337
164 3 8.85295 17.073 15.6282
165 6 7.03404 9.9227 13.5367
166 6 7.30816 19.0585 12.1108
167 6 5.28481 14.8382 16.3652
168 6 9.17652 14.3593 9.24523
169 4 4.95323 17.3244 10.1874
170 4 0.633523 11.7232 15.545
171 4 2.87715 12.823 11.3502
172 4 2.76646 16.5957 14.6419
173 4 1.0031 16.3367 11.441
174 4 4.31791 12.7343 14.1934
175 4 6.44765 11.4897 9.93579
176 4 7.93589 17.5619 15.5953
177 7 7.36553 13.3756 14.3833
178 8 6.85416 13.0751 15.1096
179 8 6.71926 13.1478 13.6961
180 7 6.9175 15.6126 12.5068
181 8 6.87823 16.505 12.7578
182 8 7.86818 15.3491 12.4312
183 7 5.32828 4.88893 12.9114
184 8 4.37 5.02972 13.0003
185 8 5.59446 5.80334 13.0976
186 7 7.15824 5.42443 11.4486
187 8 7.55412 5.47918 12.2928
188 8 8.63908 4.89207 11.2521
189 7 2.9516 4.8865 4.45386
190 8 2.68382 5.8434 4.36267
191 8 2.16752 4.67593 3.85756
192 7 4.65097 2.8391 4.15117
193 8 4.50643 2.71611 3.20703
194 8 5.27682 3.5515 4.3861
195 9 3.06936 9.66481 9.81938
196 10 3.1963 8.90232 8.87138
197 10 2.58623 10.3873 10.6354
198 9 8.99832 11.7118 10.5855
199 10 8.39016 11.3985 11.5013
200 10 0.787143 11.8519 9.70057
201 9 7.22286 6.83345 9.93049
202 10 7.40403 6.39102 8.9207
203 10 7.04062 7.38289 10.9212
204 9 1.77526 10.6552 7.84854
205 10 1.10369 9.81755 7.41955
206 10 2.60505 11.2521 8.37994
207 9 6.30376 9.10822 7.29512
208 10 7.12268 9.07888 6.46836
209 10 5.71921 8.74595 8.22612
210 9 9.10474 7.87816 6.99549
211 10 0.934086 7.48117 6.18671
212 10 8.32347 7.99081 7.8887
ITEM: TIMESTEP
35
ITEM: NUMBER OF ATOMS
212
ITEM: BOX BOUNDS xy xz yz pp pp pp
-2.2915836406475876e-02 9.5703408505075043e+00 0.0000000000000000e+00
-4.9840616776233304e-02 1.9436839716776245e+01 6.3362481410101468e-01
-4.3865542270680180e-02 1.7106680642270689e+01 0.0000000000000000e+00
ITEM: ATOMS id type x y z
1 1 8.70558 0.482586 3.70281
2 1 4.9985 9.17434 4.76694
3 1 7.08201 5.37847 0.444192
4 1 6.60718 4.27571 8.02917
5 2 7.7135 8.61434 3.12513
6 2 6.07895 1.05198 5.4229
7 2 8.11368 3.68442 1.07283
8 2 5.57839 5.92355 7.35701
9 2 6.48456 8.21667 3.54545
10 2 7.39486 1.46419 4.91331
11 2 0.417547 3.38512 0.711715
12 2 4.35554 6.26361 7.85972
13 2 7.10159 6.83024 1.94471
14 2 6.61505 2.77492 6.646
15 2 8.74483 1.9295 2.33116
16 2 4.87617 7.65257 6.00341
17 5 1.08255 0.726036 5.22393
18 5 3.69776 8.95725 3.27561
19 5 1.53521 5.60243 7.56464
20 5 3.14768 4.08837 1.00846
21 5 3.18508 0.268808 5.73274
22 5 1.54523 9.4006 2.74832
23 5 8.52128 5.05899 7.09696
24 5 5.23914 4.53339 1.4651
25 3 8.09083 7.71729 2.19249
26 3 5.6048 1.85713 6.40725
27 3 7.71816 2.86082 2.07118
28 3 5.9481 6.77797 6.3694
29 3 6.16368 7.1091 2.81413
30 3 7.54729 2.43813 5.76677
31 3 0.741079 2.33201 1.48786
32 3 3.93361 7.37835 6.96861
33 6 2.25215 0.315144 5.01913
34 6 2.51887 9.33839 3.51939
35 6 0.441467 5.16634 7.80654
36 6 4.30008 4.47439 0.703461
37 4 0.116233 7.62052 1.8352
38 4 4.60187 1.80993 6.82375
39 4 6.65636 2.8959 2.41787
40 4 7.03809 6.91286 6.11513
41 4 5.12697 6.73197 2.76937
42 4 8.60155 2.71789 5.80308
43 4 1.72489 1.81803 1.44175
44 4 3.05067 7.92389 7.02355
45 1 4.5376 0.49996 12.3034
46 1 0.878995 9.15487 13.3159
47 1 2.96829 5.31543 9.0298
48 1 2.44127 4.27469 16.5824
49 2 3.56361 8.48299 11.8786
50 2 1.75577 1.04063 13.8266
51 2 3.95855 3.7823 9.71635
52 2 1.48467 5.96636 15.9973
53 2 2.17051 8.21166 11.973
54 2 3.13883 1.29164 13.6291
55 2 5.29327 3.36357 9.27535
56 2 9.14164 6.3399 16.4125
57 2 2.8934 6.79093 10.4442
58 2 2.44097 2.87599 15.2576
59 2 4.49376 1.85627 10.8639
60 2 0.824686 7.6279 14.6586
61 5 5.8183 0.644193 13.7771
62 5 8.49962 9.08453 11.9531
63 5 6.33193 5.60098 16.1922
64 5 8.03313 4.00719 9.50237
65 5 7.91976 0.280561 14.2908
66 5 6.32118 9.45919 11.3015
67 5 4.25478 5.10071 15.6712
68 5 1.11224 4.54556 10.0452
69 3 4.11796 7.41487 11.1565
70 3 1.47035 1.91295 14.8516
71 3 3.53559 2.84592 10.5909
72 3 1.85387 6.85231 15.0527
73 3 1.89442 7.1369 11.2355
74 3 3.3855 2.4639 14.3292
75 3 5.55768 2.3151 10.004
76 3 8.79747 7.34075 15.5495
77 6 6.95297 0.295264 13.5178
78 6 7.25193 9.30742 12.1839
79 6 5.20306 5.23507 16.3614
80 6 9.15175 4.48561 9.27568
81 4 4.87748 7.64304 10.3034
82 4 9.4718 1.91111 15.3798
83 4 2.69986 2.98152 11.2263
84 4 2.65431 6.7439 14.3184
85 4 0.895121 6.70618 11.1496
86 4 4.48054 2.7941 14.3916
87 4 6.46425 1.74068 10.0008
88 4 7.75374 7.82305 15.6451
89 1 8.6674 10.2244 3.73237
90 1 5.03769 18.8912 4.74125
91 1 7.10707 15.0851 0.493994
92 1 6.61362 14.0126 8.02376
93 2 7.74168 18.3613 3.14085
94 2 5.90129 11.0462 5.21441
95 2 8.10752 13.4188 1.0085
96 2 5.58224 15.6747 7.32088
97 2 6.40222 18.0578 3.44772
98 2 7.32741 11.2475 4.9334
99 2 0.426139 13.0697 0.693114
100 2 4.34681 16.1452 7.79329
101 2 7.12965 16.5815 1.81887
102 2 6.6561 12.5558 6.58887
103 2 8.61169 11.7001 2.37421
104 2 4.99948 17.4057 6.15886
105 5 1.14466 10.4589 5.15811
106 5 3.64056 18.7938 3.2597
107 5 1.56142 15.3134 7.5707
108 5 3.22281 13.8647 0.926839
109 5 3.16028 10.0256 5.82179
110 5 1.51892 19.1022 2.70323
111 5 8.3989 14.8737 7.02002
112 5 5.26413 14.2758 1.4654
113 3 8.08752 17.4949 2.16142
114 3 5.67359 11.6675 6.32324
115 3 7.70254 12.6043 2.06358
116 3 5.93357 16.4488 6.4092
117 3 6.13628 16.8891 2.74758
118 3 7.70377 12.2263 5.80121
119 3 0.65051 11.9988 1.53501
120 3 3.98938 17.1112 6.91707
121 6 2.27263 10.0705 4.96832
122 6 2.54195 19.1597 3.45427
123 6 0.395931 14.9326 7.84008
124 6 4.31561 14.2719 0.69943
125 4 0.129399 17.2737 1.79645
126 4 4.57694 11.7952 6.55285
127 4 6.77424 12.4718 2.58859
128 4 6.99724 16.3525 6.01608
129 4 5.23369 16.2615 2.6864
130 4 8.52717 12.7875 5.68797
131 4 1.51103 11.4086 1.42093
132 4 3.13979 17.7234 7.10475
133 1 4.47717 10.2178 12.2729
134 1 0.86022 18.8726 13.367
135 1 2.9153 15.0518 9.07174
136 1 2.41546 14.0334 16.5642
137 2 3.43863 18.3559 11.7453
138 2 1.88462 10.7578 13.9309
139 2 3.93759 13.4115 9.63811
140 2 1.49293 15.6578 15.9383
141 2 2.14091 18.0398 12.0873
142 2 3.15653 11.1172 13.5764
143 2 5.16469 13.0858 9.27841
144 2 9.15953 16.0124 16.3937
145 2 2.98807 16.543 10.4064
146 2 2.41519 12.5508 15.1539
147 2 4.62392 11.8076 10.9626
148 2 0.791651 17.4589 14.7736
149 5 5.94651 10.3749 13.7779
150 5 8.50313 18.7485 11.8367
151 5 6.3171 15.3495 16.1632
152 5 8.04484 13.8451 9.45528
153 5 8.00912 10.0334 14.2847
154 5 6.3374 19.068 11.3253
155 5 4.3441 14.9495 15.644
156 5 1.18439 14.2228 10.037
157 3 3.99945 17.3879 10.7832
158 3 1.5247 11.6291 14.9355
159 3 3.63406 12.6276 10.6344
160 3 1.74273 16.5017 15.0585
161 3 1.91156 16.9424 11.2378
162 3 3.42885 12.1965 14.3883
163 3 5.49019 12.0595 10.0335
164 3 8.85409 17.0753 15.6312
165 6 7.03398 9.92096 13.5393
166 6 7.30935 19.0588 12.1111
167 6 5.28609 14.8379 16.3673
168 6 9.17674 14.3627 9.24687
169 4 4.95598 17.3256 10.1907
170 4 0.635615 11.7225 15.545
171 4 2.8908 12.829 11.3537
172 4 2.76701 16.6012 14.6456
173 4 1.00514 16.3353 11.4415
174 4 4.30925 12.7372 14.1956
175 4 6.45047 11.4882 9.93237
176 4 7.9408 17.5585 15.6005
177 7 7.36834 13.376 14.3847
178 8 6.85567 13.0775 15.115
179 8 6.71538 13.1561 13.7012
180 7 6.91809 15.6132 12.5083
181 8 6.87991 16.5097 12.7594
182 8 7.86943 15.3575 12.4279
183 7 5.32773 4.88691 12.9117
184 8 4.36806 5.02535 13.0059
185 8 5.5929 5.80441 13.0845
186 7 7.16134 5.41189 11.4557
187 8 7.542 5.47404 12.306
188 8 8.66353 4.84377 11.2699
189 7 2.9491 4.88787 4.45135
190 8 2.67928 5.84387 4.36743
191 8 2.17178 4.6697 3.8497
192 7 4.65087 2.83764 4.1486
193 8 4.5148 2.71218 3.20227
194 8 5.27834 3.55159 4.37824
195 9 3.06997 9.66654 9.81392
196 10 3.19121 8.91093 8.86269
197 10 2.58117 10.3865 10.6355
198 9 8.99881 11.7133 10.5848
199 10 8.39251 11.4028 11.5025
200 10 0.785948 11.8472 9.69969
201 9 7.22222 6.83768 9.92772
202 10 7.40626 6.39558 8.92087
203 10 7.03827 7.3863 10.9161
204 9 1.7747 10.6585 7.8462
205 10 1.10332 9.81733 7.42018
206 10 2.60638 11.252 8.3777
207 9 6.30452 9.11179 7.29946
208 10 7.12952 9.0723 6.47264
209 10 5.72191 8.74905 8.23077
210 9 9.10628 7.88073 6.99479
211 10 0.932183 7.48199 6.18507
212 10 8.32609 7.99038 7.88995
ITEM: TIMESTEP
36
ITEM: NUMBER OF ATOMS
212
ITEM: BOX BOUNDS xy xz yz pp pp pp
-2.4013191331378358e-02 9.5715934152267739e+00 0.0000000000000000e+00
-5.2227300173226965e-02 1.9439226400173240e+01 6.3378002389538224e-01
-4.5966101377073798e-02 1.7108781201377084e+01 0.0000000000000000e+00
ITEM: ATOMS id type x y z
1 1 8.70751 0.479902 3.70119
2 1 4.99761 9.17509 4.76593
3 1 7.0817 5.37759 0.441254
4 1 6.60815 4.27443 8.02971
5 2 7.71537 8.61554 3.12415
6 2 6.08278 1.04818 5.42287
7 2 8.11419 3.68326 1.07078
8 2 5.57694 5.92108 7.35452
9 2 6.48577 8.21589 3.54597
10 2 7.39613 1.46235 4.9108
11 2 0.417625 3.38429 0.709415
12 2 4.35451 6.26373 7.86047
13 2 7.1027 6.82773 1.94363
14 2 6.61467 2.77317 6.64777
15 2 8.74625 1.92611 2.33061
16 2 4.87159 7.65054 5.99662
17 5 1.08325 0.724233 5.2238
18 5 3.69686 8.95773 3.27417
19 5 1.53262 5.60156 7.56468
20 5 3.14816 4.08775 1.00886
21 5 3.18413 0.266502 5.73212
22 5 1.54576 9.40116 2.74779
23 5 8.5245 5.05518 7.097
24 5 5.23731 4.53302 1.46315
25 3 8.09203 7.71643 2.19194
26 3 5.60581 1.85417 6.4093
27 3 7.72045 2.85872 2.06988
28 3 5.94545 6.77635 6.36619
29 3 6.16568 7.10749 2.81614
30 3 7.54803 2.43577 5.76515
31 3 0.740325 2.33083 1.48634
32 3 3.9318 7.37577 6.96723
33 6 2.24906 0.314126 5.01687
34 6 2.52021 9.33697 3.51825
35 6 0.444309 5.16543 7.80873
36 6 4.29777 4.47234 0.701199
37 4 0.111196 7.61278 1.83793
38 4 4.60326 1.81093 6.82547
39 4 6.65674 2.88608 2.41792
40 4 7.03698 6.91527 6.11468
41 4 5.12856 6.73174 2.76747
42 4 8.60105 2.71571 5.81041
43 4 1.7262 1.81712 1.43872
44 4 3.05142 7.92054 7.01546
45 1 4.53828 0.497681 12.3046
46 1 0.878234 9.15503 13.3163
47 1 2.96834 5.31281 9.02922
48 1 2.44109 4.27347 16.5844
49 2 3.56524 8.4775 11.8862
50 2 1.75346 1.03769 13.8249
51 2 3.96066 3.78291 9.71746
52 2 1.48426 5.96556 15.9999
53 2 2.1678 8.21115 11.9729
54 2 3.13818 1.28638 13.6317
55 2 5.29424 3.36381 9.27454
56 2 9.14316 6.34034 16.4157
57 2 2.89385 6.78784 10.4458
58 2 2.44011 2.87565 15.2605
59 2 4.49353 1.85209 10.8627
60 2 0.822499 7.62726 14.6574
61 5 5.81733 0.640392 13.7783
62 5 8.50052 9.088 11.9568
63 5 6.33071 5.60115 16.1946
64 5 8.03746 4.00321 9.5027
65 5 7.91696 0.278689 14.2906
66 5 6.32192 9.46343 11.3034
67 5 4.2549 5.09874 15.6742
68 5 1.11049 4.54555 10.0457
69 3 4.12165 7.4027 11.1691
70 3 1.47019 1.91241 14.8525
71 3 3.53533 2.8425 10.5916
72 3 1.85364 6.8543 15.0544
73 3 1.89261 7.13479 11.2344
74 3 3.38327 2.46189 14.3305
75 3 5.55745 2.31114 10.0055
76 3 8.79876 7.33957 15.551
77 6 6.95208 0.293646 13.5188
78 6 7.25192 9.30549 12.1871
79 6 5.20333 5.23553 16.3661
80 6 9.15258 4.48294 9.27556
81 4 4.87646 7.63882 10.3155
82 4 9.47273 1.91053 15.379
83 4 2.70558 2.98095 11.2277
84 4 2.64938 6.74037 14.3187
85 4 0.890758 6.7097 11.1449
86 4 4.48315 2.78898 14.3971
87 4 6.46511 1.74243 9.99476
88 4 7.75089 7.82595 15.6439
89 1 8.66823 10.224 3.73157
90 1 5.03787 18.8936 4.73955
91 1 7.10747 15.0856 0.492319
92 1 6.61467 14.0136 8.02411
93 2 7.7434 18.3649 3.14046
94 2 5.89905 11.0538 5.20716
95 2 8.1078 13.4194 1.00524
96 2 5.58081 15.6747 7.31966
97 2 6.40204 18.062 3.44573
98 2 7.32829 11.2506 4.93041
99 2 0.425948 13.0696 0.690525
100 2 4.34694 16.1492 7.7936
101 2 7.13064 16.5829 1.8163
102 2 6.65777 12.5581 6.58872
103 2 8.61086 11.699 2.37469
104 2 4.99993 17.4086 6.15658
105 5 1.14599 10.46 5.1548
106 5 3.64019 18.7985 3.25715
107 5 1.5585 15.3144 7.57071
108 5 3.22395 13.8668 0.925426
109 5 3.15792 10.0259 5.82195
110 5 1.51948 19.104 2.70185
111 5 8.40073 14.8745 7.02084
112 5 5.26261 14.2776 1.46326
113 3 8.08844 17.4962 2.15896
114 3 5.67485 11.6693 6.32256
115 3 7.7033 12.6045 2.06279
116 3 5.9319 16.4493 6.40714
117 3 6.13908 16.8896 2.74536
118 3 7.7073 12.2275 5.80113
119 3 0.647754 11.9984 1.53413
120 3 3.98781 17.1134 6.91534
121 6 2.2726 10.0723 4.96702
122 6 2.53991 19.1641 3.45255
123 6 0.395912 14.9366 7.83863
124 6 4.31625 14.2739 0.697581
125 4 0.128406 17.2721 1.80194
126 4 4.57578 11.8082 6.54967
127 4 6.77536 12.4732 2.58175
128 4 7.00026 16.3585 6.00992
129 4 5.23284 16.2676 2.69033
130 4 8.52048 12.7859 5.68588
131 4 1.50175 11.4072 1.41954
132 4 3.14585 17.7297 7.10462
133 1 4.4763 10.2173 12.2734
134 1 0.858912 18.8744 13.3687
135 1 2.91389 15.0514 9.07226
136 1 2.41461 14.0349 16.5656
137 2 3.43734 18.3588 11.7465
138 2 1.88438 10.7562 13.9322
139 2 3.9368 13.4129 9.63793
140 2 1.49197 15.6571 15.9409
141 2 2.13699 18.0429 12.0886
142 2 3.15735 11.1166 13.5777
143 2 5.16511 13.0864 9.27736
144 2 9.16185 16.0129 16.3967
145 2 2.98847 16.5429 10.4058
146 2 2.4143 12.5533 15.1558
147 2 4.62803 11.8103 10.9662
148 2 0.790043 17.4621 14.7755
149 5 5.94901 10.3732 13.7791
150 5 8.50384 18.7526 11.8371
151 5 6.31616 15.3523 16.1656
152 5 8.04943 13.8476 9.45429
153 5 8.00912 10.0339 14.2842
154 5 6.33925 19.0688 11.3273
155 5 4.34692 14.9526 15.6471
156 5 1.18423 14.2245 10.0364
157 3 3.99962 17.3875 10.7857
158 3 1.52534 11.6291 14.9379
159 3 3.63613 12.6301 10.6363
160 3 1.73965 16.5051 15.0591
161 3 1.91102 16.9455 11.2373
162 3 3.42875 12.1958 14.3896
163 3 5.48926 12.0602 10.0333
164 3 8.85522 17.0777 15.6342
165 6 7.03395 9.91923 13.5419
166 6 7.31054 19.0591 12.1114
167 6 5.28729 14.8377 16.3696
168 6 9.1769 14.3662 9.24857
169 4 4.95849 17.3272 10.1945
170 4 0.637379 11.7215 15.5448
171 4 2.90404 12.8352 11.3574
172 4 2.76732 16.6066 14.6495
173 4 1.00743 16.334 11.4417
174 4 4.30085 12.7406 14.1979
175 4 6.45294 11.487 9.92897
176 4 7.94508 17.5552 15.6059
177 7 7.37116 13.3764 14.3861
178 8 6.85714 13.0799 15.1209
179 8 6.71181 13.1645 13.7063
180 7 6.91872 15.6137 12.5097
181 8 6.88169 16.515 12.7612
182 8 7.87011 15.3661 12.4246
183 7 5.32714 4.88491 12.9119
184 8 4.36628 5.02077 13.0116
185 8 5.59144 5.8053 13.0714
186 7 7.16458 5.39922 11.4629
187 8 7.52991 5.46905 12.3199
188 8 8.68622 4.7961 11.2876
189 7 2.94653 4.88928 4.44879
190 8 2.67518 5.84403 4.37255
191 8 2.17664 4.6631 3.84225
192 7 4.65076 2.83618 4.14598
193 8 4.52332 2.70857 3.19764
194 8 5.27954 3.55138 4.37002
195 9 3.07047 9.66822 9.80839
196 10 3.18614 8.91964 8.85416
197 10 2.5761 10.3857 10.6356
198 9 8.99937 11.7147 10.5841
199 10 8.39486 11.4072 11.5037
200 10 0.784709 11.8424 9.69883
201 9 7.22157 6.84196 9.92505
202 10 7.4085 6.40013 8.92102
203 10 7.03595 7.38954 10.9109
204 9 1.77415 10.6618 7.84387
205 10 1.1029 9.81712 7.42088
206 10 2.6077 11.2519 8.37542
207 9 6.30536 9.11532 7.30381
208 10 7.13633 9.06582 6.47689
209 10 5.72461 8.75221 8.23545
210 9 9.10786 7.88319 6.99411
211 10 0.930197 7.48288 6.18343
212 10 8.32883 7.98996 7.89114
ITEM: TIMESTEP
37
ITEM: NUMBER OF ATOMS
212
ITEM: BOX BOUNDS xy xz yz pp pp pp
-2.5124719423522457e-02 9.5728621577649466e+00 0.0000000000000000e+00
-5.4644809387985660e-02 1.9441643909387999e+01 6.3393723834141091e-01
-4.8093790790023405e-02 1.7110908890790036e+01 0.0000000000000000e+00
ITEM: ATOMS id type x y z
1 1 8.70945 0.477193 3.69955
2 1 4.99672 9.17584 4.7649
3 1 7.0814 5.37669 0.4383
4 1 6.60913 4.27314 8.03025
5 2 7.71728 8.61675 3.12318
6 2 6.08669 1.0443 5.42278
7 2 8.11468 3.68215 1.0687
8 2 5.57548 5.91854 7.35202
9 2 6.48693 8.2151 3.54646
10 2 7.39726 1.46042 4.90836
11 2 0.417732 3.38343 0.707096
12 2 4.3534 6.26395 7.86108
13 2 7.10385 6.82515 1.94246
14 2 6.61422 2.77142 6.64959
15 2 8.74759 1.92269 2.33006
16 2 4.86707 7.64849 5.98985
17 5 1.08398 0.722386 5.22367
18 5 3.69589 8.95822 3.27271
19 5 1.53005 5.60065 7.56472
20 5 3.14867 4.08712 1.00923
21 5 3.18321 0.264168 5.73154
22 5 1.54631 9.40171 2.74724
23 5 8.52766 5.05135 7.09693
24 5 5.2355 4.53264 1.46117
25 3 8.09317 7.71558 2.19139
26 3 5.60692 1.85121 6.41132
27 3 7.72278 2.85657 2.06854
28 3 5.94274 6.77471 6.36293
29 3 6.16764 7.10592 2.81817
30 3 7.5489 2.43341 5.7635
31 3 0.739601 2.3296 1.48479
32 3 3.93009 7.373 6.96584
33 6 2.24589 0.313029 5.01439
34 6 2.52157 9.33558 3.51715
35 6 0.447202 5.16442 7.81108
36 6 4.29544 4.47033 0.698824
37 4 0.106554 7.60501 1.84047
38 4 4.6047 1.81204 6.82728
39 4 6.65758 2.87592 2.41799
40 4 7.03529 6.91728 6.11403
41 4 5.13035 6.73147 2.76556
42 4 8.60041 2.71387 5.81796
43 4 1.72724 1.81634 1.43562
44 4 3.05169 7.91705 7.00713
45 1 4.53897 0.49537 12.3058
46 1 0.877456 9.15519 13.3166
47 1 2.96838 5.31018 9.02865
48 1 2.44091 4.27223 16.5866
49 2 3.56687 8.4719 11.8938
50 2 1.75122 1.03473 13.8233
51 2 3.96285 3.78347 9.71851
52 2 1.4838 5.96472 16.0026
53 2 2.16513 8.21065 11.9728
54 2 3.13747 1.28114 13.6342
55 2 5.2951 3.36408 9.27375
56 2 9.14471 6.34075 16.419
57 2 2.89448 6.78474 10.4474
58 2 2.43923 2.87523 15.2633
59 2 4.49332 1.84797 10.8616
60 2 0.820293 7.62668 14.6562
61 5 5.81636 0.636563 13.7795
62 5 8.50135 9.09143 11.9606
63 5 6.32951 5.60132 16.197
64 5 8.04185 3.99918 9.50303
65 5 7.91416 0.276794 14.2904
66 5 6.32269 9.46777 11.3055
67 5 4.25498 5.09678 15.6771
68 5 1.10875 4.54552 10.0462
69 3 4.12513 7.39054 11.1814
70 3 1.47004 1.9119 14.8536
71 3 3.53514 2.83901 10.5923
72 3 1.85339 6.85629 15.0562
73 3 1.89077 7.13267 11.2333
74 3 3.38112 2.45985 14.3319
75 3 5.55715 2.30706 10.0071
76 3 8.80002 7.3384 15.5525
77 6 6.95129 0.291947 13.5197
78 6 7.25196 9.30364 12.1904
79 6 5.20357 5.23585 16.3711
80 6 9.15343 4.48025 9.27535
81 4 4.87494 7.63451 10.3285
82 4 9.47366 1.90989 15.3781
83 4 2.71095 2.98039 11.2293
84 4 2.64458 6.7366 14.3192
85 4 0.886393 6.71341 11.1401
86 4 4.48505 2.78374 14.4026
87 4 6.4662 1.74419 9.98845
88 4 7.74887 7.82864 15.6425
89 1 8.66907 10.2237 3.73076
90 1 5.03805 18.896 4.73785
91 1 7.10788 15.0861 0.490614
92 1 6.61573 14.0146 8.02445
93 2 7.74509 18.3686 3.14006
94 2 5.89695 11.0612 5.19986
95 2 8.10804 13.42 1.002
96 2 5.57933 15.6747 7.31854
97 2 6.40188 18.0662 3.44373
98 2 7.3291 11.2538 4.92745
99 2 0.425751 13.0694 0.687933
100 2 4.34706 16.1532 7.79387
101 2 7.13162 16.5842 1.81377
102 2 6.65944 12.5604 6.5886
103 2 8.61008 11.6979 2.37516
104 2 5.00044 17.4117 6.15422
105 5 1.1473 10.4612 5.15146
106 5 3.63987 18.8032 3.25453
107 5 1.55553 15.3153 7.57071
108 5 3.22505 13.869 0.924011
109 5 3.15556 10.0262 5.82205
110 5 1.52008 19.1059 2.70047
111 5 8.40262 14.8753 7.02169
112 5 5.26111 14.2794 1.46111
113 3 8.08936 17.4975 2.15644
114 3 5.67605 11.6711 6.32188
115 3 7.7041 12.6047 2.06195
116 3 5.93031 16.4499 6.40499
117 3 6.14193 16.89 2.74307
118 3 7.71072 12.2286 5.80103
119 3 0.644984 11.998 1.53319
120 3 3.98623 17.1155 6.91366
121 6 2.27259 10.074 4.96562
122 6 2.5377 19.1686 3.45094
123 6 0.395913 14.9406 7.83711
124 6 4.31696 14.276 0.695627
125 4 0.127502 17.2708 1.80755
126 4 4.57522 11.8214 6.54658
127 4 6.77607 12.475 2.57462
128 4 7.00253 16.3649 6.00377
129 4 5.23191 16.2741 2.69455
130 4 8.5147 12.785 5.68362
131 4 1.49286 11.4056 1.4181
132 4 3.15174 17.7363 7.10451
133 1 4.47543 10.2167 12.2738
134 1 0.857587 18.8763 13.3705
135 1 2.91249 15.051 9.07277
136 1 2.41376 14.0364 16.5672
137 2 3.43615 18.3616 11.7476
138 2 1.8841 10.7545 13.9336
139 2 3.93598 13.4144 9.63776
140 2 1.49092 15.6564 15.9437
141 2 2.1331 18.046 12.0899
142 2 3.15818 11.116 13.5789
143 2 5.16561 13.0871 9.27627
144 2 9.1642 16.0134 16.3998
145 2 2.98884 16.5429 10.4053
146 2 2.41342 12.5559 15.1578
147 2 4.63212 11.813 10.9699
148 2 0.788495 17.4652 14.7775
149 5 5.95149 10.3715 13.7803
150 5 8.5045 18.7569 11.8377
151 5 6.31528 15.3551 16.1679
152 5 8.05406 13.8503 9.45331
153 5 8.00914 10.0345 14.2838
154 5 6.34112 19.0696 11.3292
155 5 4.34969 14.9556 15.6502
156 5 1.18404 14.2264 10.0358
157 3 3.99967 17.3871 10.7883
158 3 1.52597 11.6291 14.9404
159 3 3.63823 12.6326 10.6383
160 3 1.73663 16.5086 15.0596
161 3 1.9105 16.9485 11.2368
162 3 3.42864 12.195 14.3909
163 3 5.48843 12.0608 10.0331
164 3 8.85634 17.0801 15.6372
165 6 7.03394 9.9175 13.5447
166 6 7.3117 19.0595 12.1118
167 6 5.28841 14.8373 16.372
168 6 9.17702 14.3696 9.25034
169 4 4.96076 17.3293 10.1987
170 4 0.638792 11.7201 15.5442
171 4 2.91684 12.8416 11.3613
172 4 2.76736 16.612 14.6534
173 4 1.00996 16.3328 11.4418
174 4 4.29277 12.7445 14.2003
175 4 6.45501 11.4862 9.92559
176 4 7.94869 17.5522 15.6115
177 7 7.37396 13.3768 14.3874
178 8 6.85859 13.0823 15.1273
179 8 6.70855 13.1731 13.7113
180 7 6.91937 15.6142 12.511
181 8 6.88356 16.5208 12.7631
182 8 7.87025 15.3749 12.4215
183 7 5.32653 4.8829 12.9123
184 8 4.36469 5.01599 13.0173
185 8 5.59006 5.80603 13.0583
186 7 7.16793 5.38643 11.4701
187 8 7.51787 5.46421 12.3344
188 8 8.70719 4.74909 11.3052
189 7 2.94389 4.89071 4.44616
190 8 2.67151 5.8439 4.37799
191 8 2.1821 4.65616 3.83518
192 7 4.65063 2.83471 4.14333
193 8 4.532 2.70524 3.19316
194 8 5.2804 3.55085 4.36144
195 9 3.07086 9.66987 9.80281
196 10 3.18109 8.92842 8.84579
197 10 2.57103 10.3848 10.6355
198 9 9.00001 11.7161 10.5834
199 10 8.39721 11.4117 11.5049
200 10 0.783427 11.8376 9.69797
201 9 7.2209 6.84628 9.92248
202 10 7.41073 6.40464 8.92115
203 10 7.03367 7.39261 10.9057
204 9 1.77363 10.665 7.84154
205 10 1.10242 9.81692 7.42164
206 10 2.60902 11.252 8.37309
207 9 6.30631 9.11878 7.30814
208 10 7.14311 9.05944 6.48111
209 10 5.7273 8.75543 8.24019
210 9 9.10948 7.88555 6.99346
211 10 0.92813 7.48384 6.18179
212 10 8.33168 7.98955 7.89227
ITEM: TIMESTEP
38
ITEM: NUMBER OF ATOMS
212
ITEM: BOX BOUNDS xy xz yz pp pp pp
-2.6249800297724057e-02 9.5741463699896077e+00 0.0000000000000000e+00
-5.7091795118669353e-02 1.9444090895118681e+01 6.3409636969186911e-01
-5.0247422966908317e-02 1.7113062522966921e+01 0.0000000000000000e+00
ITEM: ATOMS id type x y z
1 1 8.7114 0.47446 3.6979
2 1 4.99583 9.17658 4.76386
3 1 7.08111 5.37578 0.435329
4 1 6.61011 4.27183 8.03078
5 2 7.71922 8.61797 3.1222
6 2 6.09067 1.04034 5.42261
7 2 8.11514 3.68107 1.06659
8 2 5.574 5.91592 7.34951
9 2 6.48803 8.2143 3.54692
10 2 7.39824 1.45839 4.90598
11 2 0.417864 3.38253 0.704762
12 2 4.35219 6.26427 7.86156
13 2 7.10506 6.82249 1.94121
14 2 6.61371 2.76967 6.65145
15 2 8.74887 1.91926 2.32952
16 2 4.86259 7.64641 5.98311
17 5 1.08474 0.720499 5.22355
18 5 3.69487 8.95871 3.27121
19 5 1.52752 5.59971 7.56477
20 5 3.14921 4.08649 1.00955
21 5 3.18232 0.261806 5.731
22 5 1.54687 9.40224 2.74669
23 5 8.53076 5.04749 7.09675
24 5 5.2337 4.53225 1.45918
25 3 8.09427 7.71472 2.19083
26 3 5.60814 1.84825 6.41333
27 3 7.72517 2.85437 2.06718
28 3 5.93995 6.77305 6.35964
29 3 6.16957 7.10439 2.8202
30 3 7.5499 2.43108 5.76181
31 3 0.738907 2.32833 1.48322
32 3 3.92849 7.37004 6.96445
33 6 2.24265 0.311851 5.0117
34 6 2.52293 9.33422 3.5161
35 6 0.45013 5.16332 7.8136
36 6 4.2931 4.46835 0.696342
37 4 0.102354 7.59721 1.84279
38 4 4.60618 1.81324 6.82915
39 4 6.65891 2.86545 2.41807
40 4 7.03301 6.91886 6.11318
41 4 5.13235 6.73118 2.76365
42 4 8.59964 2.71236 5.82574
43 4 1.72799 1.81571 1.43246
44 4 3.05147 7.91345 6.9986
45 1 4.53965 0.493026 12.307
46 1 0.876661 9.15535 13.317
47 1 2.96841 5.30753 9.02808
48 1 2.44072 4.27098 16.5887
49 2 3.56848 8.4662 11.9014
50 2 1.74907 1.03176 13.8217
51 2 3.96513 3.78399 9.71952
52 2 1.48328 5.96384 16.0053
53 2 2.16253 8.21015 11.9728
54 2 3.13669 1.27593 13.6368
55 2 5.29586 3.3644 9.27296
56 2 9.14631 6.34114 16.4222
57 2 2.8953 6.78161 10.4492
58 2 2.43831 2.8747 15.2661
59 2 4.49315 1.84389 10.8603
60 2 0.81807 7.62615 14.655
61 5 5.8154 0.632708 13.7808
62 5 8.50211 9.09483 11.9643
63 5 6.32834 5.60151 16.1994
64 5 8.04628 3.99511 9.50335
65 5 7.91137 0.274878 14.2902
66 5 6.32347 9.47221 11.3077
67 5 4.25505 5.09482 15.68
68 5 1.10702 4.54547 10.0467
69 3 4.12839 7.37842 11.1935
70 3 1.46988 1.91141 14.8548
71 3 3.53502 2.83545 10.593
72 3 1.85311 6.85828 15.0579
73 3 1.88889 7.13054 11.2323
74 3 3.37905 2.45779 14.3333
75 3 5.55677 2.30287 10.0089
76 3 8.80124 7.33723 15.5541
77 6 6.95059 0.290168 13.5206
78 6 7.25205 9.30188 12.1936
79 6 5.20377 5.23604 16.3763
80 6 9.15428 4.47756 9.27506
81 4 4.87293 7.63009 10.3424
82 4 9.47461 1.9092 15.377
83 4 2.71595 2.97986 11.2311
84 4 2.63993 6.73258 14.32
85 4 0.882033 6.71731 11.1353
86 4 4.4862 2.77836 14.4083
87 4 6.46752 1.74592 9.98192
88 4 7.7477 7.83106 15.6409
89 1 8.66992 10.2234 3.72993
90 1 5.03823 18.8984 4.73613
91 1 7.1083 15.0867 0.48888
92 1 6.61679 14.0156 8.02478
93 2 7.74674 18.3723 3.13966
94 2 5.89501 11.0685 5.19251
95 2 8.10825 13.4206 0.998795
96 2 5.57779 15.6746 7.31752
97 2 6.40174 18.0705 3.44169
98 2 7.32983 11.257 4.92452
99 2 0.425545 13.0693 0.685341
100 2 4.34717 16.1571 7.79411
101 2 7.13259 16.5856 1.81127
102 2 6.6611 12.5629 6.58851
103 2 8.60932 11.6967 2.37562
104 2 5.001 17.4148 6.15179
105 5 1.14858 10.4624 5.14807
106 5 3.63959 18.8079 3.25185
107 5 1.55251 15.3162 7.5707
108 5 3.2261 13.8712 0.922594
109 5 3.15323 10.0265 5.82209
110 5 1.52072 19.1078 2.6991
111 5 8.40455 14.8761 7.02258
112 5 5.25961 14.2812 1.45895
113 3 8.09028 17.4988 2.15386
114 3 5.67717 11.6729 6.32121
115 3 7.70495 12.6049 2.06107
116 3 5.92882 16.4506 6.40276
117 3 6.14482 16.8905 2.74069
118 3 7.71403 12.2297 5.80091
119 3 0.642198 11.9977 1.53218
120 3 3.98465 17.1177 6.91204
121 6 2.27261 10.0756 4.96414
122 6 2.53532 19.1732 3.44946
123 6 0.395928 14.9447 7.83554
124 6 4.31775 14.2781 0.693567
125 4 0.126701 17.2697 1.81326
126 4 4.5753 11.8347 6.54359
127 4 6.77636 12.4772 2.56725
128 4 7.00403 16.3716 5.99766
129 4 5.2309 16.2812 2.69904
130 4 8.50992 12.7847 5.68118
131 4 1.4844 11.4037 1.41661
132 4 3.15742 17.7432 7.10445
133 1 4.47456 10.2161 12.2744
134 1 0.856243 18.8783 13.3722
135 1 2.91108 15.0507 9.07328
136 1 2.41292 14.038 16.5687
137 2 3.43503 18.3645 11.7487
138 2 1.88379 10.7529 13.935
139 2 3.93512 13.416 9.63759
140 2 1.48976 15.6556 15.9466
141 2 2.12924 18.049 12.0911
142 2 3.159 11.1155 13.5802
143 2 5.16619 13.0878 9.27516
144 2 9.16658 16.014 16.4028
145 2 2.98916 16.5428 10.4048
146 2 2.41257 12.5585 15.1598
147 2 4.6362 11.8156 10.9736
148 2 0.787008 17.4684 14.7795
149 5 5.95394 10.3699 13.7816
150 5 8.50512 18.7611 11.8382
151 5 6.31447 15.3579 16.1703
152 5 8.05873 13.8529 9.45235
153 5 8.00917 10.035 14.2834
154 5 6.34304 19.0705 11.3312
155 5 4.35241 14.9587 15.6533
156 5 1.18381 14.2283 10.0351
157 3 3.99962 17.3869 10.7909
158 3 1.52658 11.629 14.9429
159 3 3.64035 12.6351 10.6403
160 3 1.73368 16.5122 15.06
161 3 1.90999 16.9517 11.2363
162 3 3.42852 12.1942 14.3921
163 3 5.4877 12.0614 10.0329
164 3 8.85747 17.0825 15.6403
165 6 7.03397 9.91578 13.5474
166 6 7.31286 19.0599 12.1121
167 6 5.28946 14.837 16.3744
168 6 9.1771 14.3729 9.25215
169 4 4.96277 17.3317 10.2035
170 4 0.639836 11.7184 15.5435
171 4 2.92915 12.8483 11.3653
172 4 2.76712 16.6174 14.6575
173 4 1.01273 16.3318 11.4416
174 4 4.28505 12.7488 14.2027
175 4 6.45666 11.4857 9.92224
176 4 7.95158 17.5494 15.6174
177 7 7.37676 13.3772 14.3888
178 8 6.86009 13.0846 15.134
179 8 6.7056 13.1818 13.7162
180 7 6.92006 15.6148 12.5124
181 8 6.88551 16.5268 12.7651
182 8 7.8699 15.3838 12.4185
183 7 5.32588 4.88091 12.9126
184 8 4.36329 5.011 13.023
185 8 5.58875 5.8066 13.0453
186 7 7.17141 5.37352 11.4772
187 8 7.50588 5.4595 12.3495
188 8 8.72648 4.70278 11.3227
189 7 2.94118 4.89217 4.44349
190 8 2.66823 5.84348 4.38376
191 8 2.18813 4.6489 3.82851
192 7 4.65048 2.83326 4.14063
193 8 4.54081 2.70221 3.18884
194 8 5.28092 3.55002 4.35253
195 9 3.07113 9.6715 9.7972
196 10 3.17605 8.93729 8.83759
197 10 2.56598 10.3839 10.6355
198 9 9.00072 11.7175 10.5827
199 10 8.39955 11.4164 11.5061
200 10 0.782103 11.8327 9.69712
201 9 7.22023 6.85063 9.92
202 10 7.41297 6.40911 8.92125
203 10 7.03141 7.39552 10.9004
204 9 1.77312 10.6682 7.83921
205 10 1.10191 9.81675 7.42247
206 10 2.61034 11.252 8.37072
207 9 6.30736 9.12219 7.31246
208 10 7.14984 9.05316 6.48531
209 10 5.72999 8.75871 8.24497
210 9 9.11113 7.88781 6.99284
211 10 0.925981 7.48487 6.18014
212 10 8.33465 7.98915 7.89335
ITEM: TIMESTEP
39
ITEM: NUMBER OF ATOMS
212
ITEM: BOX BOUNDS xy xz yz pp pp pp
-2.7387835968917251e-02 9.5754453693367267e+00 0.0000000000000000e+00
-5.9566956782401093e-02 1.9446566056782412e+01 6.3425733336779611e-01
-5.2425853243455833e-02 1.7115240953243465e+01 0.0000000000000000e+00
ITEM: ATOMS id type x y z
1 1 8.71337 0.471704 3.69623
2 1 4.99495 9.17733 4.76281
3 1 7.08083 5.37485 0.432344
4 1 6.61111 4.27051 8.03132
5 2 7.7212 8.6192 3.12123
6 2 6.09471 1.0363 5.42239
7 2 8.11556 3.68004 1.06446
8 2 5.5725 5.91324 7.34699
9 2 6.48908 8.21349 3.54735
10 2 7.39909 1.45626 4.90368
11 2 0.418021 3.38159 0.702413
12 2 4.35091 6.26469 7.86191
13 2 7.10631 6.81976 1.93989
14 2 6.61315 2.76792 6.65335
15 2 8.75008 1.9158 2.32897
16 2 4.85818 7.6443 5.97639
17 5 1.08554 0.718573 5.22344
18 5 3.6938 8.95921 3.26969
19 5 1.52503 5.59873 7.56482
20 5 3.14979 4.08586 1.00983
21 5 3.18146 0.259419 5.73049
22 5 1.54746 9.40276 2.74612
23 5 8.53379 5.0436 7.09647
24 5 5.23192 4.53183 1.45718
25 3 8.09532 7.71387 2.19026
26 3 5.60946 1.84528 6.41532
27 3 7.72761 2.85212 2.06579
28 3 5.9371 6.77136 6.3563
29 3 6.17146 7.10289 2.82223
30 3 7.55101 2.42876 5.76009
31 3 0.738244 2.327 1.48162
32 3 3.92701 7.36691 6.96305
33 6 2.23935 0.310594 5.00881
34 6 2.52428 9.33291 3.51509
35 6 0.453079 5.16211 7.81628
36 6 4.29077 4.46641 0.693756
37 4 0.0986338 7.58938 1.8449
38 4 4.6077 1.81452 6.83109
39 4 6.66074 2.85469 2.41814
40 4 7.03013 6.92001 6.11213
41 4 5.13456 6.73087 2.76175
42 4 8.59877 2.71118 5.83371
43 4 1.72845 1.81523 1.42923
44 4 3.05073 7.90972 6.9899
45 1 4.54033 0.490652 12.3083
46 1 0.875849 9.15551 13.3174
47 1 2.96844 5.30488 9.02752
48 1 2.44053 4.26972 16.5909
49 2 3.57007 8.4604 11.9091
50 2 1.74699 1.02878 13.8202
51 2 3.96749 3.78447 9.72049
52 2 1.48269 5.96293 16.008
53 2 2.15998 8.20965 11.9728
54 2 3.13585 1.27074 13.6394
55 2 5.29651 3.36475 9.27219
56 2 9.14793 6.3415 16.4254
57 2 2.89631 6.77846 10.451
58 2 2.43737 2.87408 15.2688
59 2 4.493 1.83986 10.8591
60 2 0.81583 7.62567 14.6539
61 5 5.81445 0.628828 13.7821
62 5 8.50282 9.09819 11.9681
63 5 6.3272 5.60171 16.2017
64 5 8.05075 3.991 9.50367
65 5 7.90858 0.272942 14.2901
66 5 6.32428 9.47674 11.31
67 5 4.25509 5.09287 15.6828
68 5 1.1053 4.54541 10.0472
69 3 4.13142 7.36634 11.2053
70 3 1.46972 1.91094 14.856
71 3 3.53497 2.83181 10.5937
72 3 1.85281 6.86028 15.0597
73 3 1.88698 7.12839 11.2313
74 3 3.37706 2.45572 14.3347
75 3 5.55633 2.29859 10.0107
76 3 8.80243 7.33608 15.5558
77 6 6.95 0.288309 13.5215
78 6 7.25219 9.30021 12.1968
79 6 5.20392 5.23611 16.3817
80 6 9.15516 4.47487 9.27468
81 4 4.87047 7.62556 10.3571
82 4 9.47557 1.90848 15.3757
83 4 2.72055 2.97935 11.2331
84 4 2.63544 6.72831 14.321
85 4 0.877685 6.7214 11.1304
86 4 4.48656 2.77284 14.414
87 4 6.46908 1.7476 9.97521
88 4 7.74743 7.83321 15.639
89 1 8.67079 10.223 3.72908
90 1 5.03841 18.9009 4.73441
91 1 7.10873 15.0873 0.48712
92 1 6.61785 14.0166 8.02511
93 2 7.74837 18.3761 3.13924
94 2 5.89322 11.0757 5.18512
95 2 8.10842 13.4213 0.995621
96 2 5.57621 15.6745 7.3166
97 2 6.40162 18.0747 3.43962
98 2 7.33048 11.2601 4.92162
99 2 0.425328 13.0691 0.682749
100 2 4.34727 16.161 7.79433
101 2 7.13356 16.5869 1.8088
102 2 6.66276 12.5654 6.58845
103 2 8.60861 11.6954 2.37607
104 2 5.00162 17.418 6.14928
105 5 1.14983 10.4637 5.14466
106 5 3.63935 18.8126 3.24911
107 5 1.54945 15.3171 7.57067
108 5 3.2271 13.8733 0.921177
109 5 3.1509 10.0268 5.82207
110 5 1.52141 19.1097 2.69775
111 5 8.40654 14.8769 7.02351
112 5 5.25812 14.2831 1.45677
113 3 8.09119 17.5 2.15124
114 3 5.67821 11.6749 6.32053
115 3 7.70585 12.6052 2.06015
116 3 5.92741 16.4514 6.40044
117 3 6.14775 16.891 2.73824
118 3 7.71723 12.2308 5.80078
119 3 0.639394 11.9975 1.53112
120 3 3.98308 17.1198 6.91047
121 6 2.27267 10.0772 4.96256
122 6 2.53279 19.1779 3.44809
123 6 0.39595 14.9487 7.83393
124 6 4.31861 14.2802 0.691403
125 4 0.126018 17.2689 1.81907
126 4 4.57602 11.8483 6.54068
127 4 6.7762 12.4797 2.55965
128 4 7.00471 16.3787 5.99162
129 4 5.22982 16.2886 2.70377
130 4 8.50618 12.7852 5.67854
131 4 1.4764 11.4014 1.41506
132 4 3.16289 17.7504 7.10444
133 1 4.47371 10.2156 12.2749
134 1 0.854882 18.8802 13.374
135 1 2.90967 15.0504 9.0738
136 1 2.41207 14.0395 16.5703
137 2 3.43401 18.3673 11.7497
138 2 1.88346 10.7512 13.9364
139 2 3.93423 13.4178 9.63742
140 2 1.4885 15.6548 15.9496
141 2 2.12541 18.052 12.0923
142 2 3.15982 11.1149 13.5815
143 2 5.16685 13.0885 9.27401
144 2 9.16901 16.0145 16.4058
145 2 2.98943 16.5428 10.4043
146 2 2.41175 12.5613 15.162
147 2 4.64027 11.8181 10.9774
148 2 0.785578 17.4716 14.7814
149 5 5.95636 10.3682 13.7829
150 5 8.50569 18.7654 11.8387
151 5 6.31373 15.3608 16.1728
152 5 8.06343 13.8556 9.45141
153 5 8.00922 10.0356 14.283
154 5 6.34498 19.0714 11.3332
155 5 4.35508 14.9618 15.6563
156 5 1.18355 14.2302 10.0344
157 3 3.99946 17.3867 10.7936
158 3 1.52718 11.629 14.9453
159 3 3.64252 12.6376 10.6423
160 3 1.7308 16.5159 15.0603
161 3 1.9095 16.9548 11.2359
162 3 3.42839 12.1933 14.3933
163 3 5.48707 12.062 10.0327
164 3 8.8586 17.0849 15.6434
165 6 7.03403 9.91406 13.5503
166 6 7.31399 19.0605 12.1125
167 6 5.29044 14.8366 16.377
168 6 9.17715 14.3763 9.25401
169 4 4.9645 17.3346 10.2087
170 4 0.640493 11.7163 15.5425
171 4 2.94092 12.8553 11.3696
172 4 2.76657 16.6228 14.6617
173 4 1.01573 16.3308 11.4413
174 4 4.27772 12.7535 14.2052
175 4 6.45785 11.4856 9.91892
176 4 7.95372 17.547 15.6235
177 7 7.37955 13.3775 14.3902
178 8 6.86167 13.0869 15.1411
179 8 6.70296 13.1906 13.721
180 7 6.92078 15.6153 12.5138
181 8 6.88752 16.5331 12.7672
182 8 7.86909 15.3929 12.4157
183 7 5.32519 4.87892 12.9129
184 8 4.3621 5.00582 13.0287
185 8 5.58751 5.807 13.0323
186 7 7.17502 5.3605 11.4844
187 8 7.49393 5.45492 12.3651
188 8 8.74413 4.65721 11.3401
189 7 2.93841 4.89365 4.44077
190 8 2.66532 5.84278 4.38983
191 8 2.19471 4.64136 3.82222
192 7 4.65031 2.8318 4.13789
193 8 4.54975 2.69944 3.1847
194 8 5.28112 3.54888 4.3433
195 9 3.07127 9.67312 9.79155
196 10 3.17104 8.94622 8.82954
197 10 2.56095 10.3829 10.6353
198 9 9.00151 11.7189 10.582
199 10 8.4019 11.4211 11.5074
200 10 0.780739 11.8279 9.69628
201 9 7.21954 6.85501 9.91762
202 10 7.4152 6.41354 8.92132
203 10 7.02919 7.39827 10.895
204 9 1.77262 10.6713 7.83688
205 10 1.10135 9.8166 7.42335
206 10 2.61165 11.2522 8.36831
207 9 6.30853 9.12553 7.31674
208 10 7.15651 9.047 6.48949
209 10 5.73268 8.76205 8.24978
210 9 9.11281 7.88997 6.99224
211 10 0.923753 7.48596 6.17849
212 10 8.33774 7.98876 7.89437
ITEM: TIMESTEP
40
ITEM: NUMBER OF ATOMS
212
ITEM: BOX BOUNDS xy xz yz pp pp pp
-2.8538251593387187e-02 9.5767584996567425e+00 0.0000000000000000e+00
-6.2069044127396111e-02 1.9449068144127409e+01 6.3442004806334207e-01
-5.4627981252616920e-02 1.7117443081252624e+01 0.0000000000000000e+00
ITEM: ATOMS id type x y z
1 1 8.71535 0.468927 3.69455
2 1 4.99407 9.17808 4.76175
3 1 7.08056 5.37391 0.429345
4 1 6.61212 4.26917 8.03185
5 2 7.7232 8.62044 3.12026
6 2 6.09882 1.03218 5.42211
7 2 8.11596 3.67904 1.06229
8 2 5.57099 5.9105 7.34446
9 2 6.49009 8.21268 3.54774
10 2 7.3998 1.45403 4.90145
11 2 0.418199 3.38063 0.700052
12 2 4.34954 6.2652 7.86213
13 2 7.10761 6.81696 1.93849
14 2 6.61253 2.76616 6.65527
15 2 8.75122 1.91234 2.32842
16 2 4.85383 7.64215 5.96971
17 5 1.08635 0.716612 5.22334
18 5 3.69267 8.95972 3.26814
19 5 1.52259 5.59773 7.56488
20 5 3.15039 4.08522 1.01008
21 5 3.18062 0.257007 5.73002
22 5 1.54806 9.40327 2.74555
23 5 8.53677 5.03969 7.09608
24 5 5.23015 4.53141 1.45516
25 3 8.09631 7.71302 2.18969
26 3 5.61089 1.84231 6.41727
27 3 7.73009 2.84982 2.06437
28 3 5.93418 6.76967 6.35292
29 3 6.17332 7.10143 2.82427
30 3 7.55225 2.42647 5.75836
31 3 0.737614 2.32563 1.48001
32 3 3.92565 7.3636 6.96165
33 6 2.236 0.309257 5.00572
34 6 2.52564 9.33164 3.51414
35 6 0.456035 5.16081 7.8191
36 6 4.28843 4.46451 0.69107
37 4 0.0954248 7.58155 1.84681
38 4 4.60925 1.81587 6.83309
39 4 6.66306 2.84366 2.41817
40 4 7.02665 6.92069 6.11087
41 4 5.13695 6.73053 2.75987
42 4 8.5978 2.7103 5.84185
43 4 1.72861 1.81488 1.42596
44 4 3.04945 7.9059 6.98108
45 1 4.541 0.488249 12.3095
46 1 0.875021 9.15567 13.3178
47 1 2.96847 5.30223 9.02697
48 1 2.44033 4.26845 16.5931
49 2 3.57164 8.4545 11.9167
50 2 1.74499 1.02579 13.8187
51 2 3.96993 3.7849 9.72141
52 2 1.48205 5.96198 16.0108
53 2 2.15749 8.20916 11.973
54 2 3.13495 1.26559 13.642
55 2 5.29705 3.36514 9.27144
56 2 9.14959 6.34183 16.4285
57 2 2.89752 6.7753 10.453
58 2 2.43639 2.87337 15.2715
59 2 4.49289 1.83587 10.8578
60 2 0.813576 7.62523 14.6528
61 5 5.81351 0.624924 13.7834
62 5 8.50346 9.10151 11.9718
63 5 6.32608 5.60191 16.2039
64 5 8.05525 3.98685 9.50399
65 5 7.9058 0.270987 14.29
66 5 6.32511 9.48137 11.3123
67 5 4.25511 5.09092 15.6856
68 5 1.10359 4.54534 10.0478
69 3 4.13421 7.3543 11.2169
70 3 1.46957 1.91049 14.8572
71 3 3.535 2.82812 10.5944
72 3 1.85248 6.86227 15.0614
73 3 1.88504 7.12624 11.2304
74 3 3.37515 2.45362 14.3361
75 3 5.55581 2.29421 10.0126
76 3 8.80358 7.33493 15.5575
77 6 6.94949 0.28637 13.5224
78 6 7.25238 9.29863 12.2
79 6 5.20401 5.23604 16.3874
80 6 9.15606 4.47218 9.27423
81 4 4.86758 7.6209 10.3727
82 4 9.47655 1.90772 15.3743
83 4 2.72473 2.97886 11.2353
84 4 2.63112 6.72381 14.3223
85 4 0.873355 6.72567 11.1253
86 4 4.48612 2.76719 14.4197
87 4 6.47087 1.74919 9.96833
88 4 7.74806 7.83504 15.637
89 1 8.67167 10.2227 3.72822
90 1 5.03859 18.9034 4.73268
91 1 7.10917 15.0878 0.485332
92 1 6.61891 14.0176 8.02543
93 2 7.74996 18.3798 3.13882
94 2 5.89159 11.0828 5.17769
95 2 8.10857 13.422 0.992481
96 2 5.57457 15.6744 7.31578
97 2 6.40153 18.0788 3.43752
98 2 7.33106 11.2633 4.91876
99 2 0.425097 13.0689 0.68016
100 2 4.34737 16.1648 7.79452
101 2 7.13452 16.5883 1.80636
102 2 6.66441 12.5679 6.58841
103 2 8.60793 11.6942 2.3765
104 2 5.00228 17.4213 6.14671
105 5 1.15105 10.465 5.14122
106 5 3.63916 18.8173 3.24632
107 5 1.54636 15.3181 7.57063
108 5 3.22806 13.8755 0.919759
109 5 3.14859 10.0271 5.822
110 5 1.52213 19.1116 2.6964
111 5 8.40857 14.8777 7.02447
112 5 5.25665 14.2849 1.45459
113 3 8.09209 17.5013 2.14856
114 3 5.67918 11.6769 6.31985
115 3 7.70679 12.6054 2.05917
116 3 5.9261 16.4522 6.39804
117 3 6.15072 16.8916 2.73573
118 3 7.7203 12.2317 5.80063
119 3 0.63657 11.9973 1.53001
120 3 3.98151 17.1218 6.90896
121 6 2.27275 10.0787 4.96089
122 6 2.53011 19.1827 3.44683
123 6 0.395973 14.9528 7.83227
124 6 4.31955 14.2824 0.689135
125 4 0.125465 17.2683 1.82495
126 4 4.57741 11.862 6.53784
127 4 6.77557 12.4825 2.55185
128 4 7.00456 16.3862 5.98568
129 4 5.22868 16.2965 2.70871
130 4 8.50353 12.7864 5.6757
131 4 1.46888 11.3989 1.41344
132 4 3.16811 17.758 7.1045
133 1 4.47287 10.215 12.2754
134 1 0.853504 18.8822 13.3758
135 1 2.90827 15.0501 9.0743
136 1 2.41123 14.0411 16.5719
137 2 3.43306 18.3702 11.7506
138 2 1.8831 10.7495 13.9379
139 2 3.93331 13.4196 9.63726
140 2 1.48715 15.6539 15.9527
141 2 2.12162 18.055 12.0934
142 2 3.16064 11.1144 13.5829
143 2 5.16758 13.0892 9.27284
144 2 9.17146 16.0151 16.4088
145 2 2.98967 16.5427 10.404
146 2 2.41094 12.5641 15.1642
147 2 4.64431 11.8206 10.9813
148 2 0.784205 17.4749 14.7834
149 5 5.95875 10.3666 13.7842
150 5 8.50622 18.7698 11.8392
151 5 6.31305 15.3638 16.1752
152 5 8.06816 13.8583 9.45048
153 5 8.00928 10.0361 14.2826
154 5 6.34696 19.0723 11.3352
155 5 4.3577 14.9648 15.6594
156 5 1.18325 14.2323 10.0337
157 3 3.99919 17.3865 10.7963
158 3 1.52776 11.6289 14.9477
159 3 3.64471 12.6401 10.6443
160 3 1.728 16.5198 15.0605
161 3 1.90903 16.958 11.2355
162 3 3.42824 12.1923 14.3944
163 3 5.48655 12.0626 10.0324
164 3 8.85974 17.0873 15.6465
165 6 7.03412 9.91234 13.5531
166 6 7.31511 19.0611 12.1129
167 6 5.29135 14.8362 16.3797
168 6 9.17719 14.3796 9.25592
169 4 4.96596 17.3378 10.2144
170 4 0.640747 11.714 15.5413
171 4 2.95213 12.8625 11.3742
172 4 2.76571 16.6282 14.6659
173 4 1.01896 16.3299 11.4407
174 4 4.27083 12.7588 14.2076
175 4 6.45857 11.4858 9.91566
176 4 7.95507 17.5448 15.6299
177 7 7.38233 13.3779 14.3916
178 8 6.86339 13.0893 15.1483
179 8 6.70062 13.1996 13.7257
180 7 6.92152 15.6158 12.5152
181 8 6.88961 16.5395 12.7692
182 8 7.86787 15.4021 12.4129
183 7 5.32448 4.87694 12.9133
184 8 4.36114 5.00045 13.0344
185 8 5.5863 5.80723 13.0193
186 7 7.17874 5.34737 11.4916
187 8 7.482 5.45045 12.381
188 8 8.76018 4.61238 11.3574
189 7 2.93558 4.89516 4.43799
190 8 2.66275 5.84183 4.39618
191 8 2.20183 4.63355 3.81629
192 7 4.65014 2.83034 4.13511
193 8 4.55881 2.69694 3.18074
194 8 5.28101 3.54745 4.33378
195 9 3.07129 9.67472 9.78589
196 10 3.16605 8.95523 8.82165
197 10 2.55594 10.3818 10.6351
198 9 9.00237 11.7202 10.5812
199 10 8.40423 11.4259 11.5087
200 10 0.779335 11.823 9.69544
201 9 7.21883 6.85942 9.91533
202 10 7.41744 6.41793 8.92133
203 10 7.02699 7.40086 10.8896
204 9 1.77213 10.6744 7.83455
205 10 1.10074 9.81647 7.4243
206 10 2.61296 11.2523 8.36585
207 9 6.30981 9.1288 7.32099
208 10 7.16312 9.04096 6.49365
209 10 5.73536 8.76545 8.25465
210 9 9.11453 7.89202 6.99167
211 10 0.921446 7.48712 6.17684
212 10 8.34094 7.98839 7.89534
ITEM: TIMESTEP
41
ITEM: NUMBER OF ATOMS
212
ITEM: BOX BOUNDS xy xz yz pp pp pp
-2.9700495336717481e-02 9.5780851310638209e+00 0.0000000000000000e+00
-6.4596856945762227e-02 1.9451595956945773e+01 6.3458443572709022e-01
-5.6852750671788854e-02 1.7119667850671796e+01 0.0000000000000000e+00
ITEM: ATOMS id type x y z
1 1 8.71734 0.466131 3.69286
2 1 4.99319 9.17883 4.76067
3 1 7.0803 5.37296 0.426333
4 1 6.61314 4.26782 8.03238
5 2 7.72523 8.62168 3.11929
6 2 6.10298 1.02798 5.42176
7 2 8.11633 3.67808 1.0601
8 2 5.56946 5.90769 7.34193
9 2 6.49104 8.21186 3.5481
10 2 7.40037 1.45172 4.8993
11 2 0.418397 3.37963 0.697682
12 2 4.34809 6.2658 7.86221
13 2 7.10895 6.8141 1.93703
14 2 6.61186 2.76441 6.65723
15 2 8.7523 1.90885 2.32786
16 2 4.84954 7.63998 5.96307
17 5 1.08719 0.714617 5.22325
18 5 3.69149 8.96023 3.26657
19 5 1.52019 5.59671 7.56494
20 5 3.15101 4.08457 1.01028
21 5 3.1798 0.254572 5.72957
22 5 1.54868 9.40377 2.74496
23 5 8.53969 5.03575 7.0956
24 5 5.22839 4.53097 1.45312
25 3 8.09725 7.71217 2.18911
26 3 5.61243 1.83934 6.4192
27 3 7.73262 2.84748 2.06294
28 3 5.93119 6.76796 6.3495
29 3 6.17515 7.10001 2.82631
30 3 7.5536 2.42421 5.75661
31 3 0.737017 2.32421 1.47837
32 3 3.9244 7.36012 6.96023
33 6 2.23262 0.30784 5.00245
34 6 2.52698 9.33042 3.51323
35 6 0.458983 5.1594 7.82207
36 6 4.28611 4.46266 0.688291
37 4 0.0927511 7.57371 1.8485
38 4 4.61082 1.81727 6.83514
39 4 6.66588 2.83238 2.41816
40 4 7.02259 6.92091 6.1094
41 4 5.13953 6.73018 2.75802
42 4 8.59675 2.70972 5.85015
43 4 1.72845 1.81469 1.42263
44 4 3.04763 7.90197 6.97218
45 1 4.54167 0.485817 12.3108
46 1 0.874177 9.15582 13.3182
47 1 2.96848 5.29956 9.02642
48 1 2.44013 4.26717 16.5953
49 2 3.57318 8.4485 11.9243
50 2 1.74308 1.02279 13.8173
51 2 3.97245 3.78527 9.72229
52 2 1.48135 5.96099 16.0136
53 2 2.15506 8.20866 11.9732
54 2 3.13399 1.26046 13.6446
55 2 5.29748 3.36555 9.27071
56 2 9.15129 6.34214 16.4317
57 2 2.89892 6.77212 10.4551
58 2 2.43539 2.87256 15.274
59 2 4.4928 1.83194 10.8565
60 2 0.811307 7.62485 14.6517
61 5 5.81257 0.620997 13.7848
62 5 8.50404 9.1048 11.9756
63 5 6.32499 5.60213 16.2062
64 5 8.05978 3.98265 9.5043
65 5 7.90304 0.269015 14.29
66 5 6.32597 9.48608 11.3148
67 5 4.25512 5.08897 15.6883
68 5 1.10188 4.54524 10.0484
69 3 4.13677 7.34231 11.2283
70 3 1.46941 1.91005 14.8586
71 3 3.5351 2.82437 10.5951
72 3 1.85211 6.86426 15.0631
73 3 1.88306 7.12408 11.2295
74 3 3.37333 2.45149 14.3376
75 3 5.55523 2.28976 10.0147
76 3 8.80468 7.3338 15.5593
77 6 6.94908 0.284352 13.5232
78 6 7.25262 9.29715 12.2033
79 6 5.20406 5.23585 16.3934
80 6 9.157 4.46949 9.27369
81 4 4.8643 7.61611 10.389
82 4 9.47754 1.90693 15.3727
83 4 2.72848 2.9784 11.2377
84 4 2.62698 6.71909 14.3237
85 4 0.869048 6.73012 11.1202
86 4 4.48488 2.7614 14.4255
87 4 6.47289 1.75067 9.96131
88 4 7.74961 7.83656 15.6349
89 1 8.67256 10.2224 3.72734
90 1 5.03877 18.906 4.73094
91 1 7.10962 15.0884 0.48352
92 1 6.61998 14.0187 8.02575
93 2 7.75151 18.3836 3.13838
94 2 5.89011 11.0898 5.17023
95 2 8.10869 13.4228 0.989379
96 2 5.57289 15.6741 7.31505
97 2 6.40147 18.083 3.43539
98 2 7.33155 11.2665 4.91593
99 2 0.424851 13.0688 0.677576
100 2 4.34745 16.1686 7.79469
101 2 7.13548 16.5896 1.80396
102 2 6.66607 12.5706 6.5884
103 2 8.60729 11.6928 2.37693
104 2 5.00299 17.4247 6.14407
105 5 1.15224 10.4663 5.13774
106 5 3.63899 18.8221 3.24346
107 5 1.54324 15.319 7.57057
108 5 3.22897 13.8776 0.918342
109 5 3.1463 10.0273 5.82187
110 5 1.52289 19.1136 2.69506
111 5 8.41065 14.8786 7.02547
112 5 5.2552 14.2868 1.45241
113 3 8.09298 17.5026 2.14585
114 3 5.68007 11.679 6.31916
115 3 7.70778 12.6057 2.05815
116 3 5.92488 16.4531 6.39554
117 3 6.15372 16.8922 2.73317
118 3 7.72324 12.2326 5.80046
119 3 0.633725 11.9972 1.52883
120 3 3.97996 17.1239 6.90749
121 6 2.27287 10.0802 4.95912
122 6 2.52729 19.1877 3.4457
123 6 0.39599 14.9569 7.83058
124 6 4.32056 14.2847 0.686764
125 4 0.125051 17.268 1.83091
126 4 4.57946 11.8758 6.53507
127 4 6.77447 12.4856 2.54385
128 4 7.00357 16.3939 5.97987
129 4 5.2275 16.3048 2.71384
130 4 8.50203 12.7884 5.67265
131 4 1.46189 11.396 1.41174
132 4 3.17307 17.7659 7.10464
133 1 4.47204 10.2145 12.276
134 1 0.852108 18.8842 13.3776
135 1 2.90687 15.0498 9.07481
136 1 2.41039 14.0427 16.5735
137 2 3.43219 18.373 11.7515
138 2 1.88272 10.7479 13.9394
139 2 3.93236 13.4216 9.6371
140 2 1.48571 15.653 15.956
141 2 2.11787 18.0579 12.0945
142 2 3.16145 11.1139 13.5843
143 2 5.16837 13.09 9.27163
144 2 9.17394 16.0157 16.4118
145 2 2.98985 16.5427 10.4036
146 2 2.41017 12.567 15.1664
147 2 4.64832 11.8231 10.9851
148 2 0.782886 17.4781 14.7853
149 5 5.96109 10.365 13.7856
150 5 8.50671 18.7741 11.8398
151 5 6.31244 15.3668 16.1776
152 5 8.07292 13.8611 9.44958
153 5 8.00935 10.0366 14.2822
154 5 6.34896 19.0732 11.3372
155 5 4.36027 14.9679 15.6624
156 5 1.18291 14.2344 10.0329
157 3 3.99881 17.3865 10.799
158 3 1.52833 11.6289 14.9502
159 3 3.64694 12.6427 10.6464
160 3 1.72527 16.5237 15.0606
161 3 1.90857 16.9613 11.2351
162 3 3.42807 12.1913 14.3955
163 3 5.48614 12.063 10.0321
164 3 8.86089 17.0897 15.6496
165 6 7.03424 9.91062 13.556
166 6 7.3162 19.0617 12.1134
167 6 5.29219 14.8357 16.3825
168 6 9.17721 14.383 9.25786
169 4 4.96713 17.3414 10.2205
170 4 0.640586 11.7113 15.5399
171 4 2.96274 12.8701 11.3791
172 4 2.76453 16.6336 14.6703
173 4 1.0224 16.3291 11.4399
174 4 4.2644 12.7645 14.2101
175 4 6.4588 11.4865 9.91245
176 4 7.95562 17.5429 15.6365
177 7 7.38509 13.3783 14.393
178 8 6.8653 13.0917 15.1557
179 8 6.69857 13.2088 13.7303
180 7 6.92229 15.6163 12.5166
181 8 6.89174 16.5459 12.7713
182 8 7.86632 15.4114 12.4103
183 7 5.32372 4.87497 12.9137
184 8 4.3604 4.99491 13.0401
185 8 5.58513 5.80731 13.0064
186 7 7.18258 5.33414 11.4988
187 8 7.47008 5.44606 12.3973
188 8 8.77468 4.56833 11.3747
189 7 2.9327 4.89668 4.43517
190 8 2.66049 5.84064 4.4028
191 8 2.20945 4.62551 3.81071
192 7 4.64994 2.82889 4.13229
193 8 4.56796 2.69469 3.17697
194 8 5.2806 3.54575 4.32401
195 9 3.07117 9.67632 9.78023
196 10 3.16109 8.96428 8.81391
197 10 2.55097 10.3806 10.6348
198 9 9.0033 11.7215 10.5804
199 10 8.40656 11.4308 11.51
200 10 0.777891 11.8181 9.69461
201 9 7.21812 6.86385 9.91313
202 10 7.41968 6.42226 8.9213
203 10 7.02481 7.4033 10.8842
204 9 1.77165 10.6774 7.83222
205 10 1.10009 9.81637 7.42531
206 10 2.61428 11.2526 8.36334
207 9 6.31122 9.132 7.32519
208 10 7.16966 9.03503 6.49779
209 10 5.73802 8.76891 8.25954
210 9 9.11628 7.89396 6.99114
211 10 0.919061 7.48835 6.17519
212 10 8.34425 7.98802 7.89625
ITEM: TIMESTEP
42
ITEM: NUMBER OF ATOMS
212
ITEM: BOX BOUNDS xy xz yz pp pp pp
-3.0874038238457580e-02 9.5794246597813881e+00 0.0000000000000000e+00
-6.7149244779164619e-02 1.9454148344779178e+01 6.3475042154291628e-01
-5.9099148963767334e-02 1.7121914248963776e+01 0.0000000000000000e+00
ITEM: ATOMS id type x y z
1 1 8.71935 0.463315 3.69115
2 1 4.99232 9.17957 4.75959
3 1 7.08006 5.37199 0.42331
4 1 6.61417 4.26645 8.03291
5 2 7.72728 8.62292 3.11833
6 2 6.1072 1.02372 5.42137
7 2 8.11668 3.67716 1.05788
8 2 5.56791 5.90483 7.3394
9 2 6.49196 8.21105 3.54843
10 2 7.40081 1.44931 4.89721
11 2 0.418612 3.3786 0.695304
12 2 4.34657 6.2665 7.86217
13 2 7.11034 6.81117 1.9355
14 2 6.61115 2.76265 6.65921
15 2 8.75331 1.90536 2.3273
16 2 4.84532 7.63778 5.95648
17 5 1.08804 0.712591 5.22317
18 5 3.69028 8.96074 3.26496
19 5 1.51784 5.59566 7.56501
20 5 3.15165 4.08393 1.01045
21 5 3.179 0.252116 5.72915
22 5 1.54933 9.40425 2.74437
23 5 8.54257 5.03179 7.09502
24 5 5.22665 4.53051 1.45106
25 3 8.09812 7.71131 2.18853
26 3 5.61407 1.83637 6.4211
27 3 7.73519 2.84508 2.06149
28 3 5.92813 6.76624 6.34605
29 3 6.17695 7.09861 2.82834
30 3 7.55505 2.42198 5.75486
31 3 0.736451 2.32275 1.47672
32 3 3.92328 7.35648 6.9588
33 6 2.22921 0.306344 4.999
34 6 2.5283 9.32925 3.51237
35 6 0.461907 5.15789 7.82518
36 6 4.28381 4.46084 0.685422
37 4 0.090629 7.56587 1.85
38 4 4.61241 1.81871 6.83723
39 4 6.6692 2.82089 2.41809
40 4 7.01795 6.92064 6.10771
41 4 5.14229 6.72981 2.75621
42 4 8.59564 2.70942 5.85858
43 4 1.72799 1.81463 1.41927
44 4 3.04528 7.89793 6.96321
45 1 4.54233 0.483358 12.312
46 1 0.873318 9.15597 13.3186
47 1 2.9685 5.29689 9.02588
48 1 2.43993 4.26587 16.5975
49 2 3.5747 8.44239 11.9319
50 2 1.74125 1.0198 13.816
51 2 3.97504 3.7856 9.72313
52 2 1.48059 5.95999 16.0164
53 2 2.15271 8.20816 11.9735
54 2 3.13296 1.25537 13.6472
55 2 5.29782 3.36598 9.27001
56 2 9.15302 6.34242 16.4347
57 2 2.90052 6.76892 10.4574
58 2 2.43436 2.87166 15.2766
59 2 4.49273 1.82805 10.8552
60 2 0.809026 7.62451 14.6506
61 5 5.81164 0.617049 13.7862
62 5 8.50455 9.10805 11.9793
63 5 6.32393 5.60237 16.2084
64 5 8.06434 3.97842 9.50461
65 5 7.90029 0.267026 14.2899
66 5 6.32686 9.49088 11.3173
67 5 4.2551 5.08703 15.691
68 5 1.10018 4.54513 10.049
69 3 4.13908 7.33038 11.2394
70 3 1.46924 1.90963 14.8599
71 3 3.53529 2.82057 10.5958
72 3 1.85172 6.86624 15.0648
73 3 1.88106 7.12192 11.2286
74 3 3.37159 2.44935 14.3392
75 3 5.55459 2.28524 10.0168
76 3 8.80575 7.33269 15.5611
77 6 6.94875 0.282255 13.524
78 6 7.2529 9.29576 12.2065
79 6 5.20404 5.23553 16.3995
80 6 9.15798 4.4668 9.27308
81 4 4.86068 7.61118 10.4061
82 4 9.47855 1.90612 15.371
83 4 2.73179 2.97797 11.2404
84 4 2.62304 6.71413 14.3253
85 4 0.864772 6.73473 11.115
86 4 4.48284 2.75547 14.4314
87 4 6.47512 1.75203 9.95417
88 4 7.75208 7.83774 15.6325
89 1 8.67346 10.2221 3.72645
90 1 5.03895 18.9085 4.72919
91 1 7.11008 15.089 0.481683
92 1 6.62105 14.0197 8.02607
93 2 7.75302 18.3874 3.13793
94 2 5.8888 11.0967 5.16274
95 2 8.10878 13.4235 0.986314
96 2 5.57115 15.6739 7.31441
97 2 6.40144 18.087 3.43322
98 2 7.33197 11.2696 4.91314
99 2 0.424586 13.0686 0.674998
100 2 4.34753 16.1724 7.79483
101 2 7.13644 16.591 1.80159
102 2 6.66773 12.5733 6.58842
103 2 8.60668 11.6914 2.37733
104 2 5.00374 17.4281 6.14136
105 5 1.15341 10.4676 5.13425
106 5 3.63886 18.8268 3.24056
107 5 1.54009 15.32 7.57049
108 5 3.22984 13.8798 0.916925
109 5 3.14403 10.0276 5.82168
110 5 1.52368 19.1156 2.69373
111 5 8.41277 14.8794 7.02649
112 5 5.25376 14.2886 1.45022
113 3 8.09386 17.5039 2.1431
114 3 5.68089 11.6812 6.31846
115 3 7.70881 12.606 2.05707
116 3 5.92376 16.4542 6.39295
117 3 6.15675 16.8929 2.73055
118 3 7.72605 12.2334 5.80029
119 3 0.630858 11.9972 1.52761
120 3 3.97842 17.1259 6.90607
121 6 2.27302 10.0816 4.95726
122 6 2.52433 19.1927 3.44467
123 6 0.395994 14.961 7.82886
124 6 4.32163 14.287 0.68429
125 4 0.124785 17.2678 1.83692
126 4 4.58217 11.8896 6.53237
127 4 6.77288 12.4891 2.53569
128 4 7.00172 16.402 5.9742
129 4 5.22627 16.3133 2.71912
130 4 8.50167 12.7912 5.66938
131 4 1.45542 11.3927 1.40996
132 4 3.17776 17.7741 7.10488
133 1 4.47122 10.214 12.2766
134 1 0.850696 18.8863 13.3794
135 1 2.90546 15.0495 9.07532
136 1 2.40955 14.0442 16.5751
137 2 3.4314 18.3758 11.7523
138 2 1.88231 10.7462 13.941
139 2 3.93139 13.4237 9.63694
140 2 1.48417 15.6521 15.9594
141 2 2.11417 18.0607 12.0955
142 2 3.16226 11.1134 13.5857
143 2 5.16923 13.0908 9.2704
144 2 9.17645 16.0162 16.4148
145 2 2.99 16.5427 10.4034
146 2 2.40942 12.57 15.1687
147 2 4.6523 11.8255 10.9891
148 2 0.78162 17.4814 14.7873
149 5 5.9634 10.3634 13.787
150 5 8.50716 18.7785 11.8403
151 5 6.3119 15.3698 16.1801
152 5 8.07769 13.8638 9.4487
153 5 8.00945 10.0371 14.2819
154 5 6.35099 19.0741 11.3392
155 5 4.36278 14.971 15.6655
156 5 1.18253 14.2365 10.0322
157 3 3.99833 17.3865 10.8017
158 3 1.5289 11.6288 14.9526
159 3 3.64921 12.6452 10.6485
160 3 1.72261 16.5278 15.0606
161 3 1.90813 16.9645 11.2348
162 3 3.42787 12.1903 14.3966
163 3 5.48584 12.0635 10.0318
164 3 8.86206 17.0921 15.6528
165 6 7.0344 9.90889 13.559
166 6 7.31728 19.0624 12.1139
167 6 5.29298 14.8353 16.3854
168 6 9.17723 14.3863 9.25983
169 4 4.96802 17.3453 10.2271
170 4 0.640001 11.7083 15.5383
171 4 2.97275 12.8779 11.3843
172 4 2.76302 16.6389 14.6748
173 4 1.02604 16.3285 11.439
174 4 4.25844 12.7707 14.2125
175 4 6.45854 11.4875 9.9093
176 4 7.95536 17.5414 15.6432
177 7 7.38782 13.3786 14.3944
178 8 6.86742 13.0942 15.1632
179 8 6.69681 13.2181 13.7348
180 7 6.92307 15.6169 12.518
181 8 6.89391 16.5521 12.7734
182 8 7.86449 15.4208 12.4078
183 7 5.32294 4.87301 12.9142
184 8 4.35988 4.98921 13.0459
185 8 5.58397 5.80722 12.9935
186 7 7.18654 5.32082 11.506
187 8 7.45815 5.44175 12.4137
188 8 8.78767 4.52508 11.3918
189 7 2.92977 4.89822 4.43231
190 8 2.6585 5.83925 4.40966
191 8 2.21753 4.61725 3.80545
192 7 4.64973 2.82744 4.12943
193 8 4.5772 2.69267 3.1734
194 8 5.27991 3.54381 4.31401
195 9 3.07092 9.67792 9.77458
196 10 3.15616 8.97339 8.80632
197 10 2.54603 10.3794 10.6344
198 9 9.0043 11.7228 10.5796
199 10 8.40888 11.4358 11.5113
200 10 0.776411 11.8132 9.69378
201 9 7.21741 6.8683 9.91101
202 10 7.42192 6.42653 8.9212
203 10 7.02266 7.4056 10.8788
204 9 1.77117 10.6803 7.82989
205 10 1.09941 9.8163 7.42637
206 10 2.61559 11.2529 8.3608
207 9 6.31277 9.13513 7.32933
208 10 7.17612 9.02922 6.50193
209 10 5.74068 8.77242 8.26448
210 9 9.11806 7.8958 6.99063
211 10 0.916599 7.48965 6.17354
212 10 8.34768 7.98767 7.89711
ITEM: TIMESTEP
43
ITEM: NUMBER OF ATOMS
212
ITEM: BOX BOUNDS xy xz yz pp pp pp
-3.2058373284097996e-02 9.5807765070828381e+00 0.0000000000000000e+00
-6.9725104900410173e-02 1.9456724204900421e+01 6.3491793379872763e-01
-6.1366205600307921e-02 1.7124181305600317e+01 0.0000000000000000e+00
ITEM: ATOMS id type x y z
1 1 8.72136 0.460482 3.68944
2 1 4.99145 9.18032 4.75849
3 1 7.07982 5.37101 0.420276
4 1 6.61521 4.26507 8.03344
5 2 7.72936 8.62416 3.11737
6 2 6.11146 1.01939 5.42092
7 2 8.11701 3.67627 1.05564
8 2 5.56635 5.90191 7.33687
9 2 6.49283 8.21023 3.54872
10 2 7.40113 1.44682 4.89519
11 2 0.418841 3.37754 0.69292
12 2 4.34497 6.26727 7.862
13 2 7.11177 6.80819 1.93391
14 2 6.61039 2.76089 6.66121
15 2 8.75427 1.90187 2.32673
16 2 4.84116 7.63555 5.94995
17 5 1.08891 0.710536 5.22309
18 5 3.68902 8.96125 3.26333
19 5 1.51556 5.5946 7.56508
20 5 3.15231 4.08327 1.01058
21 5 3.17821 0.24964 5.72875
22 5 1.55 9.40472 2.74377
23 5 8.5454 5.0278 7.09436
24 5 5.22491 4.53004 1.44899
25 3 8.09894 7.71046 2.18793
26 3 5.61582 1.83339 6.42296
27 3 7.7378 2.84262 2.06001
28 3 5.92499 6.76451 6.34255
29 3 6.17873 7.09725 2.83036
30 3 7.5566 2.41978 5.7531
31 3 0.735917 2.32124 1.47504
32 3 3.92227 7.35269 6.95734
33 6 2.22579 0.304768 4.99537
34 6 2.5296 9.32812 3.51156
35 6 0.464794 5.15627 7.82841
36 6 4.28153 4.45907 0.682469
37 4 0.089067 7.55806 1.8513
38 4 4.61401 1.82018 6.83936
39 4 6.673 2.8092 2.41794
40 4 7.01276 6.9199 6.10579
41 4 5.1452 6.72943 2.75445
42 4 8.59447 2.70939 5.86711
43 4 1.72723 1.8147 1.41586
44 4 3.04239 7.89379 6.95424
45 1 4.54299 0.480873 12.3133
46 1 0.872444 9.15611 13.3191
47 1 2.96851 5.29421 9.02535
48 1 2.43972 4.26457 16.5998
49 2 3.57618 8.43618 11.9395
50 2 1.7395 1.01681 13.8148
51 2 3.97771 3.78587 9.72393
52 2 1.47977 5.95895 16.0193
53 2 2.15043 8.20766 11.9738
54 2 3.13187 1.25032 13.6499
55 2 5.29805 3.36643 9.26934
56 2 9.15479 6.34268 16.4378
57 2 2.90231 6.7657 10.4597
58 2 2.4333 2.87066 15.279
59 2 4.4927 1.8242 10.8539
60 2 0.806732 7.62422 14.6496
61 5 5.81072 0.613079 13.7876
62 5 8.505 9.11126 11.983
63 5 6.3229 5.60261 16.2105
64 5 8.06893 3.97415 9.50491
65 5 7.89756 0.265023 14.2899
66 5 6.32777 9.49577 11.32
67 5 4.25508 5.0851 15.6936
68 5 1.09849 4.54501 10.0496
69 3 4.14114 7.31852 11.2502
70 3 1.46908 1.90921 14.8614
71 3 3.53557 2.81671 10.5965
72 3 1.85129 6.86821 15.0665
73 3 1.87902 7.11976 11.2277
74 3 3.36994 2.44718 14.3407
75 3 5.55388 2.28066 10.019
76 3 8.80678 7.3316 15.563
77 6 6.94851 0.280079 13.5247
78 6 7.25323 9.29447 12.2097
79 6 5.20395 5.23509 16.4059
80 6 9.159 4.46413 9.2724
81 4 4.85676 7.60612 10.4238
82 4 9.47956 1.9053 15.3691
83 4 2.73466 2.97756 11.2434
84 4 2.6193 6.70897 14.3271
85 4 0.860531 6.73951 11.1097
86 4 4.48001 2.74942 14.4373
87 4 6.47755 1.75323 9.94692
88 4 7.75546 7.83858 15.63
89 1 8.67438 10.2218 3.72554
90 1 5.03913 18.9111 4.72744
91 1 7.11054 15.0897 0.479822
92 1 6.62213 14.0208 8.02638
93 2 7.7545 18.3912 3.13746
94 2 5.88764 11.1035 5.15523
95 2 8.10886 13.4243 0.983291
96 2 5.56937 15.6736 7.31386
97 2 6.40144 18.0911 3.43102
98 2 7.33231 11.2728 4.91038
99 2 0.424299 13.0684 0.672426
100 2 4.3476 16.1761 7.79494
101 2 7.1374 16.5923 1.79925
102 2 6.66939 12.576 6.58845
103 2 8.60611 11.69 2.37773
104 2 5.00453 17.4317 6.13859
105 5 1.15454 10.469 5.13073
106 5 3.63876 18.8315 3.23761
107 5 1.53693 15.321 7.57039
108 5 3.23066 13.8819 0.915509
109 5 3.14177 10.0279 5.82144
110 5 1.5245 19.1176 2.69241
111 5 8.41494 14.8803 7.02755
112 5 5.25235 14.2905 1.44803
113 3 8.09472 17.5052 2.14032
114 3 5.68162 11.6835 6.31776
115 3 7.70989 12.6063 2.05595
116 3 5.92273 16.4553 6.39027
117 3 6.1598 16.8936 2.72788
118 3 7.72872 12.2341 5.8001
119 3 0.62797 11.9973 1.52634
120 3 3.97691 17.1279 6.90469
121 6 2.27322 10.083 4.95531
122 6 2.52126 19.1978 3.44377
123 6 0.395979 14.9651 7.82713
124 6 4.32276 14.2894 0.681717
125 4 0.124674 17.2679 1.84298
126 4 4.58553 11.9035 6.52972
127 4 6.77081 12.4928 2.52737
128 4 6.99904 16.4103 5.9687
129 4 5.22502 16.3222 2.72453
130 4 8.50246 12.7949 5.66587
131 4 1.44949 11.3892 1.4081
132 4 3.18218 17.7827 7.10522
133 1 4.47041 10.2134 12.2772
134 1 0.849267 18.8883 13.3811
135 1 2.90406 15.0493 9.07582
136 1 2.40871 14.0458 16.5768
137 2 3.43067 18.3785 11.7531
138 2 1.88189 10.7445 13.9426
139 2 3.9304 13.4259 9.63679
140 2 1.48254 15.6511 15.9629
141 2 2.11052 18.0635 12.0965
142 2 3.16305 11.113 13.5871
143 2 5.17016 13.0916 9.26915
144 2 9.17899 16.0168 16.4177
145 2 2.9901 16.5427 10.4031
146 2 2.40869 12.573 15.1711
147 2 4.65625 11.8278 10.9931
148 2 0.780404 17.4847 14.7892
149 5 5.96566 10.3619 13.7884
150 5 8.50758 18.7829 11.8409
151 5 6.31142 15.3728 16.1826
152 5 8.08247 13.8666 9.44784
153 5 8.00957 10.0376 14.2815
154 5 6.35305 19.0751 11.3413
155 5 4.36523 14.9741 15.6685
156 5 1.18212 14.2387 10.0313
157 3 3.99774 17.3866 10.8045
158 3 1.52945 11.6287 14.955
159 3 3.65152 12.6477 10.6506
160 3 1.72004 16.5319 15.0605
161 3 1.90772 16.9678 11.2345
162 3 3.42766 12.1892 14.3976
163 3 5.48566 12.0639 10.0315
164 3 8.86324 17.0945 15.656
165 6 7.0346 9.90716 13.5619
166 6 7.31833 19.0632 12.1144
167 6 5.2937 14.8347 16.3884
168 6 9.17725 14.3897 9.26183
169 4 4.96863 17.3496 10.2341
170 4 0.638985 11.705 15.5366
171 4 2.98213 12.886 11.3898
172 4 2.76119 16.6443 14.6794
173 4 1.02987 16.328 11.4378
174 4 4.25297 12.7773 14.2149
175 4 6.45778 11.4889 9.90623
176 4 7.95429 17.5402 15.6502
177 7 7.39054 13.379 14.3958
178 8 6.86982 13.0968 15.1706
179 8 6.69533 13.2275 13.7392
180 7 6.92387 15.6175 12.5194
181 8 6.89612 16.5582 12.7754
182 8 7.86247 15.4302 12.4053
183 7 5.32212 4.87105 12.9146
184 8 4.35958 4.98335 13.0517
185 8 5.5828 5.80697 12.9807
186 7 7.19062 5.30741 11.5132
187 8 7.4462 5.43748 12.4302
188 8 8.7992 4.48262 11.4088
189 7 2.9268 4.89978 4.42942
190 8 2.65676 5.83768 4.41674
191 8 2.22604 4.6088 3.80048
192 7 4.64951 2.82598 4.12652
193 8 4.5865 2.69087 3.17002
194 8 5.27898 3.54165 4.3038
195 9 3.07052 9.67954 9.76895
196 10 3.15126 8.98255 8.79886
197 10 2.54114 10.378 10.6339
198 9 9.00538 11.724 10.5788
199 10 8.41118 11.4409 11.5127
200 10 0.774893 11.8083 9.69295
201 9 7.21669 6.87276 9.90897
202 10 7.42417 6.43075 8.92104
203 10 7.02053 7.40776 10.8733
204 9 1.77069 10.6832 7.82756
205 10 1.09868 9.81627 7.42749
206 10 2.6169 11.2533 8.35821
207 9 6.31445 9.13817 7.33341
208 10 7.18248 9.02355 6.50607
209 10 5.74332 8.77599 8.26945
210 9 9.11988 7.89753 6.99016
211 10 0.914062 7.49101 6.17189
212 10 8.35123 7.98733 7.89792
ITEM: TIMESTEP
44
ITEM: NUMBER OF ATOMS
212
ITEM: BOX BOUNDS xy xz yz pp pp pp
-3.3253013918749019e-02 9.5821401175950012e+00 0.0000000000000000e+00
-7.2323379080799555e-02 1.9459322479080811e+01 6.3508690367623910e-01
-6.3652989217018785e-02 1.7126468089217028e+01 0.0000000000000000e+00
ITEM: ATOMS id type x y z
1 1 8.72338 0.457632 3.68771
2 1 4.99058 9.18107 4.75737
3 1 7.07959 5.37001 0.417232
4 1 6.61625 4.26368 8.03396
5 2 7.73146 8.6254 3.11642
6 2 6.11576 1.015 5.42042
7 2 8.11731 3.67542 1.05337
8 2 5.56476 5.89895 7.33433
9 2 6.49366 8.20941 3.54899
10 2 7.40133 1.44424 4.89325
11 2 0.419083 3.37646 0.690533
12 2 4.34331 6.26813 7.8617
13 2 7.11324 6.80515 1.93226
14 2 6.60959 2.75912 6.66323
15 2 8.75517 1.89837 2.32615
16 2 4.83708 7.63329 5.94347
17 5 1.08978 0.708453 5.22303
18 5 3.68773 8.96176 3.26167
19 5 1.51334 5.59351 7.56516
20 5 3.15299 4.08262 1.01067
21 5 3.17744 0.247144 5.72837
22 5 1.55069 9.40517 2.74316
23 5 8.54818 5.0238 7.09362
24 5 5.22319 4.52956 1.4469
25 3 8.09969 7.7096 2.18733
26 3 5.61767 1.83042 6.42479
27 3 7.74045 2.84012 2.05853
28 3 5.92178 6.76277 6.33902
29 3 6.18047 7.09592 2.83237
30 3 7.55824 2.41762 5.75135
31 3 0.735413 2.31969 1.47335
32 3 3.92137 7.34876 6.95587
33 6 2.22237 0.303114 4.99158
34 6 2.53087 9.32705 3.51081
35 6 0.467629 5.15454 7.83177
36 6 4.27928 4.45734 0.679438
37 4 0.0880661 7.55027 1.85241
38 4 4.61562 1.82166 6.84151
39 4 6.67728 2.79735 2.41771
40 4 7.00704 6.91866 6.10364
41 4 5.14825 6.72903 2.75275
42 4 8.59328 2.70961 5.87572
43 4 1.72617 1.8149 1.41243
44 4 3.03897 7.88953 6.94528
45 1 4.54365 0.478362 12.3145
46 1 0.871555 9.15626 13.3195
47 1 2.96851 5.29153 9.02482
48 1 2.43951 4.26326 16.6021
49 2 3.57763 8.42987 11.947
50 2 1.73783 1.01383 13.8136
51 2 3.98043 3.78609 9.7247
52 2 1.47889 5.9579 16.0221
53 2 2.14822 8.20715 11.9743
54 2 3.13072 1.24531 13.6525
55 2 5.29818 3.36689 9.2687
56 2 9.15658 6.34291 16.4408
57 2 2.90429 6.76246 10.4622
58 2 2.43222 2.86957 15.2814
59 2 4.49268 1.82039 10.8525
60 2 0.804427 7.62397 14.6485
61 5 5.8098 0.609089 13.7891
62 5 8.50539 9.11444 11.9867
63 5 6.32189 5.60286 16.2127
64 5 8.07353 3.96983 9.50521
65 5 7.89485 0.263005 14.2899
66 5 6.32872 9.50073 11.3227
67 5 4.25504 5.08318 15.6962
68 5 1.09681 4.54487 10.0503
69 3 4.14294 7.30674 11.2609
70 3 1.4689 1.90881 14.8628
71 3 3.53592 2.81282 10.5971
72 3 1.85083 6.87016 15.0683
73 3 1.87696 7.1176 11.2268
74 3 3.36837 2.44499 14.3423
75 3 5.55312 2.27603 10.0212
76 3 8.80777 7.33053 15.5649
77 6 6.94834 0.277826 13.5254
78 6 7.2536 9.29327 12.213
79 6 5.2038 5.23452 16.4125
80 6 9.16008 4.46146 9.27165
81 4 4.8526 7.60091 10.4421
82 4 9.48058 1.90447 15.3672
83 4 2.73708 2.97717 11.2466
84 4 2.61577 6.70359 14.329
85 4 0.85633 6.74444 11.1042
86 4 4.47641 2.74326 14.4432
87 4 6.48016 1.75425 9.9396
88 4 7.75973 7.83907 15.6274
89 1 8.67531 10.2215 3.72462
90 1 5.03931 18.9137 4.72568
91 1 7.11102 15.0903 0.477938
92 1 6.6232 14.0219 8.02669
93 2 7.75593 18.395 3.13698
94 2 5.88664 11.1102 5.14771
95 2 8.10891 13.4251 0.980309
96 2 5.56755 15.6732 7.3134
97 2 6.40147 18.0951 3.42878
98 2 7.33257 11.2759 4.90767
99 2 0.423989 13.0682 0.669864
100 2 4.34765 16.1797 7.79503
101 2 7.13836 16.5936 1.79694
102 2 6.67104 12.5789 6.58851
103 2 8.60557 11.6885 2.3781
104 2 5.00536 17.4352 6.13577
105 5 1.15563 10.4705 5.12719
106 5 3.63868 18.8362 3.2346
107 5 1.53375 15.322 7.57027
108 5 3.23144 13.884 0.914094
109 5 3.13954 10.0281 5.82114
110 5 1.52535 19.1197 2.6911
111 5 8.41715 14.8811 7.02863
112 5 5.25095 14.2924 1.44583
113 3 8.09558 17.5065 2.1375
114 3 5.68229 11.6858 6.31703
115 3 7.71102 12.6067 2.05476
116 3 5.92179 16.4564 6.38749
117 3 6.16287 16.8944 2.72518
118 3 7.73125 12.2347 5.7999
119 3 0.62506 11.9974 1.52502
120 3 3.97541 17.1299 6.90336
121 6 2.27345 10.0843 4.95326
122 6 2.51807 19.203 3.44297
123 6 0.395937 14.9692 7.82539
124 6 4.32395 14.2918 0.679045
125 4 0.124721 17.2681 1.84907
126 4 4.58953 11.9175 6.52713
127 4 6.76825 12.4968 2.51891
128 4 6.99553 16.4188 5.96339
129 4 5.22375 16.3314 2.73004
130 4 8.5044 12.7993 5.66214
131 4 1.44409 11.3852 1.40614
132 4 3.18631 17.7916 7.10568
133 1 4.4696 10.2129 12.2779
134 1 0.847822 18.8904 13.3829
135 1 2.90266 15.0491 9.07632
136 1 2.40787 14.0474 16.5785
137 2 3.43002 18.3813 11.7539
138 2 1.88146 10.7429 13.9443
139 2 3.92939 13.4282 9.63664
140 2 1.48083 15.6501 15.9665
141 2 2.10693 18.0663 12.0975
142 2 3.16384 11.1125 13.5886
143 2 5.17114 13.0924 9.26787
144 2 9.18154 16.0174 16.4207
145 2 2.99016 16.5427 10.403
146 2 2.40799 12.5762 15.1735
147 2 4.66016 11.8301 10.9971
148 2 0.779236 17.488 14.7911
149 5 5.96787 10.3604 13.7899
150 5 8.50795 18.7874 11.8415
151 5 6.311 15.3759 16.1851
152 5 8.08726 13.8694 9.44701
153 5 8.00971 10.0382 14.2812
154 5 6.35513 19.0761 11.3434
155 5 4.36762 14.9771 15.6715
156 5 1.18167 14.2409 10.0305
157 3 3.99705 17.3868 10.8073
158 3 1.52999 11.6286 14.9574
159 3 3.65387 12.6502 10.6527
160 3 1.71754 16.5361 15.0604
161 3 1.90732 16.9711 11.2342
162 3 3.42741 12.188 14.3987
163 3 5.48558 12.0643 10.0311
164 3 8.86443 17.0969 15.6592
165 6 7.03483 9.90541 13.5649
166 6 7.31935 19.0641 12.1149
167 6 5.29437 14.8342 16.3916
168 6 9.17729 14.393 9.26385
169 4 4.96896 17.3543 10.2416
170 4 0.637535 11.7014 15.5347
171 4 2.99089 12.8945 11.3956
172 4 2.75905 16.6497 14.684
173 4 1.03387 16.3276 11.4366
174 4 4.248 12.7844 14.2172
175 4 6.45654 11.4907 9.90324
176 4 7.95241 17.5393 15.6574
177 7 7.39323 13.3793 14.3973
178 8 6.87251 13.0995 15.178
179 8 6.69412 13.237 13.7435
180 7 6.92468 15.6181 12.5208
181 8 6.89834 16.5639 12.7773
182 8 7.86033 15.4395 12.403
183 7 5.32127 4.8691 12.9151
184 8 4.35949 4.97737 13.0575
185 8 5.5816 5.80654 12.9679
186 7 7.1948 5.29391 11.5205
187 8 7.4342 5.43324 12.4467
188 8 8.80931 4.44097 11.4257
189 7 2.92379 4.90134 4.42648
190 8 2.65522 5.83598 4.42401
191 8 2.23493 4.60018 3.79577
192 7 4.64927 2.82453 4.12357
193 8 4.59585 2.68926 3.16683
194 8 5.27782 3.53931 4.29344
195 9 3.06997 9.68117 9.76335
196 10 3.14639 8.99174 8.79155
197 10 2.5363 10.3766 10.6333
198 9 9.00651 11.7252 10.5779
199 10 8.41348 11.4461 11.514
200 10 0.773341 11.8034 9.69212
201 9 7.21596 6.87723 9.907
202 10 7.42641 6.4349 8.9208
203 10 7.01841 7.40978 10.8679
204 9 1.77022 10.686 7.82522
205 10 1.09792 9.81627 7.42867
206 10 2.61821 11.2538 8.35557
207 9 6.31627 9.14114 7.33742
208 10 7.18876 9.018 6.5102
209 10 5.74595 8.7796 8.27445
210 9 9.12172 7.89916 6.98971
211 10 0.911451 7.49243 6.17024
212 10 8.35489 7.987 7.89867
ITEM: TIMESTEP
45
ITEM: NUMBER OF ATOMS
212
ITEM: BOX BOUNDS xy xz yz pp pp pp
-3.4457492157408787e-02 9.5835149571411122e+00 0.0000000000000000e+00
-7.4943049480062029e-02 1.9461942149480073e+01 6.3525726498368873e-01
-6.5958603996024934e-02 1.7128773703996035e+01 0.0000000000000000e+00
ITEM: ATOMS id type x y z
1 1 8.72542 0.454766 3.68598
2 1 4.98972 9.18183 4.75625
3 1 7.07937 5.36901 0.414179
4 1 6.61731 4.26227 8.03449
5 2 7.73357 8.62664 3.11548
6 2 6.1201 1.01055 5.41988
7 2 8.1176 3.6746 1.05108
8 2 5.56316 5.89593 7.3318
9 2 6.49446 8.2086 3.54922
10 2 7.4014 1.44157 4.89138
11 2 0.419333 3.37534 0.688144
12 2 4.34158 6.26907 7.86127
13 2 7.11475 6.80206 1.93057
14 2 6.60875 2.75735 6.66527
15 2 8.75601 1.89486 2.32556
16 2 4.83308 7.63099 5.93706
17 5 1.09065 0.706346 5.22297
18 5 3.6864 8.96228 3.25998
19 5 1.51119 5.59241 7.56524
20 5 3.15367 4.08196 1.01072
21 5 3.17667 0.244631 5.728
22 5 1.5514 9.40561 2.74255
23 5 8.55093 5.01977 7.09279
24 5 5.22147 4.52906 1.4448
25 3 8.10038 7.70874 2.18672
26 3 5.61963 1.82743 6.42658
27 3 7.74314 2.83756 2.05703
28 3 5.91849 6.76102 6.33546
29 3 6.1822 7.09461 2.83437
30 3 7.55997 2.41551 5.7496
31 3 0.734938 2.31809 1.47165
32 3 3.9206 7.34469 6.95436
33 6 2.21896 0.301381 4.98763
34 6 2.53211 9.32603 3.51011
35 6 0.470398 5.1527 7.83523
36 6 4.27707 4.45566 0.676335
37 4 0.0876193 7.54251 1.85336
38 4 4.61724 1.82313 6.84368
39 4 6.68203 2.78535 2.41738
40 4 7.00083 6.91693 6.10124
41 4 5.15143 6.72862 2.75111
42 4 8.59207 2.71007 5.88439
43 4 1.72483 1.81521 1.40896
44 4 3.03506 7.88515 6.93637
45 1 4.5443 0.475827 12.3158
46 1 0.870651 9.1564 13.32
47 1 2.96852 5.28884 9.0243
48 1 2.43929 4.26194 16.6044
49 2 3.57903 8.42345 11.9545
50 2 1.73624 1.01086 13.8125
51 2 3.98322 3.78625 9.72543
52 2 1.47795 5.95683 16.025
53 2 2.1461 8.20664 11.9748
54 2 3.12951 1.24034 13.6552
55 2 5.29822 3.36736 9.2681
56 2 9.15841 6.34311 16.4438
57 2 2.90647 6.7592 10.4647
58 2 2.43111 2.86839 15.2837
59 2 4.49269 1.81663 10.8511
60 2 0.802111 7.62376 14.6476
61 5 5.80889 0.60508 13.7905
62 5 8.50571 9.11758 11.9904
63 5 6.32092 5.60313 16.2148
64 5 8.07815 3.96548 9.5055
65 5 7.89216 0.260973 14.29
66 5 6.3297 9.50577 11.3256
67 5 4.25499 5.08126 15.6988
68 5 1.09514 4.54471 10.051
69 3 4.14447 7.29503 11.2713
70 3 1.46873 1.9084 14.8644
71 3 3.53636 2.80888 10.5978
72 3 1.85034 6.8721 15.07
73 3 1.87486 7.11545 11.226
74 3 3.36688 2.44276 14.344
75 3 5.5523 2.27137 10.0235
76 3 8.80872 7.32948 15.5668
77 6 6.94826 0.275496 13.5261
78 6 7.254 9.29217 12.2162
79 6 5.20357 5.23384 16.4192
80 6 9.16121 4.45881 9.27084
81 4 4.84827 7.59557 10.4609
82 4 9.4816 1.90365 15.3651
83 4 2.73907 2.97679 11.2501
84 4 2.61247 6.69802 14.3311
85 4 0.852175 6.74952 11.0986
86 4 4.47207 2.73698 14.4492
87 4 6.48294 1.75508 9.93223
88 4 7.76484 7.83922 15.6247
89 1 8.67625 10.2212 3.72369
90 1 5.03949 18.9163 4.72391
91 1 7.1115 15.091 0.476033
92 1 6.62428 14.0229 8.027
93 2 7.75732 18.3988 3.13647
94 2 5.88579 11.1167 5.14018
95 2 8.10895 13.4259 0.977371
96 2 5.56568 15.6728 7.31302
97 2 6.40155 18.0991 3.4265
98 2 7.33275 11.2791 4.90499
99 2 0.423651 13.068 0.667311
100 2 4.3477 16.1833 7.7951
101 2 7.13932 16.595 1.79466
102 2 6.6727 12.5818 6.58858
103 2 8.60507 11.687 2.37845
104 2 5.00623 17.4389 6.1329
105 5 1.1567 10.4719 5.12363
106 5 3.63862 18.8409 3.23155
107 5 1.53057 15.323 7.57012
108 5 3.23218 13.8862 0.912681
109 5 3.13732 10.0283 5.82079
110 5 1.52622 19.1218 2.68979
111 5 8.4194 14.882 7.02973
112 5 5.24958 14.2943 1.44364
113 3 8.09643 17.5078 2.13467
114 3 5.68288 11.6883 6.31629
115 3 7.71219 12.6071 2.05353
116 3 5.92094 16.4577 6.38464
117 3 6.16595 16.8953 2.72244
118 3 7.73365 12.2352 5.79969
119 3 0.62213 11.9976 1.52366
120 3 3.97394 17.1319 6.90205
121 6 2.27372 10.0855 4.95112
122 6 2.51479 19.2082 3.44228
123 6 0.395864 14.9733 7.82365
124 6 4.32519 14.2942 0.676276
125 4 0.124929 17.2685 1.85518
126 4 4.59414 11.9314 6.5246
127 4 6.76521 12.5011 2.51033
128 4 6.99124 16.4275 5.95827
129 4 5.22246 16.3408 2.73561
130 4 8.50745 12.8045 5.65818
131 4 1.43924 11.381 1.40409
132 4 3.19017 17.8008 7.10626
133 1 4.46881 10.2123 12.2785
134 1 0.846361 18.8926 13.3847
135 1 2.90126 15.0489 9.07681
136 1 2.40704 14.049 16.5802
137 2 3.42943 18.384 11.7545
138 2 1.88101 10.7412 13.946
139 2 3.92838 13.4306 9.63649
140 2 1.47903 15.6491 15.9702
141 2 2.1034 18.069 12.0984
142 2 3.16461 11.1121 13.59
143 2 5.17217 13.0932 9.26657
144 2 9.18412 16.018 16.4236
145 2 2.99017 16.5428 10.4029
146 2 2.40732 12.5793 15.176
147 2 4.66403 11.8324 11.0012
148 2 0.778115 17.4914 14.7931
149 5 5.97004 10.3589 13.7914
150 5 8.5083 18.7918 11.842
151 5 6.31064 15.379 16.1876
152 5 8.09205 13.8722 9.4462
153 5 8.00987 10.0387 14.281
154 5 6.35723 19.077 11.3454
155 5 4.36995 14.9802 15.6744
156 5 1.18118 14.2432 10.0296
157 3 3.99625 17.387 10.8101
158 3 1.53053 11.6285 14.9597
159 3 3.65626 12.6527 10.6548
160 3 1.71513 16.5404 15.0602
161 3 1.90695 16.9744 11.2339
162 3 3.42714 12.1868 14.3997
163 3 5.48562 12.0646 10.0308
164 3 8.86564 17.0993 15.6625
165 6 7.03511 9.90366 13.5679
166 6 7.32036 19.065 12.1155
167 6 5.29498 14.8336 16.3948
168 6 9.17736 14.3963 9.26588
169 4 4.96902 17.3592 10.2494
170 4 0.635651 11.6976 15.5327
171 4 2.99902 12.9032 11.4018
172 4 2.7566 16.655 14.6887
173 4 1.03801 16.3273 11.4351
174 4 4.24352 12.7918 14.2194
175 4 6.45483 11.4929 9.90033
176 4 7.94976 17.5388 15.6647
177 7 7.3959 13.3797 14.3987
178 8 6.87554 13.1024 15.1852
179 8 6.69317 13.2466 13.7478
180 7 6.92549 15.6188 12.5222
181 8 6.90057 16.5692 12.7791
182 8 7.85815 15.4488 12.4006
183 7 5.32038 4.86716 12.9156
184 8 4.35959 4.97126 13.0634
185 8 5.58036 5.80595 12.9552
186 7 7.19911 5.28034 11.5278
187 8 7.42213 5.429 12.463
188 8 8.81806 4.40014 11.4425
189 7 2.92074 4.90291 4.42352
190 8 2.65384 5.83418 4.43147
191 8 2.24414 4.59141 3.79129
192 7 4.64902 2.82308 4.12057
193 8 4.60524 2.68784 3.16381
194 8 5.27646 3.53684 4.28294
195 9 3.06928 9.68282 9.75779
196 10 3.14156 9.00096 8.78436
197 10 2.53151 10.3751 10.6326
198 9 9.00772 11.7264 10.5771
199 10 8.41576 11.4514 11.5154
200 10 0.771754 11.7985 9.69128
201 9 7.21523 6.8817 9.90508
202 10 7.42866 6.43898 8.92049
203 10 7.0163 7.41169 10.8625
204 9 1.76974 10.6887 7.82288
205 10 1.09712 9.8163 7.4299
206 10 2.61952 11.2543 8.3529
207 9 6.31823 9.14403 7.34135
208 10 7.19493 9.01258 6.51433
209 10 5.74856 8.78327 8.27949
210 9 9.1236 7.90067 6.9893
211 10 0.908767 7.49392 6.16859
212 10 8.35867 7.98669 7.89937
ITEM: TIMESTEP
46
ITEM: NUMBER OF ATOMS
212
ITEM: BOX BOUNDS xy xz yz pp pp pp
-3.5671356058210257e-02 9.5849005098566789e+00 0.0000000000000000e+00
-7.7583133150811889e-02 1.9464582233150821e+01 6.3542895379845421e-01
-6.8282184829250525e-02 1.7131097284829259e+01 0.0000000000000000e+00
ITEM: ATOMS id type x y z
1 1 8.72746 0.451885 3.68423
2 1 4.98885 9.18258 4.75512
3 1 7.07915 5.36799 0.411118
4 1 6.61837 4.26086 8.03502
5 2 7.73569 8.62786 3.11454
6 2 6.12446 1.00605 5.4193
7 2 8.11788 3.67382 1.04876
8 2 5.56153 5.89287 7.32927
9 2 6.49522 8.20779 3.54943
10 2 7.40136 1.43882 4.88957
11 2 0.41959 3.3742 0.685755
12 2 4.33978 6.27007 7.86072
13 2 7.1163 6.79892 1.92882
14 2 6.60788 2.75558 6.66731
15 2 8.7568 1.89136 2.32495
16 2 4.82914 7.62866 5.93072
17 5 1.09152 0.704216 5.22292
18 5 3.68505 8.96279 3.25827
19 5 1.50912 5.5913 7.56533
20 5 3.15436 4.08129 1.01074
21 5 3.1759 0.2421 5.72765
22 5 1.55213 9.40604 2.74193
23 5 8.55365 5.01573 7.0919
24 5 5.21976 4.52855 1.44268
25 3 8.10102 7.70787 2.1861
26 3 5.6217 1.82445 6.42833
27 3 7.74587 2.83494 2.05552
28 3 5.91512 6.75927 6.33186
29 3 6.1839 7.09332 2.83635
30 3 7.56178 2.41343 5.74788
31 3 0.734489 2.31646 1.46994
32 3 3.91993 7.3405 6.95283
33 6 2.21556 0.299571 4.98354
34 6 2.5333 9.32506 3.50946
35 6 0.473086 5.15075 7.8388
36 6 4.2749 4.45403 0.673165
37 4 0.0877121 7.53481 1.85415
38 4 4.61887 1.8246 6.84585
39 4 6.68721 2.77323 2.41694
40 4 6.99415 6.91472 6.09858
41 4 5.15471 6.72819 2.74954
42 4 8.59087 2.71075 5.8931
43 4 1.72321 1.81562 1.40548
44 4 3.03066 7.88062 6.92755
45 1 4.54495 0.473268 12.3171
46 1 0.869732 9.15654 13.3204
47 1 2.96851 5.28615 9.02379
48 1 2.43907 4.26062 16.6068
49 2 3.58039 8.41693 11.962
50 2 1.73474 1.00791 13.8115
51 2 3.98607 3.78636 9.72614
52 2 1.47695 5.95574 16.0279
53 2 2.14405 8.20611 11.9753
54 2 3.12823 1.23543 13.6579
55 2 5.29816 3.36783 9.26753
56 2 9.16027 6.34328 16.4467
57 2 2.90883 6.75592 10.4674
58 2 2.42998 2.86712 15.286
59 2 4.49272 1.8129 10.8497
60 2 0.799786 7.62359 14.6466
61 5 5.80799 0.601052 13.792
62 5 8.50596 9.12067 11.994
63 5 6.31997 5.60341 16.2168
64 5 8.08278 3.96109 9.50577
65 5 7.88949 0.25893 14.2901
66 5 6.33071 9.51089 11.3285
67 5 4.25493 5.07936 15.7013
68 5 1.09348 4.54454 10.0517
69 3 4.14574 7.28341 11.2814
70 3 1.46855 1.90799 14.8659
71 3 3.53689 2.80492 10.5984
72 3 1.8498 6.87402 15.0717
73 3 1.87275 7.1133 11.2253
74 3 3.36546 2.44051 14.3457
75 3 5.55143 2.26667 10.0259
76 3 8.80965 7.32846 15.5688
77 6 6.94824 0.27309 13.5266
78 6 7.25445 9.29117 12.2194
79 6 5.20327 5.23303 16.4262
80 6 9.16241 4.45617 9.26997
81 4 4.84381 7.59009 10.4802
82 4 9.48262 1.90283 15.3629
83 4 2.74064 2.97643 11.2538
84 4 2.60938 6.69226 14.3332
85 4 0.848071 6.75474 11.0929
86 4 4.46704 2.73062 14.4552
87 4 6.48586 1.7557 9.92482
88 4 7.77077 7.83902 15.6218
89 1 8.6772 10.2209 3.72274
90 1 5.03966 18.919 4.72214
91 1 7.11199 15.0916 0.474106
92 1 6.62536 14.024 8.0273
93 2 7.75867 18.4026 3.13595
94 2 5.88511 11.1232 5.13264
95 2 8.10897 13.4267 0.974478
96 2 5.56376 15.6724 7.31273
97 2 6.40166 18.103 3.42419
98 2 7.33284 11.2822 4.90236
99 2 0.423284 13.0678 0.66477
100 2 4.34773 16.1869 7.79514
101 2 7.14027 16.5963 1.79241
102 2 6.67436 12.5847 6.58868
103 2 8.60461 11.6854 2.37879
104 2 5.00712 17.4426 6.12997
105 5 1.15772 10.4734 5.12006
106 5 3.63857 18.8456 3.22846
107 5 1.52738 15.324 7.56995
108 5 3.23288 13.8883 0.911268
109 5 3.13513 10.0285 5.82038
110 5 1.52711 19.1239 2.68849
111 5 8.42168 14.8829 7.03085
112 5 5.24824 14.2962 1.44146
113 3 8.09726 17.5092 2.13182
114 3 5.68341 11.6908 6.31553
115 3 7.71339 12.6075 2.05223
116 3 5.92017 16.4591 6.38169
117 3 6.16905 16.8963 2.71968
118 3 7.73592 12.2357 5.79948
119 3 0.61918 11.9978 1.52226
120 3 3.9725 17.1339 6.90079
121 6 2.27403 10.0866 4.94889
122 6 2.51141 19.2135 3.44169
123 6 0.395752 14.9774 7.82192
124 6 4.32647 14.2967 0.673413
125 4 0.125296 17.2691 1.8613
126 4 4.59934 11.9453 6.52212
127 4 6.76171 12.5055 2.50162
128 4 6.98619 16.4363 5.95334
129 4 5.22118 16.3505 2.74122
130 4 8.51159 12.8105 5.65399
131 4 1.4349 11.3764 1.40193
132 4 3.19376 17.8102 7.10698
133 1 4.46803 10.2118 12.2792
134 1 0.844884 18.8947 13.3865
135 1 2.89986 15.0487 9.0773
136 1 2.40621 14.0506 16.5819
137 2 3.4289 18.3867 11.7552
138 2 1.88055 10.7396 13.9478
139 2 3.92735 13.4331 9.63635
140 2 1.47715 15.648 15.974
141 2 2.09994 18.0716 12.0992
142 2 3.16536 11.1116 13.5916
143 2 5.17326 13.094 9.26525
144 2 9.18671 16.0186 16.4265
145 2 2.99014 16.5429 10.4029
146 2 2.40668 12.5825 15.1785
147 2 4.66786 11.8346 11.0053
148 2 0.777037 17.4947 14.795
149 5 5.97216 10.3575 13.7929
150 5 8.50861 18.7963 11.8426
151 5 6.31035 15.3822 16.1901
152 5 8.09683 13.8751 9.44542
153 5 8.01005 10.0392 14.2807
154 5 6.35934 19.0781 11.3475
155 5 4.37222 14.9833 15.6774
156 5 1.18066 14.2456 10.0287
157 3 3.99534 17.3874 10.813
158 3 1.53105 11.6283 14.9621
159 3 3.65869 12.6552 10.657
160 3 1.71279 16.5448 15.0599
161 3 1.9066 16.9778 11.2336
162 3 3.42684 12.1856 14.4007
163 3 5.48576 12.0649 10.0304
164 3 8.86686 17.1016 15.6658
165 6 7.03542 9.90189 13.571
166 6 7.32134 19.066 12.1162
167 6 5.29555 14.833 16.398
168 6 9.17745 14.3997 9.26792
169 4 4.96881 17.3644 10.2576
170 4 0.633337 11.6935 15.5305
171 4 3.00653 12.9123 11.4083
172 4 2.75387 16.6604 14.6935
173 4 1.04229 16.3271 11.4335
174 4 4.23952 12.7997 14.2216
175 4 6.45268 11.4954 9.89751
176 4 7.94635 17.5386 15.6722
177 7 7.39853 13.38 14.4002
178 8 6.87893 13.1053 15.1923
179 8 6.69246 13.2564 13.7519
180 7 6.92631 15.6195 12.5236
181 8 6.90279 16.5741 12.7808
182 8 7.85602 15.4581 12.3984
183 7 5.31947 4.86523 12.9161
184 8 4.35988 4.96504 13.0693
185 8 5.57906 5.80518 12.9425
186 7 7.20352 5.26669 11.5351
187 8 7.41 5.42472 12.479
188 8 8.82549 4.36012 11.4591
189 7 2.91767 4.90449 4.42053
190 8 2.65258 5.83233 4.43908
191 8 2.25362 4.58251 3.787
192 7 4.64875 2.82162 4.11754
193 8 4.61463 2.68657 3.16096
194 8 5.27496 3.53426 4.27235
195 9 3.06842 9.6845 9.75229
196 10 3.13677 9.01021 8.77731
197 10 2.52679 10.3736 10.6318
198 9 9.00898 11.7275 10.5763
199 10 8.41803 11.4568 11.5168
200 10 0.770134 11.7936 9.69044
201 9 7.21451 6.88616 9.90321
202 10 7.43091 6.443 8.9201
203 10 7.01421 7.41349 10.8571
204 9 1.76926 10.6914 7.82053
205 10 1.09629 9.81638 7.43119
206 10 2.62083 11.2549 8.35018
207 9 6.32035 9.14683 7.34521
208 10 7.201 9.0073 6.51847
209 10 5.75116 8.78699 8.28455
210 9 9.12551 7.90208 6.98891
211 10 0.906012 7.49547 6.16693
212 10 8.36256 7.98639 7.90003
ITEM: TIMESTEP
47
ITEM: NUMBER OF ATOMS
212
ITEM: BOX BOUNDS xy xz yz pp pp pp
-3.6894167040991910e-02 9.5862962751287988e+00 0.0000000000000000e+00
-8.0242676206605523e-02 1.9467241776206613e+01 6.3560190808779204e-01
-7.0622892185630448e-02 1.7133437992185641e+01 0.0000000000000000e+00
ITEM: ATOMS id type x y z
1 1 8.72951 0.448991 3.68247
2 1 4.98799 9.18333 4.75397
3 1 7.07895 5.36696 0.40805
4 1 6.61944 4.25943 8.03554
5 2 7.73783 8.62908 3.11362
6 2 6.12885 1.00149 5.41868
7 2 8.11814 3.67306 1.04642
8 2 5.55989 5.88977 7.32674
9 2 6.49594 8.207 3.5496
10 2 7.40122 1.43599 4.88784
11 2 0.419851 3.37304 0.683368
12 2 4.33793 6.27115 7.86004
13 2 7.11788 6.79574 1.92704
14 2 6.60698 2.75379 6.66937
15 2 8.75753 1.88785 2.32433
16 2 4.82529 7.62629 5.92446
17 5 1.09239 0.702065 5.22288
18 5 3.68367 8.9633 3.25653
19 5 1.50712 5.59018 7.56543
20 5 3.15506 4.08062 1.01072
21 5 3.17513 0.239554 5.7273
22 5 1.5529 9.40645 2.74131
23 5 8.55633 5.01167 7.09093
24 5 5.21806 4.52803 1.44055
25 3 8.10159 7.707 2.18546
26 3 5.62387 1.82146 6.43004
27 3 7.74863 2.83228 2.054
28 3 5.91167 6.75752 6.32823
29 3 6.18559 7.09206 2.8383
30 3 7.56367 2.4114 5.74617
31 3 0.734064 2.31478 1.46821
32 3 3.91937 7.33619 6.95126
33 6 2.21221 0.297684 4.97931
34 6 2.53445 9.32416 3.50887
35 6 0.475681 5.1487 7.84247
36 6 4.27279 4.45243 0.669936
37 4 0.0883229 7.52718 1.8548
38 4 4.62051 1.82604 6.84802
39 4 6.69281 2.76102 2.41638
40 4 6.98704 6.91204 6.09566
41 4 5.15808 6.72775 2.74805
42 4 8.58968 2.71163 5.9018
43 4 1.72134 1.81612 1.40198
44 4 3.02583 7.87595 6.91885
45 1 4.54559 0.470686 12.3184
46 1 0.8688 9.15668 13.3209
47 1 2.9685 5.28346 9.02328
48 1 2.43885 4.25929 16.6092
49 2 3.5817 8.4103 11.9695
50 2 1.73332 1.00497 13.8106
51 2 3.98897 3.78641 9.72682
52 2 1.4759 5.95464 16.0308
53 2 2.1421 8.20558 11.9759
54 2 3.1269 1.23056 13.6606
55 2 5.298 3.3683 9.26701
56 2 9.16215 6.34342 16.4496
57 2 2.91139 6.75262 10.4702
58 2 2.42882 2.86576 15.2881
59 2 4.49277 1.80921 10.8483
60 2 0.797453 7.62346 14.6457
61 5 5.80709 0.597005 13.7935
62 5 8.50615 9.12373 11.9977
63 5 6.31905 5.60369 16.2189
64 5 8.08742 3.95666 9.50604
65 5 7.88685 0.256875 14.2902
66 5 6.33176 9.51607 11.3315
67 5 4.25487 5.07746 15.7038
68 5 1.09182 4.54436 10.0525
69 3 4.14673 7.27188 11.2913
70 3 1.46836 1.90758 14.8675
71 3 3.5375 2.80092 10.599
72 3 1.84923 6.87592 15.0735
73 3 1.87061 7.11117 11.2246
74 3 3.36412 2.43823 14.3474
75 3 5.55052 2.26196 10.0282
76 3 8.81055 7.32746 15.5708
77 6 6.9483 0.27061 13.5271
78 6 7.25493 9.29027 12.2226
79 6 5.20289 5.23211 16.4333
80 6 9.16367 4.45355 9.26904
81 4 4.83931 7.58449 10.4999
82 4 9.48364 1.90203 15.3605
83 4 2.7418 2.97607 11.2579
84 4 2.60652 6.68632 14.3355
85 4 0.844022 6.76009 11.087
86 4 4.46136 2.72417 14.4612
87 4 6.48889 1.75609 9.91742
88 4 7.77746 7.8385 15.6189
89 1 8.67816 10.2206 3.72178
90 1 5.03984 18.9216 4.72036
91 1 7.11249 15.0923 0.472159
92 1 6.62644 14.0251 8.02759
93 2 7.75997 18.4064 3.1354
94 2 5.88458 11.1295 5.12511
95 2 8.10898 13.4275 0.971631
96 2 5.56181 15.6719 7.31251
97 2 6.40182 18.1069 3.42184
98 2 7.33286 11.2854 4.89976
99 2 0.422884 13.0676 0.662241
100 2 4.34775 16.1904 7.79517
101 2 7.14123 16.5976 1.79019
102 2 6.67603 12.5877 6.58879
103 2 8.60418 11.6838 2.3791
104 2 5.00805 17.4464 6.127
105 5 1.15871 10.475 5.11647
106 5 3.63854 18.8504 3.22532
107 5 1.5242 15.325 7.56976
108 5 3.23353 13.8904 0.909857
109 5 3.13295 10.0288 5.81992
110 5 1.52802 19.126 2.6872
111 5 8.424 14.8838 7.03199
112 5 5.24693 14.2981 1.43928
113 3 8.09808 17.5105 2.12895
114 3 5.68387 11.6934 6.31474
115 3 7.71464 12.6079 2.05088
116 3 5.91948 16.4605 6.37866
117 3 6.17216 16.8973 2.71691
118 3 7.73805 12.2361 5.79925
119 3 0.616214 11.9981 1.52082
120 3 3.97109 17.1358 6.89955
121 6 2.27439 10.0877 4.94656
122 6 2.50796 19.2189 3.44121
123 6 0.395596 14.9815 7.8202
124 6 4.3278 14.2992 0.670458
125 4 0.12582 17.2698 1.86743
126 4 4.60509 11.9592 6.51969
127 4 6.75777 12.5102 2.49282
128 4 6.98043 16.4453 5.94862
129 4 5.2199 16.3603 2.74683
130 4 8.51675 12.8172 5.64958
131 4 1.43108 11.3715 1.39967
132 4 3.19708 17.82 7.10784
133 1 4.46726 10.2113 12.2799
134 1 0.843391 18.8969 13.3883
135 1 2.89847 15.0486 9.07779
136 1 2.40539 14.0522 16.5836
137 2 3.42842 18.3893 11.7557
138 2 1.88009 10.7379 13.9496
139 2 3.92632 13.4357 9.63622
140 2 1.4752 15.6469 15.9778
141 2 2.09654 18.0743 12.1
142 2 3.1661 11.1112 13.5931
143 2 5.17439 13.0949 9.26391
144 2 9.18932 16.0192 16.4293
145 2 2.99006 16.543 10.4029
146 2 2.40606 12.5858 15.181
147 2 4.67164 11.8368 11.0095
148 2 0.776001 17.4981 14.7969
149 5 5.97422 10.356 13.7945
150 5 8.50888 18.8008 11.8432
151 5 6.31012 15.3854 16.1926
152 5 8.10161 13.8779 9.44467
153 5 8.01027 10.0397 14.2805
154 5 6.36148 19.0791 11.3496
155 5 4.37442 14.9864 15.6803
156 5 1.18009 14.2479 10.0278
157 3 3.99433 17.3878 10.8159
158 3 1.53157 11.6282 14.9644
159 3 3.66115 12.6576 10.6592
160 3 1.71053 16.5492 15.0596
161 3 1.90627 16.9811 11.2334
162 3 3.42652 12.1843 14.4017
163 3 5.48602 12.0651 10.0299
164 3 8.86809 17.104 15.6691
165 6 7.03577 9.90011 13.574
166 6 7.32229 19.0671 12.1169
167 6 5.29607 14.8324 16.4014
168 6 9.17758 14.4031 9.26996
169 4 4.96837 17.3699 10.2661
170 4 0.630599 11.6892 15.5282
171 4 3.01344 12.9217 11.4152
172 4 2.75087 16.6658 14.6983
173 4 1.04667 16.327 11.4318
174 4 4.236 12.8079 14.2236
175 4 6.45011 11.4983 9.89478
176 4 7.94222 17.5388 15.6799
177 7 7.40114 13.3803 14.4018
178 8 6.8827 13.1084 15.1991
179 8 6.69199 13.2663 13.7559
180 7 6.92711 15.6202 12.5251
181 8 6.90499 16.5785 12.7823
182 8 7.85401 15.4672 12.3961
183 7 5.31853 4.86331 12.9167
184 8 4.36033 4.95873 13.0753
185 8 5.57768 5.80422 12.9299
186 7 7.20803 5.25297 11.5425
187 8 7.39778 5.4204 12.4946
188 8 8.83165 4.32092 11.4756
189 7 2.91458 4.90607 4.41752
190 8 2.65141 5.83045 4.44682
191 8 2.26333 4.57348 3.78284
192 7 4.64847 2.82016 4.11446
193 8 4.62402 2.68544 3.15827
194 8 5.27333 3.53164 4.2617
195 9 3.06741 9.68622 9.74685
196 10 3.13202 9.01947 8.77037
197 10 2.52213 10.3719 10.631
198 9 9.01031 11.7286 10.5754
199 10 8.42029 11.4623 11.5183
200 10 0.768483 11.7887 9.6896
201 9 7.21379 6.8906 9.90137
202 10 7.43317 6.44694 8.91963
203 10 7.01212 7.41518 10.8518
204 9 1.76878 10.694 7.81819
205 10 1.09542 9.8165 7.43252
206 10 2.62214 11.2556 8.34741
207 9 6.32261 9.14954 7.34898
208 10 7.20696 9.00216 6.52261
209 10 5.75375 8.79075 8.28964
210 9 9.12745 7.90338 6.98856
211 10 0.903188 7.49708 6.16528
212 10 8.36657 7.9861 7.90064
ITEM: TIMESTEP
48
ITEM: NUMBER OF ATOMS
212
ITEM: BOX BOUNDS xy xz yz pp pp pp
-3.8125496241021573e-02 9.5877017634341435e+00 0.0000000000000000e+00
-8.2920745891494008e-02 1.9469919845891503e+01 6.3577606719310820e-01
-7.2979905131390410e-02 1.7135795005131399e+01 0.0000000000000000e+00
ITEM: ATOMS id type x y z
1 1 8.73157 0.446084 3.68071
2 1 4.98713 9.18409 4.75282
3 1 7.07876 5.36592 0.404975
4 1 6.62053 4.25799 8.03606
5 2 7.73997 8.63028 3.1127
6 2 6.13325 0.996883 5.41802
7 2 8.11839 3.67234 1.04406
8 2 5.55822 5.88664 7.32421
9 2 6.49664 8.20621 3.54975
10 2 7.40097 1.43308 4.88617
11 2 0.420113 3.37185 0.680984
12 2 4.33602 6.27228 7.85924
13 2 7.1195 6.79251 1.92521
14 2 6.60605 2.75201 6.67142
15 2 8.75822 1.88435 2.3237
16 2 4.82151 7.62389 5.91827
17 5 1.09325 0.699894 5.22285
18 5 3.68226 8.9638 3.25476
19 5 1.50521 5.58905 7.56553
20 5 3.15576 4.07994 1.01067
21 5 3.17435 0.236993 5.72695
22 5 1.55368 9.40684 2.74068
23 5 8.55899 5.0076 7.08991
24 5 5.21637 4.52749 1.43839
25 3 8.10211 7.70612 2.18482
26 3 5.62614 1.81847 6.4317
27 3 7.75143 2.82955 2.05248
28 3 5.90814 6.75575 6.32457
29 3 6.18726 7.09082 2.84023
30 3 7.56562 2.40942 5.7445
31 3 0.733661 2.31306 1.46647
32 3 3.91892 7.33177 6.94966
33 6 2.20889 0.295721 4.97496
34 6 2.53555 9.32331 3.50833
35 6 0.47817 5.14653 7.84621
36 6 4.27073 4.45089 0.666654
37 4 0.0894232 7.51962 1.85533
38 4 4.62216 1.82743 6.85017
39 4 6.6988 2.74874 2.4157
40 4 6.97955 6.90888 6.09246
41 4 5.16151 6.7273 2.74665
42 4 8.58853 2.71269 5.91049
43 4 1.71925 1.81669 1.39846
44 4 3.02058 7.87111 6.91031
45 1 4.54623 0.468082 12.3197
46 1 0.867854 9.15681 13.3214
47 1 2.96849 5.28076 9.02278
48 1 2.43862 4.25795 16.6115
49 2 3.58295 8.40357 11.977
50 2 1.73198 1.00205 13.8097
51 2 3.99192 3.78639 9.72747
52 2 1.47479 5.95354 16.0337
53 2 2.14023 8.20503 11.9766
54 2 3.12551 1.22574 13.6634
55 2 5.29776 3.36876 9.26654
56 2 9.16407 6.34354 16.4525
57 2 2.91412 6.74929 10.4732
58 2 2.42765 2.86431 15.2902
59 2 4.49284 1.80556 10.8469
60 2 0.795111 7.62337 14.6448
61 5 5.80621 0.59294 13.795
62 5 8.50628 9.12676 12.0013
63 5 6.31815 5.60399 16.2209
64 5 8.09206 3.95219 9.5063
65 5 7.88424 0.254809 14.2904
66 5 6.33285 9.52131 11.3346
67 5 4.2548 5.07557 15.7062
68 5 1.09017 4.54416 10.0532
69 3 4.14743 7.26045 11.301
70 3 1.46816 1.90716 14.8692
71 3 3.53819 2.79691 10.5996
72 3 1.84862 6.8778 15.0752
73 3 1.86845 7.10905 11.2239
74 3 3.36285 2.43592 14.3491
75 3 5.54957 2.25724 10.0307
76 3 8.81144 7.32649 15.5728
77 6 6.94841 0.268056 13.5276
78 6 7.25545 9.28947 12.2257
79 6 5.20242 5.23108 16.4406
80 6 9.16501 4.45094 9.26807
81 4 4.83483 7.57877 10.5199
82 4 9.48465 1.90126 15.3581
83 4 2.74259 2.9757 11.2621
84 4 2.60388 6.68022 14.3379
85 4 0.840034 6.76557 11.081
86 4 4.45508 2.71766 14.4672
87 4 6.492 1.75625 9.91003
88 4 7.78484 7.83766 15.6159
89 1 8.67913 10.2204 3.72081
90 1 5.04002 18.9243 4.71858
91 1 7.11299 15.093 0.470192
92 1 6.62752 14.0262 8.02789
93 2 7.76123 18.4102 3.13482
94 2 5.8842 11.1357 5.11758
95 2 8.10899 13.4284 0.968832
96 2 5.55982 15.6714 7.31237
97 2 6.40202 18.1107 3.41945
98 2 7.3328 11.2885 4.8972
99 2 0.422449 13.0674 0.659725
100 2 4.34776 16.1938 7.79517
101 2 7.1422 16.5989 1.78799
102 2 6.67769 12.5907 6.58891
103 2 8.60378 11.6821 2.37938
104 2 5.00901 17.4502 6.12398
105 5 1.15967 10.4766 5.11287
106 5 3.63852 18.8551 3.22215
107 5 1.52103 15.326 7.56953
108 5 3.23415 13.8925 0.908446
109 5 3.13081 10.029 5.81941
110 5 1.52893 19.1281 2.6859
111 5 8.42636 14.8847 7.03315
112 5 5.24564 14.3 1.4371
113 3 8.09889 17.5119 2.12608
114 3 5.68427 11.6961 6.31393
115 3 7.71592 12.6084 2.04947
116 3 5.91887 16.4621 6.37555
117 3 6.17527 16.8985 2.71412
118 3 7.74006 12.2365 5.79902
119 3 0.613234 11.9985 1.51934
120 3 3.96971 17.1377 6.89834
121 6 2.27478 10.0888 4.94415
122 6 2.50444 19.2244 3.44082
123 6 0.395388 14.9856 7.81851
124 6 4.32916 14.3018 0.667415
125 4 0.126494 17.2706 1.87354
126 4 4.61135 11.973 6.51731
127 4 6.75341 12.5151 2.48391
128 4 6.97402 16.4544 5.94411
129 4 5.21864 16.3703 2.75243
130 4 8.52286 12.8245 5.64495
131 4 1.42774 11.3664 1.3973
132 4 3.20016 17.83 7.10884
133 1 4.46651 10.2107 12.2806
134 1 0.841882 18.8991 13.3901
135 1 2.89707 15.0484 9.07828
136 1 2.40457 14.0538 16.5854
137 2 3.428 18.3919 11.7563
138 2 1.87962 10.7363 13.9515
139 2 3.92529 13.4383 9.63608
140 2 1.47317 15.6459 15.9818
141 2 2.09323 18.0768 12.1008
142 2 3.16682 11.1108 13.5946
143 2 5.17556 13.0958 9.26255
144 2 9.19193 16.0198 16.4322
145 2 2.98994 16.5431 10.403
146 2 2.40547 12.5891 15.1836
147 2 4.67537 11.8389 11.0137
148 2 0.775003 17.5016 14.7988
149 5 5.97623 10.3546 13.7961
150 5 8.50913 18.8054 11.8438
151 5 6.30995 15.3886 16.1951
152 5 8.10637 13.8807 9.44395
153 5 8.01051 10.0402 14.2802
154 5 6.36363 19.0801 11.3517
155 5 4.37656 14.9895 15.6833
156 5 1.17949 14.2504 10.0269
157 3 3.99321 17.3883 10.8189
158 3 1.53208 11.628 14.9667
159 3 3.66364 12.6601 10.6614
160 3 1.70835 16.5536 15.0592
161 3 1.90597 16.9845 11.2332
162 3 3.42617 12.1831 14.4027
163 3 5.48638 12.0653 10.0295
164 3 8.86933 17.1063 15.6724
165 6 7.03615 9.89831 13.5771
166 6 7.32322 19.0683 12.1177
167 6 5.29655 14.8317 16.4049
168 6 9.17776 14.4065 9.272
169 4 4.96769 17.3757 10.275
170 4 0.627449 11.6846 15.5258
171 4 3.01977 12.9313 11.4223
172 4 2.74762 16.6713 14.7031
173 4 1.05114 16.3271 11.43
174 4 4.23293 12.8165 14.2255
175 4 6.44716 11.5014 9.89215
176 4 7.93743 17.5392 15.6877
177 7 7.40372 13.3806 14.4034
178 8 6.88688 13.1117 15.2055
179 8 6.69174 13.2762 13.7598
180 7 6.92791 15.6211 12.5265
181 8 6.90716 16.5823 12.7837
182 8 7.85221 15.4763 12.3938
183 7 5.31756 4.8614 12.9172
184 8 4.36092 4.95235 13.0813
185 8 5.5762 5.80309 12.9174
186 7 7.21266 5.23919 11.5499
187 8 7.38548 5.41599 12.5098
188 8 8.83659 4.28253 11.492
189 7 2.91147 4.90765 4.4145
190 8 2.65027 5.82861 4.45466
191 8 2.2732 4.56436 3.77879
192 7 4.64817 2.81869 4.11133
193 8 4.63338 2.68442 3.15571
194 8 5.27163 3.52901 4.25103
195 9 3.06623 9.68798 9.74149
196 10 3.12731 9.02875 8.76355
197 10 2.51754 10.3702 10.63
198 9 9.01169 11.7297 10.5745
199 10 8.42253 11.4678 11.5197
200 10 0.766801 11.7838 9.68875
201 9 7.21308 6.89503 9.89955
202 10 7.43543 6.4508 8.91907
203 10 7.01003 7.41678 10.8465
204 9 1.76829 10.6965 7.81584
205 10 1.09453 9.81666 7.43391
206 10 2.62345 11.2564 8.3446
207 9 6.32502 9.15216 7.35266
208 10 7.2128 8.99715 6.52676
209 10 5.75632 8.79457 8.29476
210 9 9.12942 7.90458 6.98824
211 10 0.900295 7.49876 6.16362
212 10 8.37069 7.98583 7.9012
ITEM: TIMESTEP
49
ITEM: NUMBER OF ATOMS
212
ITEM: BOX BOUNDS xy xz yz pp pp pp
-3.9364921289018362e-02 9.5891164926635568e+00 0.0000000000000000e+00
-8.5616423576757583e-02 1.9472615523576764e+01 6.3595137137452484e-01
-7.5352415166367592e-02 1.7138167515166376e+01 0.0000000000000000e+00
ITEM: ATOMS id type x y z
1 1 8.73364 0.443165 3.67893
2 1 4.98628 9.18485 4.75165
3 1 7.07857 5.36487 0.401894
4 1 6.62161 4.25654 8.03659
5 2 7.74211 8.63147 3.1118
6 2 6.13767 0.992229 5.41733
7 2 8.11863 3.67164 1.04168
8 2 5.55652 5.88347 7.3217
9 2 6.49731 8.20543 3.54986
10 2 7.40062 1.4301 4.88458
11 2 0.420374 3.37064 0.678607
12 2 4.33406 6.27347 7.85831
13 2 7.12115 6.78925 1.92336
14 2 6.60511 2.75021 6.67348
15 2 8.75887 1.88086 2.32304
16 2 4.81781 7.62145 5.91217
17 5 1.0941 0.697706 5.22282
18 5 3.68084 8.9643 3.25297
19 5 1.50338 5.58792 7.56564
20 5 3.15646 4.07926 1.01057
21 5 3.17357 0.234418 5.7266
22 5 1.55449 9.40722 2.74005
23 5 8.56163 5.00351 7.08883
24 5 5.21468 4.52694 1.43622
25 3 8.10259 7.70522 2.18415
26 3 5.62852 1.81547 6.43332
27 3 7.75427 2.82678 2.05094
28 3 5.90451 6.75399 6.32089
29 3 6.18892 7.08959 2.84213
30 3 7.56764 2.40749 5.74286
31 3 0.733276 2.31131 1.46473
32 3 3.91857 7.32725 6.94801
33 6 2.20563 0.293684 4.97049
34 6 2.5366 9.32252 3.50784
35 6 0.480539 5.14425 7.85003
36 6 4.26873 4.44939 0.663325
37 4 0.090978 7.51216 1.85576
38 4 4.62383 1.82877 6.85229
39 4 6.70515 2.73641 2.4149
40 4 6.97172 6.90527 6.08897
41 4 5.165 6.72683 2.74534
42 4 8.58743 2.71393 5.91914
43 4 1.71695 1.81732 1.39493
44 4 3.01498 7.86607 6.90195
45 1 4.54686 0.465457 12.321
46 1 0.866895 9.15694 13.3219
47 1 2.96848 5.27806 9.02229
48 1 2.43839 4.2566 16.614
49 2 3.58415 8.39673 11.9844
50 2 1.73072 0.999161 13.809
51 2 3.99492 3.78632 9.72809
52 2 1.47363 5.95243 16.0366
53 2 2.13845 8.20446 11.9773
54 2 3.12406 1.22098 13.6661
55 2 5.29744 3.36921 9.26611
56 2 9.16601 6.34363 16.4553
57 2 2.91704 6.74594 10.4763
58 2 2.42645 2.86277 15.2922
59 2 4.49292 1.80194 10.8455
60 2 0.792763 7.62332 14.644
61 5 5.80534 0.588858 13.7966
62 5 8.50634 9.12974 12.0049
63 5 6.31728 5.6043 16.2229
64 5 8.0967 3.94769 9.50655
65 5 7.88166 0.252734 14.2906
66 5 6.33397 9.52662 11.3379
67 5 4.25473 5.07369 15.7086
68 5 1.08853 4.54394 10.054
69 3 4.14785 7.24911 11.3105
70 3 1.46796 1.90673 14.8708
71 3 3.53897 2.79288 10.6001
72 3 1.84797 6.87964 15.077
73 3 1.86628 7.10695 11.2232
74 3 3.36164 2.43357 14.3509
75 3 5.54858 2.25252 10.0331
76 3 8.81231 7.32555 15.5748
77 6 6.94859 0.265429 13.528
78 6 7.25599 9.28877 12.2289
79 6 5.20187 5.22994 16.448
80 6 9.16643 4.44836 9.26705
81 4 4.83043 7.57295 10.5402
82 4 9.48565 1.90052 15.3556
83 4 2.74302 2.97532 11.2666
84 4 2.60146 6.67396 14.3403
85 4 0.83611 6.77117 11.0748
86 4 4.44827 2.71111 14.4733
87 4 6.49516 1.75615 9.90269
88 4 7.79286 7.83653 15.6129
89 1 8.6801 10.2201 3.71983
90 1 5.0402 18.927 4.7168
91 1 7.1135 15.0937 0.468206
92 1 6.6286 14.0274 8.02818
93 2 7.76243 18.4139 3.13422
94 2 5.88398 11.1418 5.11007
95 2 8.10899 13.4292 0.966082
96 2 5.55779 15.6709 7.3123
97 2 6.40226 18.1145 3.41702
98 2 7.33266 11.2916 4.89467
99 2 0.421975 13.0672 0.657223
100 2 4.34776 16.1972 7.79515
101 2 7.14316 16.6002 1.78582
102 2 6.67936 12.5938 6.58905
103 2 8.60342 11.6804 2.37965
104 2 5.00998 17.4541 6.12093
105 5 1.16059 10.4782 5.10926
106 5 3.6385 18.8598 3.21894
107 5 1.51787 15.3271 7.56927
108 5 3.23473 13.8946 0.907036
109 5 3.12868 10.0292 5.81884
110 5 1.52986 19.1303 2.68462
111 5 8.42875 14.8856 7.03432
112 5 5.24439 14.302 1.43494
113 3 8.09969 17.5133 2.1232
114 3 5.68462 11.6989 6.31308
115 3 7.71723 12.6089 2.04801
116 3 5.91833 16.4637 6.37236
117 3 6.17839 16.8997 2.71132
118 3 7.74195 12.2367 5.79879
119 3 0.610243 11.9989 1.51783
120 3 3.96837 17.1397 6.89716
121 6 2.27522 10.0898 4.94164
122 6 2.50087 19.2299 3.44053
123 6 0.395125 14.9896 7.81685
124 6 4.33055 14.3044 0.664285
125 4 0.127313 17.2715 1.87964
126 4 4.61808 11.9867 6.51498
127 4 6.74866 12.5202 2.47491
128 4 6.96703 16.4635 5.93979
129 4 5.21742 16.3804 2.75797
130 4 8.52986 12.8325 5.64012
131 4 1.42485 11.361 1.39483
132 4 3.20301 17.8402 7.11
133 1 4.46576 10.2102 12.2813
134 1 0.840358 18.9013 13.392
135 1 2.89568 15.0483 9.07876
136 1 2.40375 14.0555 16.5872
137 2 3.42762 18.3945 11.7567
138 2 1.87915 10.7347 13.9534
139 2 3.92426 13.4411 9.63596
140 2 1.47107 15.6448 15.9858
141 2 2.08999 18.0794 12.1015
142 2 3.16751 11.1104 13.5962
143 2 5.17678 13.0967 9.26118
144 2 9.19456 16.0204 16.435
145 2 2.98977 16.5432 10.4032
146 2 2.40491 12.5925 15.1863
147 2 4.67906 11.841 11.0179
148 2 0.774043 17.505 14.8007
149 5 5.97818 10.3533 13.7977
150 5 8.50935 18.8099 11.8444
151 5 6.30984 15.3919 16.1977
152 5 8.11111 13.8836 9.44326
153 5 8.01077 10.0407 14.2801
154 5 6.36579 19.0812 11.3537
155 5 4.37863 14.9926 15.6862
156 5 1.17885 14.2528 10.0259
157 3 3.99199 17.3889 10.8219
158 3 1.53258 11.6278 14.9689
159 3 3.66617 12.6625 10.6636
160 3 1.70624 16.5581 15.0588
161 3 1.90569 16.9878 11.233
162 3 3.42579 12.1818 14.4037
163 3 5.48685 12.0655 10.029
164 3 8.87058 17.1086 15.6758
165 6 7.03658 9.89649 13.5802
166 6 7.32412 19.0695 12.1185
167 6 5.297 14.8311 16.4084
168 6 9.178 14.4099 9.27403
169 4 4.96679 17.3816 10.2842
170 4 0.6239 11.6798 15.5233
171 4 3.02555 12.9413 11.4297
172 4 2.74415 16.6767 14.708
173 4 1.05566 16.3272 11.428
174 4 4.23029 12.8253 14.2272
175 4 6.44387 11.5049 9.88961
176 4 7.93202 17.54 15.6957
177 7 7.40627 13.3809 14.405
178 8 6.89146 13.1152 15.2117
179 8 6.6917 13.2863 13.7636
180 7 6.9287 15.6219 12.528
181 8 6.90927 16.5855 12.785
182 8 7.85069 15.4851 12.3916
183 7 5.31657 4.85949 12.9178
184 8 4.36163 4.94591 13.0874
185 8 5.5746 5.80176 12.905
186 7 7.21738 5.22534 11.5574
187 8 7.37309 5.41148 12.5244
188 8 8.84035 4.24494 11.5083
189 7 2.90836 4.90922 4.41146
190 8 2.64914 5.82683 4.4626
191 8 2.28319 4.55514 3.77479
192 7 4.64785 2.81722 4.10817
193 8 4.64269 2.68349 3.15327
194 8 5.26988 3.52643 4.24037
195 9 3.06489 9.68978 9.73621
196 10 3.12264 9.03802 8.75683
197 10 2.51303 10.3684 10.6289
198 9 9.01313 11.7307 10.5737
199 10 8.42475 11.4735 11.5212
200 10 0.765091 11.7789 9.68789
201 9 7.21238 6.89942 9.89773
202 10 7.43768 6.45459 8.91842
203 10 7.00794 7.4183 10.8413
204 9 1.7678 10.6989 7.81348
205 10 1.0936 9.81687 7.43535
206 10 2.62475 11.2572 8.34175
207 9 6.32759 9.15468 7.35626
208 10 7.21852 8.99228 6.53092
209 10 5.75888 8.79843 8.2999
210 9 9.13142 7.90567 6.98795
211 10 0.897335 7.50049 6.16196
212 10 8.37492 7.98557 7.90172
ITEM: TIMESTEP
50
ITEM: NUMBER OF ATOMS
212
ITEM: BOX BOUNDS xy xz yz pp pp pp
-4.0612022619880506e-02 9.5905399839086822e+00 0.0000000000000000e+00
-8.8328796732600523e-02 1.9475327896732608e+01 6.3612776128878690e-01
-7.7739619158156970e-02 1.7140554719158168e+01 0.0000000000000000e+00
ITEM: ATOMS id type x y z
1 1 8.73572 0.440235 3.67715
2 1 4.98542 9.1856 4.75048
3 1 7.07839 5.36381 0.398808
4 1 6.62271 4.25509 8.03711
5 2 7.74426 8.63264 3.11091
6 2 6.14209 0.98753 5.41661
7 2 8.11887 3.67097 1.03928
8 2 5.5548 5.88027 7.31918
9 2 6.49795 8.20467 3.54995
10 2 7.40019 1.42704 4.88305
11 2 0.42063 3.3694 0.676236
12 2 4.33206 6.27471 7.85727
13 2 7.12284 6.78595 1.92147
14 2 6.60415 2.74841 6.67552
15 2 8.75947 1.87738 2.32236
16 2 4.81419 7.61897 5.90616
17 5 1.09492 0.695503 5.2228
18 5 3.67941 8.9648 3.25115
19 5 1.50164 5.58678 7.56576
20 5 3.15715 4.07858 1.01045
21 5 3.17277 0.23183 5.72624
22 5 1.55533 9.40758 2.73942
23 5 8.56425 4.9994 7.0877
24 5 5.213 4.52638 1.43403
25 3 8.10301 7.70432 2.18347
26 3 5.631 1.81246 6.43489
27 3 7.75715 2.82394 2.0494
28 3 5.9008 6.75222 6.31718
29 3 6.19056 7.08839 2.844
30 3 7.5697 2.40562 5.74126
31 3 0.732906 2.30952 1.46297
32 3 3.91831 7.32265 6.94632
33 6 2.20244 0.291574 4.96592
34 6 2.53758 9.32179 3.50741
35 6 0.482778 5.14185 7.85391
36 6 4.2668 4.44793 0.659956
37 4 0.0929463 7.50482 1.8561
38 4 4.62552 1.83005 6.85437
39 4 6.71182 2.72406 2.41396
40 4 6.96361 6.90122 6.08518
41 4 5.1685 6.72634 2.74414
42 4 8.58639 2.71532 5.92772
43 4 1.71446 1.81798 1.3914
44 4 3.00905 7.86082 6.89379
45 1 4.54749 0.462811 12.3223
46 1 0.865922 9.15707 13.3224
47 1 2.96846 5.27536 9.0218
48 1 2.43816 4.25525 16.6164
49 2 3.58529 8.38979 11.9917
50 2 1.72955 0.996295 13.8083
51 2 3.99796 3.78619 9.7287
52 2 1.47241 5.95133 16.0395
53 2 2.13677 8.20387 11.9781
54 2 3.12256 1.21627 13.6688
55 2 5.29703 3.36963 9.26574
56 2 9.16798 6.34369 16.4581
57 2 2.92014 6.74257 10.4794
58 2 2.42524 2.86115 15.2942
59 2 4.49302 1.79835 10.8441
60 2 0.790408 7.6233 14.6432
61 5 5.80447 0.584759 13.7982
62 5 8.50634 9.13269 12.0085
63 5 6.31643 5.60461 16.2249
64 5 8.10135 3.94314 9.50678
65 5 7.87911 0.25065 14.2909
66 5 6.33513 9.53199 11.3412
67 5 4.25467 5.07182 15.711
68 5 1.08689 4.54371 10.0548
69 3 4.14799 7.23789 11.3198
70 3 1.46774 1.90629 14.8725
71 3 3.53982 2.78884 10.6006
72 3 1.84728 6.88145 15.0787
73 3 1.86409 7.10487 11.2226
74 3 3.36048 2.43119 14.3527
75 3 5.54756 2.24781 10.0355
76 3 8.81317 7.32463 15.5768
77 6 6.94882 0.262732 13.5283
78 6 7.25656 9.28817 12.232
79 6 5.20123 5.22869 16.4556
80 6 9.16793 4.4458 9.26599
81 4 4.82619 7.56703 10.5606
82 4 9.48663 1.89982 15.353
83 4 2.74314 2.97492 11.2712
84 4 2.59927 6.66756 14.3428
85 4 0.832256 6.77688 11.0684
86 4 4.441 2.70452 14.4794
87 4 6.49833 1.75579 9.89541
88 4 7.80143 7.83513 15.6099
89 1 8.68109 10.2199 3.71884
90 1 5.04038 18.9298 4.71501
91 1 7.11402 15.0944 0.466202
92 1 6.62968 14.0285 8.02846
93 2 7.7636 18.4177 3.13359
94 2 5.88391 11.1479 5.10258
95 2 8.10899 13.43 0.963382
96 2 5.55573 15.6703 7.31229
97 2 6.40256 18.1182 3.41454
98 2 7.33244 11.2947 4.89219
99 2 0.42146 13.067 0.654737
100 2 4.34773 16.2005 7.79512
101 2 7.14414 16.6014 1.78367
102 2 6.68102 12.5969 6.58919
103 2 8.6031 11.6787 2.37988
104 2 5.01098 17.458 6.11784
105 5 1.16147 10.4798 5.10564
106 5 3.63848 18.8646 3.21569
107 5 1.51472 15.3282 7.56899
108 5 3.23527 13.8967 0.905627
109 5 3.12659 10.0293 5.81822
110 5 1.5308 19.1325 2.68333
111 5 8.43117 14.8865 7.0355
112 5 5.24317 14.3039 1.43278
113 3 8.10047 17.5148 2.12031
114 3 5.68492 11.7017 6.3122
115 3 7.71856 12.6094 2.04648
116 3 5.91784 16.4654 6.3691
117 3 6.18149 16.901 2.70852
118 3 7.74372 12.237 5.79854
119 3 0.607243 11.9993 1.51628
120 3 3.96706 17.1416 6.896
121 6 2.27571 10.0907 4.93905
122 6 2.49725 19.2355 3.44032
123 6 0.3948 14.9936 7.81523
124 6 4.33197 14.307 0.661072
125 4 0.128264 17.2726 1.88572
126 4 4.62522 12.0004 6.51271
127 4 6.74356 12.5254 2.46583
128 4 6.95951 16.4727 5.93566
129 4 5.21623 16.3906 2.76342
130 4 8.53765 12.8411 5.6351
131 4 1.42239 11.3553 1.39224
132 4 3.20565 17.8506 7.1113
133 1 4.46503 10.2097 12.2821
134 1 0.838819 18.9035 13.3938
135 1 2.89428 15.0482 9.07924
136 1 2.40294 14.0571 16.589
137 2 3.42729 18.397 11.7572
138 2 1.87868 10.7331 13.9553
139 2 3.92325 13.444 9.63583
140 2 1.4689 15.6437 15.9899
141 2 2.08684 18.0818 12.1021
142 2 3.16818 11.11 13.5977
143 2 5.17803 13.0976 9.25979
144 2 9.19719 16.021 16.4378
145 2 2.98956 16.5434 10.4034
146 2 2.40438 12.5959 15.1889
147 2 4.68269 11.8431 11.0222
148 2 0.773116 17.5085 14.8026
149 5 5.98007 10.352 13.7994
150 5 8.50954 18.8145 11.845
151 5 6.30978 15.3951 16.2003
152 5 8.11582 13.8864 9.4426
153 5 8.01107 10.0412 14.2799
154 5 6.36797 19.0822 11.3558
155 5 4.38064 14.9956 15.6891
156 5 1.17818 14.2553 10.0249
157 3 3.99066 17.3896 10.8249
158 3 1.53307 11.6276 14.9712
159 3 3.66872 12.6649 10.6659
160 3 1.70421 16.5626 15.0583
161 3 1.90544 16.9912 11.2327
162 3 3.4254 12.1805 14.4047
163 3 5.48741 12.0656 10.0285
164 3 8.87183 17.1109 15.6792
165 6 7.03705 9.89465 13.5833
166 6 7.325 19.0708 12.1193
167 6 5.29741 14.8304 16.412
168 6 9.1783 14.4133 9.27604
169 4 4.9657 17.3878 10.2936
170 4 0.61997 11.6749 15.5207
171 4 3.03079 12.9515 11.4374
172 4 2.7405 16.6823 14.7128
173 4 1.06023 16.3275 11.4259
174 4 4.22804 12.8343 14.2288
175 4 6.4403 11.5086 9.88718
176 4 7.92606 17.541 15.7037
177 7 7.4088 13.3812 14.4067
178 8 6.89646 13.1188 15.2174
179 8 6.69187 13.2965 13.7673
180 7 6.92947 15.6229 12.5294
181 8 6.91132 16.588 12.7861
182 8 7.84951 15.4938 12.3893
183 7 5.31556 4.8576 12.9184
184 8 4.36242 4.93942 13.0936
185 8 5.57286 5.80025 12.8927
186 7 7.22221 5.21145 11.565
187 8 7.36063 5.40684 12.5383
188 8 8.84299 4.20816 11.5244
189 7 2.90524 4.91078 4.40841
190 8 2.64796 5.82516 4.4706
191 8 2.29322 4.54585 3.77081
192 7 4.64752 2.81574 4.10496
193 8 4.65194 2.68264 3.15091
194 8 5.26813 3.52395 4.22977
195 9 3.06338 9.69163 9.73103
196 10 3.11802 9.0473 8.75022
197 10 2.50859 10.3665 10.6278
198 9 9.01462 11.7317 10.5728
199 10 8.42696 11.4792 11.5227
200 10 0.763352 11.774 9.68702
201 9 7.21169 6.90377 9.8959
202 10 7.43994 6.45829 8.91768
203 10 7.00585 7.41975 10.8362
204 9 1.7673 10.7013 7.81112
205 10 1.09264 9.81712 7.43683
206 10 2.62606 11.2581 8.33885
207 9 6.33031 9.15711 7.35976
208 10 7.22412 8.98756 6.53508
209 10 5.76142 8.80234 8.30505
210 9 9.13345 7.90665 6.98769
211 10 0.894311 7.50228 6.1603
212 10 8.37926 7.98532 7.90219
ITEM: TIMESTEP
51
ITEM: NUMBER OF ATOMS
212
ITEM: BOX BOUNDS xy xz yz pp pp pp
-4.1866379579835744e-02 9.5919717570185092e+00 0.0000000000000000e+00
-9.1056950461435804e-02 1.9478056050461440e+01 6.3630517743865789e-01
-8.0140711890424043e-02 1.7142955811890435e+01 0.0000000000000000e+00
ITEM: ATOMS id type x y z
1 1 8.7378 0.437295 3.67536
2 1 4.98457 9.18637 4.74929
3 1 7.07822 5.36274 0.395718
4 1 6.62381 4.25362 8.03763
5 2 7.74641 8.6338 3.11004
6 2 6.1465 0.98279 5.41586
7 2 8.1191 3.67032 1.03686
8 2 5.55306 5.87705 7.31668
9 2 6.49857 8.20393 3.55
10 2 7.39966 1.42391 4.88159
11 2 0.420879 3.36814 0.673875
12 2 4.33001 6.276 7.85611
13 2 7.12455 6.78262 1.91957
14 2 6.60318 2.74659 6.67756
15 2 8.76003 1.8739 2.32166
16 2 4.81066 7.61645 5.90024
17 5 1.09573 0.693285 5.22278
18 5 3.67796 8.96529 3.2493
19 5 1.49999 5.58564 7.56588
20 5 3.15784 4.07789 1.01028
21 5 3.17196 0.22923 5.72588
22 5 1.5562 9.40793 2.73878
23 5 8.56686 4.99529 7.08652
24 5 5.21132 4.5258 1.43182
25 3 8.10339 7.7034 2.18276
26 3 5.63358 1.80945 6.43642
27 3 7.76006 2.82106 2.04785
28 3 5.89699 6.75044 6.31344
29 3 6.1922 7.08719 2.84582
30 3 7.57181 2.4038 5.73971
31 3 0.732548 2.3077 1.46122
32 3 3.91813 7.31798 6.94457
33 6 2.19932 0.289391 4.96126
34 6 2.5385 9.32113 3.50703
35 6 0.484874 5.13935 7.85784
36 6 4.26494 4.44652 0.656554
37 4 0.095282 7.4976 1.8564
38 4 4.62724 1.83124 6.85639
39 4 6.71879 2.7117 2.41289
40 4 6.95525 6.89674 6.08107
41 4 5.17201 6.72583 2.74305
42 4 8.58543 2.71684 5.9362
43 4 1.71183 1.81867 1.38787
44 4 3.00286 7.85535 6.88588
45 1 4.54812 0.460146 12.3237
46 1 0.864936 9.1572 13.3229
47 1 2.96843 5.27266 9.02132
48 1 2.43792 4.2539 16.6188
49 2 3.58637 8.38275 11.9991
50 2 1.72845 0.993459 13.8077
51 2 4.00103 3.78599 9.72929
52 2 1.47113 5.95022 16.0424
53 2 2.13519 8.20327 11.979
54 2 3.121 1.21163 13.6716
55 2 5.29654 3.37003 9.26541
56 2 9.16997 6.34372 16.4608
57 2 2.92341 6.73917 10.4828
58 2 2.42401 2.85944 15.2961
59 2 4.49314 1.79478 10.8427
60 2 0.788048 7.62332 14.6424
61 5 5.80362 0.580643 13.7997
62 5 8.50628 9.1356 12.012
63 5 6.31561 5.60494 16.2268
64 5 8.10598 3.93857 9.507
65 5 7.8766 0.248557 14.2912
66 5 6.33634 9.53741 11.3446
67 5 4.25461 5.06995 15.7134
68 5 1.08527 4.54347 10.0556
69 3 4.14783 7.22677 11.3289
70 3 1.46752 1.90582 14.8742
71 3 3.54076 2.7848 10.6011
72 3 1.84655 6.88323 15.0805
73 3 1.86189 7.10281 11.2221
74 3 3.35937 2.42876 14.3546
75 3 5.54651 2.24312 10.0379
76 3 8.81403 7.32373 15.5789
77 6 6.94909 0.259965 13.5285
78 6 7.25716 9.28767 12.2352
79 6 5.2005 5.22735 16.4633
80 6 9.16953 4.44326 9.2649
81 4 4.82219 7.56102 10.581
82 4 9.48759 1.89917 15.3504
83 4 2.74297 2.97448 11.276
84 4 2.59728 6.66103 14.3454
85 4 0.828477 6.78269 11.0618
86 4 4.43333 2.69792 14.4855
87 4 6.50147 1.75517 9.88823
88 4 7.81047 7.83348 15.6068
89 1 8.68209 10.2196 3.71784
90 1 5.04056 18.9325 4.71321
91 1 7.11455 15.0952 0.46418
92 1 6.63077 14.0296 8.02875
93 2 7.76471 18.4214 3.13292
94 2 5.88398 11.1538 5.09511
95 2 8.10899 13.4309 0.960733
96 2 5.55364 15.6697 7.31235
97 2 6.4029 18.1219 3.41203
98 2 7.33214 11.2978 4.88975
99 2 0.420901 13.0668 0.652267
100 2 4.3477 16.2037 7.79507
101 2 7.14511 16.6027 1.78155
102 2 6.68269 12.6001 6.58935
103 2 8.6028 11.6769 2.38008
104 2 5.012 17.462 6.11471
105 5 1.16232 10.4815 5.10201
106 5 3.63845 18.8693 3.21241
107 5 1.51161 15.3293 7.56866
108 5 3.23578 13.8988 0.904218
109 5 3.12451 10.0295 5.81754
110 5 1.53174 19.1347 2.68205
111 5 8.43361 14.8874 7.03668
112 5 5.24199 14.3059 1.43063
113 3 8.10125 17.5163 2.11744
114 3 5.68517 11.7047 6.31127
115 3 7.71992 12.61 2.04491
116 3 5.91741 16.4672 6.36576
117 3 6.18459 16.9024 2.70574
118 3 7.74538 12.2372 5.79829
119 3 0.60424 11.9998 1.51471
120 3 3.96579 17.1435 6.89486
121 6 2.27623 10.0915 4.93637
122 6 2.4936 19.2411 3.44021
123 6 0.394408 14.9976 7.81366
124 6 4.33341 14.3096 0.657781
125 4 0.129336 17.2737 1.89176
126 4 4.63273 12.0139 6.51049
127 4 6.73814 12.5308 2.45666
128 4 6.95155 16.4819 5.93171
129 4 5.2151 16.4008 2.76877
130 4 8.54614 12.8502 5.62991
131 4 1.42032 11.3495 1.38955
132 4 3.2081 17.8611 7.11277
133 1 4.4643 10.2092 12.2829
134 1 0.837265 18.9058 13.3956
135 1 2.89289 15.0481 9.07971
136 1 2.40213 14.0587 16.5908
137 2 3.42699 18.3995 11.7576
138 2 1.87822 10.7315 13.9573
139 2 3.92224 13.4469 9.63572
140 2 1.46667 15.6427 15.994
141 2 2.08377 18.0843 12.1027
142 2 3.16882 11.1096 13.5993
143 2 5.17931 13.0986 9.25839
144 2 9.19982 16.0217 16.4406
145 2 2.9893 16.5436 10.4037
146 2 2.40387 12.5993 15.1916
147 2 4.68628 11.8451 11.0265
148 2 0.772221 17.512 14.8044
149 5 5.9819 10.3507 13.8011
150 5 8.5097 18.8191 11.8456
151 5 6.30977 15.3984 16.2029
152 5 8.1205 13.8892 9.44197
153 5 8.0114 10.0417 14.2798
154 5 6.37015 19.0833 11.3579
155 5 4.38258 14.9987 15.6919
156 5 1.17746 14.2579 10.0239
157 3 3.98923 17.3904 10.8279
158 3 1.53354 11.6274 14.9734
159 3 3.6713 12.6673 10.6682
160 3 1.70225 16.5671 15.0579
161 3 1.90522 16.9946 11.2325
162 3 3.42498 12.1792 14.4057
163 3 5.48806 12.0657 10.028
164 3 8.87308 17.1132 15.6827
165 6 7.03755 9.89279 13.5864
166 6 7.32585 19.0721 12.1203
167 6 5.2978 14.8297 16.4157
168 6 9.17866 14.4168 9.27803
169 4 4.96443 17.3942 10.3033
170 4 0.61568 11.6697 15.518
171 4 3.03555 12.9619 11.4453
172 4 2.73669 16.6878 14.7176
173 4 1.0648 16.3278 11.4238
174 4 4.22615 12.8436 14.2302
175 4 6.43648 11.5125 9.88484
176 4 7.91962 17.5423 15.7119
177 7 7.41129 13.3814 14.4084
178 8 6.90189 13.1226 15.2228
179 8 6.69223 13.3067 13.7708
180 7 6.93022 15.6239 12.5309
181 8 6.91329 16.5899 12.787
182 8 7.84873 15.5023 12.387
183 7 5.31453 4.85571 12.919
184 8 4.36328 4.93291 13.0999
185 8 5.57097 5.79854 12.8804
186 7 7.22713 5.19749 11.5726
187 8 7.34809 5.40204 12.5514
188 8 8.84454 4.17218 11.5403
189 7 2.90214 4.91233 4.40537
190 8 2.64669 5.82363 4.47864
191 8 2.30325 4.5365 3.76679
192 7 4.64717 2.81424 4.10171
193 8 4.6611 2.68182 3.14863
194 8 5.26642 3.52162 4.21925
195 9 3.0617 9.69354 9.72594
196 10 3.11345 9.05656 8.7437
197 10 2.50423 10.3645 10.6265
198 9 9.01617 11.7326 10.5719
199 10 8.42916 11.485 11.5242
200 10 0.761586 11.7691 9.68614
201 9 7.21102 6.90807 9.89403
202 10 7.44221 6.46191 8.91684
203 10 7.00374 7.42113 10.8312
204 9 1.7668 10.7036 7.80876
205 10 1.09166 9.81743 7.43836
206 10 2.62737 11.2591 8.33591
207 9 6.33319 9.15943 7.36318
208 10 7.22959 8.98298 6.53926
209 10 5.76395 8.8063 8.31022
210 9 9.1355 7.90753 6.98746
211 10 0.891223 7.50413 6.15863
212 10 8.38371 7.98508 7.90263
ITEM: TIMESTEP
52
ITEM: NUMBER OF ATOMS
212
ITEM: BOX BOUNDS xy xz yz pp pp pp
-4.3127567555454327e-02 9.5934113273223183e+00 0.0000000000000000e+00
-9.3799961253651531e-02 1.9480799061253656e+01 6.3648355976684767e-01
-8.2554880567249356e-02 1.7145369980567260e+01 0.0000000000000000e+00
ITEM: ATOMS id type x y z
1 1 8.73989 0.434345 3.67357
2 1 4.98372 9.18713 4.7481
3 1 7.07806 5.36166 0.392624
4 1 6.62493 4.25215 8.03816
5 2 7.74855 8.63493 3.10917
6 2 6.15091 0.978013 5.4151
7 2 8.11933 3.6697 1.03442
8 2 5.55128 5.87381 7.31418
9 2 6.49917 8.2032 3.55003
10 2 7.39906 1.42071 4.88019
11 2 0.421118 3.36687 0.671524
12 2 4.32792 6.27732 7.85483
13 2 7.12628 6.77926 1.91764
14 2 6.6022 2.74477 6.67959
15 2 8.76056 1.87043 2.32093
16 2 4.8072 7.61389 5.89441
17 5 1.09652 0.691054 5.22277
18 5 3.6765 8.96578 3.24744
19 5 1.49843 5.5845 7.56602
20 5 3.15852 4.0772 1.01008
21 5 3.17112 0.22662 5.72549
22 5 1.55709 9.40826 2.73814
23 5 8.56946 4.99116 7.0853
24 5 5.20965 4.52522 1.4296
25 3 8.10374 7.70246 2.18203
26 3 5.63626 1.80643 6.43789
27 3 7.76301 2.81812 2.0463
28 3 5.89309 6.74866 6.30969
29 3 6.19384 7.08601 2.84761
30 3 7.57397 2.40204 5.73822
31 3 0.732198 2.30585 1.45945
32 3 3.91804 7.31323 6.94278
33 6 2.19628 0.287138 4.95651
34 6 2.53936 9.32053 3.5067
35 6 0.486817 5.13673 7.86182
36 6 4.26316 4.44515 0.653127
37 4 0.0979342 7.49052 1.85665
38 4 4.629 1.83234 6.85836
39 4 6.726 2.69936 2.41169
40 4 6.94671 6.89187 6.07663
41 4 5.17551 6.7253 2.74207
42 4 8.58455 2.71847 5.94456
43 4 1.70907 1.81935 1.38434
44 4 2.99647 7.84961 6.87824
45 1 4.54874 0.457462 12.325
46 1 0.863937 9.15733 13.3234
47 1 2.9684 5.26996 9.02084
48 1 2.43769 4.25254 16.6213
49 2 3.58738 8.37559 12.0064
50 2 1.72743 0.990655 13.8072
51 2 4.00414 3.78572 9.72986
52 2 1.46981 5.94912 16.0453
53 2 2.1337 8.20263 11.9799
54 2 3.1194 1.20704 13.6744
55 2 5.29597 3.37039 9.26515
56 2 9.17198 6.34372 16.4635
57 2 2.92685 6.73575 10.4862
58 2 2.42276 2.85765 15.2979
59 2 4.49327 1.79125 10.8413
60 2 0.785683 7.62337 14.6417
61 5 5.80278 0.576511 13.8014
62 5 8.50615 9.13848 12.0156
63 5 6.3148 5.60527 16.2287
64 5 8.11061 3.93395 9.50721
65 5 7.87413 0.246457 14.2915
66 5 6.33759 9.54287 11.348
67 5 4.25455 5.0681 15.7157
68 5 1.08365 4.54321 10.0564
69 3 4.14737 7.21577 11.3378
70 3 1.46728 1.90533 14.8759
71 3 3.54176 2.78076 10.6015
72 3 1.84578 6.88497 15.0823
73 3 1.85968 7.10077 11.2215
74 3 3.35831 2.4263 14.3564
75 3 5.54544 2.23845 10.0404
76 3 8.81491 7.32286 15.5809
77 6 6.94941 0.25713 13.5287
78 6 7.25779 9.28727 12.2383
79 6 5.19968 5.2259 16.4711
80 6 9.17121 4.44074 9.26378
81 4 4.81847 7.55495 10.6015
82 4 9.48852 1.89859 15.3477
83 4 2.74255 2.97399 11.281
84 4 2.59551 6.6544 14.3481
85 4 0.824777 6.7886 11.0551
86 4 4.42536 2.69133 14.4917
87 4 6.50456 1.75427 9.88117
88 4 7.8199 7.83162 15.6038
89 1 8.6831 10.2194 3.71683
90 1 5.04074 18.9353 4.71141
91 1 7.11508 15.0959 0.462142
92 1 6.63186 14.0308 8.02902
93 2 7.76577 18.4252 3.13222
94 2 5.8842 11.1595 5.08768
95 2 8.109 13.4317 0.958135
96 2 5.55152 15.6691 7.31247
97 2 6.4033 18.1255 3.40947
98 2 7.33177 11.3009 4.88734
99 2 0.420294 13.0666 0.649813
100 2 4.34764 16.2069 7.795
101 2 7.1461 16.6039 1.77945
102 2 6.68437 12.6033 6.58952
103 2 8.60254 11.6751 2.38026
104 2 5.01303 17.466 6.11156
105 5 1.16313 10.4832 5.09837
106 5 3.63841 18.8741 3.20911
107 5 1.50852 15.3304 7.56831
108 5 3.23625 13.9009 0.902808
109 5 3.12247 10.0297 5.81681
110 5 1.53268 19.137 2.68077
111 5 8.43609 14.8884 7.03788
112 5 5.24084 14.3078 1.4285
113 3 8.10202 17.5178 2.11457
114 3 5.68539 11.7078 6.3103
115 3 7.7213 12.6106 2.04327
116 3 5.91702 16.4691 6.36237
117 3 6.18768 16.9039 2.70296
118 3 7.74694 12.2373 5.79802
119 3 0.601237 12.0003 1.51311
120 3 3.96456 17.1454 6.89374
121 6 2.2768 10.0923 4.93361
122 6 2.48993 19.2468 3.44017
123 6 0.393945 15.0015 7.81215
124 6 4.33487 14.3123 0.654414
125 4 0.130513 17.2749 1.89775
126 4 4.64055 12.0273 6.50834
127 4 6.73244 12.5363 2.44742
128 4 6.94323 16.4911 5.92793
129 4 5.21404 16.4111 2.77398
130 4 8.55521 12.8596 5.62456
131 4 1.41859 11.3435 1.38675
132 4 3.2104 17.8717 7.11439
133 1 4.46359 10.2087 12.2837
134 1 0.835696 18.908 13.3974
135 1 2.8915 15.048 9.08018
136 1 2.40132 14.0603 16.5926
137 2 3.42673 18.402 11.7579
138 2 1.87776 10.73 13.9594
139 2 3.92125 13.45 9.63561
140 2 1.46439 15.6416 15.9982
141 2 2.0808 18.0867 12.1032
142 2 3.16944 11.1092 13.6009
143 2 5.18062 13.0995 9.25697
144 2 9.20245 16.0223 16.4434
145 2 2.98901 16.5438 10.4041
146 2 2.40339 12.6028 15.1943
147 2 4.68981 11.847 11.0308
148 2 0.771356 17.5156 14.8063
149 5 5.98366 10.3494 13.8028
150 5 8.50984 18.8237 11.8462
151 5 6.30982 15.4018 16.2055
152 5 8.12515 13.8921 9.44138
153 5 8.01177 10.0422 14.2797
154 5 6.37234 19.0844 11.36
155 5 4.38445 15.0018 15.6948
156 5 1.17671 14.2605 10.0228
157 3 3.98769 17.3912 10.831
158 3 1.53401 11.6271 14.9756
159 3 3.6739 12.6696 10.6705
160 3 1.70036 16.5717 15.0574
161 3 1.90503 16.998 11.2323
162 3 3.42455 12.1779 14.4068
163 3 5.4888 12.0658 10.0274
164 3 8.87432 17.1155 15.6861
165 6 7.03809 9.8909 13.5895
166 6 7.32667 19.0736 12.1213
167 6 5.29816 14.8289 16.4194
168 6 9.1791 14.4203 9.28
169 4 4.96301 17.4008 10.3132
170 4 0.611054 11.6644 15.5152
171 4 3.03986 12.9726 11.4533
172 4 2.73276 16.6934 14.7224
173 4 1.06937 16.3282 11.4216
174 4 4.22458 12.8529 14.2315
175 4 6.43248 11.5166 9.88259
176 4 7.91277 17.5439 15.7202
177 7 7.41375 13.3817 14.4101
178 8 6.90772 13.1265 15.2277
179 8 6.69277 13.3171 13.7743
180 7 6.93095 15.625 12.5325
181 8 6.91516 16.5911 12.7878
182 8 7.84841 15.5106 12.3846
183 7 5.31348 4.85384 12.9196
184 8 4.36418 4.92638 13.1063
185 8 5.5689 5.79662 12.8682
186 7 7.23214 5.18349 11.5803
187 8 7.3355 5.39707 12.5639
188 8 8.84506 4.13698 11.5562
189 7 2.89904 4.91387 4.40232
190 8 2.6453 5.82227 4.4867
191 8 2.31324 4.52709 3.76269
192 7 4.64679 2.81274 4.09841
193 8 4.67016 2.68103 3.14639
194 8 5.26477 3.51948 4.20885
195 9 3.05985 9.69551 9.72097
196 10 3.10893 9.06581 8.73728
197 10 2.49995 10.3624 10.6251
198 9 9.01776 11.7335 10.5711
199 10 8.43134 11.4908 11.5257
200 10 0.759795 11.7642 9.68525
201 9 7.21037 6.91232 9.89213
202 10 7.44447 6.46544 8.91591
203 10 7.00162 7.42247 10.8263
204 9 1.76629 10.7057 7.8064
205 10 1.09064 9.81778 7.43993
206 10 2.62867 11.2602 8.33292
207 9 6.33622 9.16166 7.3665
208 10 7.23492 8.97854 6.54346
209 10 5.76647 8.81031 8.31541
210 9 9.13759 7.9083 6.98726
211 10 0.888074 7.50603 6.15696
212 10 8.38827 7.98486 7.90303
ITEM: TIMESTEP
53
ITEM: NUMBER OF ATOMS
212
ITEM: BOX BOUNDS xy xz yz pp pp pp
-4.4395158392020129e-02 9.5948582061072223e+00 0.0000000000000000e+00
-9.6556897897539073e-02 1.9483555997897543e+01 6.3666284771518666e-01
-8.4981305613972324e-02 1.7147796405613981e+01 0.0000000000000000e+00
ITEM: ATOMS id type x y z
1 1 8.74198 0.431388 3.67177
2 1 4.98287 9.18789 4.74689
3 1 7.07791 5.36058 0.389527
4 1 6.62604 4.25067 8.03868
5 2 7.75068 8.63603 3.10833
6 2 6.15531 0.9732 5.41432
7 2 8.11957 3.66909 1.03196
8 2 5.54947 5.87055 7.31169
9 2 6.49976 8.2025 3.55003
10 2 7.39839 1.41745 4.87886
11 2 0.421344 3.36557 0.669186
12 2 4.3258 6.27868 7.85344
13 2 7.12804 6.77588 1.9157
14 2 6.60122 2.74295 6.6816
15 2 8.76105 1.86698 2.32017
16 2 4.80383 7.61129 5.88868
17 5 1.09728 0.688812 5.22277
18 5 3.67504 8.96626 3.24554
19 5 1.49697 5.58336 7.56616
20 5 3.15919 4.0765 1.00984
21 5 3.17027 0.223999 5.72509
22 5 1.558 9.40858 2.73751
23 5 8.57205 4.98702 7.08405
24 5 5.20798 4.52462 1.42735
25 3 8.10405 7.70151 2.18128
26 3 5.63904 1.8034 6.4393
27 3 7.766 2.81512 2.04474
28 3 5.88908 6.74687 6.30591
29 3 6.19548 7.08484 2.84935
30 3 7.57615 2.40035 5.73678
31 3 0.731852 2.30396 1.45769
32 3 3.91802 7.30844 6.94092
33 6 2.19334 0.284817 4.9517
34 6 2.54014 9.31999 3.50642
35 6 0.488597 5.134 7.86582
36 6 4.26146 4.44383 0.649681
37 4 0.100848 7.48361 1.8569
38 4 4.63079 1.83333 6.86025
39 4 6.73342 2.68705 2.41034
40 4 6.93804 6.88662 6.07186
41 4 5.17896 6.72475 2.74121
42 4 8.58378 2.7202 5.95277
43 4 1.70622 1.82 1.38081
44 4 2.98992 7.8436 6.87089
45 1 4.54936 0.45476 12.3263
46 1 0.862927 9.15745 13.3239
47 1 2.96837 5.26727 9.02038
48 1 2.43745 4.25118 16.6238
49 2 3.58832 8.36833 12.0136
50 2 1.72649 0.987888 13.8069
51 2 4.00727 3.7854 9.73042
52 2 1.46843 5.94803 16.0482
53 2 2.13232 8.20198 11.9809
54 2 3.11774 1.20253 13.6772
55 2 5.29534 3.37072 9.26495
56 2 9.17401 6.3437 16.4662
57 2 2.93045 6.7323 10.4897
58 2 2.4215 2.85577 15.2996
59 2 4.49341 1.78773 10.8399
60 2 0.783315 7.62345 14.641
61 5 5.80195 0.572363 13.803
62 5 8.50597 9.14132 12.0191
63 5 6.31401 5.6056 16.2306
64 5 8.11524 3.9293 9.5074
65 5 7.8717 0.24435 14.2919
66 5 6.33888 9.54839 11.3516
67 5 4.2545 5.06626 15.7181
68 5 1.08203 4.54294 10.0573
69 3 4.14662 7.20489 11.3465
70 3 1.46704 1.90481 14.8776
71 3 3.54284 2.77673 10.6019
72 3 1.84497 6.88667 15.0842
73 3 1.85746 7.09876 11.221
74 3 3.35728 2.42378 14.3583
75 3 5.54436 2.23383 10.0427
76 3 8.8158 7.32201 15.583
77 6 6.94978 0.254229 13.5288
78 6 7.25843 9.28696 12.2413
79 6 5.19876 5.22436 16.479
80 6 9.173 4.43825 9.26265
81 4 4.81512 7.54881 10.622
82 4 9.48942 1.89806 15.3449
83 4 2.74193 2.97345 11.2861
84 4 2.59393 6.64766 14.3508
85 4 0.821162 6.7946 11.0481
86 4 4.41715 2.68477 14.4978
87 4 6.50754 1.75308 9.87425
88 4 7.82963 7.82957 15.6008
89 1 8.68411 10.2191 3.71581
90 1 5.04091 18.938 4.70961
91 1 7.11562 15.0966 0.460088
92 1 6.63294 14.0319 8.0293
93 2 7.76678 18.4289 3.13149
94 2 5.88457 11.1652 5.08029
95 2 8.10902 13.4325 0.95559
96 2 5.54937 15.6685 7.31264
97 2 6.40374 18.129 3.40687
98 2 7.33133 11.304 4.88497
99 2 0.419638 13.0664 0.647378
100 2 4.34757 16.2101 7.79492
101 2 7.14709 16.6051 1.77738
102 2 6.68604 12.6065 6.58969
103 2 8.60231 11.6733 2.3804
104 2 5.01408 17.4701 6.10837
105 5 1.1639 10.485 5.09473
106 5 3.63835 18.8788 3.20578
107 5 1.50546 15.3316 7.56792
108 5 3.2367 13.903 0.901398
109 5 3.12045 10.0298 5.81603
110 5 1.53361 19.1392 2.6795
111 5 8.43859 14.8893 7.03907
112 5 5.23974 14.3098 1.42638
113 3 8.10278 17.5193 2.11171
114 3 5.68558 11.7109 6.30928
115 3 7.72268 12.6112 2.04158
116 3 5.91667 16.471 6.35891
117 3 6.19076 16.9056 2.7002
118 3 7.74841 12.2374 5.79775
119 3 0.598239 12.0009 1.51148
120 3 3.96337 17.1474 6.89263
121 6 2.2774 10.093 4.93076
122 6 2.48626 19.2525 3.4402
123 6 0.393405 15.0054 7.8107
124 6 4.33633 14.315 0.650976
125 4 0.13178 17.2762 1.9037
126 4 4.64862 12.0405 6.50624
127 4 6.72651 12.5419 2.4381
128 4 6.93464 16.5002 5.92431
129 4 5.21304 16.4214 2.77903
130 4 8.56477 12.8694 5.61909
131 4 1.41717 11.3375 1.38385
132 4 3.21257 17.8824 7.11616
133 1 4.46289 10.2081 12.2845
134 1 0.834112 18.9103 13.3992
135 1 2.89012 15.048 9.08065
136 1 2.40053 14.0619 16.5944
137 2 3.4265 18.4044 11.7582
138 2 1.87731 10.7285 13.9614
139 2 3.92028 13.4531 9.6355
140 2 1.46204 15.6406 16.0024
141 2 2.07793 18.089 12.1037
142 2 3.17002 11.1088 13.6025
143 2 5.18196 13.1005 9.25555
144 2 9.20508 16.023 16.4461
145 2 2.98867 16.5441 10.4046
146 2 2.40294 12.6062 15.197
147 2 4.69328 11.849 11.0351
148 2 0.770517 17.5191 14.8082
149 5 5.98537 10.3482 13.8046
150 5 8.50995 18.8283 11.8468
151 5 6.30992 15.4051 16.2081
152 5 8.12976 13.8949 9.44083
153 5 8.01216 10.0427 14.2796
154 5 6.37454 19.0854 11.362
155 5 4.38625 15.0048 15.6976
156 5 1.17592 14.2631 10.0218
157 3 3.98604 17.3921 10.8341
158 3 1.53446 11.6268 14.9777
159 3 3.67652 12.672 10.6729
160 3 1.69853 16.5762 15.0568
161 3 1.90487 17.0014 11.2322
162 3 3.42411 12.1766 14.4078
163 3 5.48963 12.0658 10.0268
164 3 8.87555 17.1177 15.6896
165 6 7.03867 9.88899 13.5926
166 6 7.32747 19.0751 12.1224
167 6 5.2985 14.8282 16.4232
168 6 9.17963 14.4238 9.28194
169 4 4.96146 17.4075 10.3233
170 4 0.606121 11.659 15.5123
171 4 3.04375 12.9835 11.4615
172 4 2.72875 16.6991 14.7271
173 4 1.07389 16.3287 11.4193
174 4 4.22329 12.8624 14.2326
175 4 6.42836 11.5208 9.88044
176 4 7.9056 17.5456 15.7286
177 7 7.41619 13.3819 14.4119
178 8 6.91397 13.1306 15.2322
179 8 6.69348 13.3275 13.7777
180 7 6.93166 15.6261 12.534
181 8 6.91693 16.5917 12.7884
182 8 7.84856 15.5187 12.3821
183 7 5.31243 4.85197 12.9202
184 8 4.36508 4.91986 13.1128
185 8 5.56664 5.79451 12.8562
186 7 7.23723 5.16945 11.5881
187 8 7.32287 5.3919 12.5754
188 8 8.84459 4.10255 11.5718
189 7 2.89595 4.9154 4.39928
190 8 2.64376 5.82112 4.49476
191 8 2.32313 4.51764 3.75849
192 7 4.6464 2.81122 4.09508
193 8 4.6791 2.68022 3.14417
194 8 5.26323 3.51758 4.19861
195 9 3.05782 9.69755 9.71613
196 10 3.10447 9.07504 8.73094
197 10 2.49576 10.3603 10.6237
198 9 9.0194 11.7344 10.5702
199 10 8.4335 11.4968 11.5272
200 10 0.75798 11.7594 9.68434
201 9 7.20975 6.9165 9.89016
202 10 7.44674 6.46889 8.91488
203 10 6.99948 7.42377 10.8215
204 9 1.76577 10.7078 7.80404
205 10 1.0896 9.81819 7.44154
206 10 2.62997 11.2613 8.32988
207 9 6.3394 9.16377 7.36974
208 10 7.24012 8.97425 6.54767
209 10 5.76897 8.81436 8.3206
210 9 9.13971 7.90896 6.98709
211 10 0.884865 7.50799 6.15528
212 10 8.39294 7.98466 7.90339
ITEM: TIMESTEP
54
ITEM: NUMBER OF ATOMS
212
ITEM: BOX BOUNDS xy xz yz pp pp pp
-4.5668711332278455e-02 9.5963118902752989e+00 0.0000000000000000e+00
-9.9326801771601581e-02 1.9486325901771604e+01 6.3684297894300379e-01
-8.7419143332132521e-02 1.7150234243332143e+01 0.0000000000000000e+00
ITEM: ATOMS id type x y z
1 1 8.74408 0.428422 3.66996
2 1 4.98202 9.18866 4.74568
3 1 7.07776 5.35948 0.386429
4 1 6.62717 4.24919 8.0392
5 2 7.75281 8.63711 3.1075
6 2 6.15968 0.968355 5.41352
7 2 8.1198 3.6685 1.02949
8 2 5.54763 5.86728 7.30921
9 2 6.50032 8.20182 3.55001
10 2 7.39764 1.41412 4.87759
11 2 0.421555 3.36426 0.666862
12 2 4.32365 6.28006 7.85195
13 2 7.12982 6.77247 1.91375
14 2 6.60024 2.74111 6.68359
15 2 8.76152 1.86354 2.31939
16 2 4.80054 7.60864 5.88306
17 5 1.09801 0.686561 5.22276
18 5 3.67357 8.96673 3.24362
19 5 1.49561 5.58222 7.56631
20 5 3.15985 4.0758 1.00957
21 5 3.16938 0.22137 5.72466
22 5 1.55895 9.40888 2.73687
23 5 8.57464 4.98288 7.08277
24 5 5.20631 4.52401 1.42508
25 3 8.10434 7.70055 2.1805
26 3 5.6419 1.80035 6.44066
27 3 7.76903 2.81208 2.04318
28 3 5.88498 6.74507 6.30212
29 3 6.19711 7.08368 2.85104
30 3 7.57836 2.39871 5.73541
31 3 0.731505 2.30206 1.45593
32 3 3.91807 7.3036 6.939
33 6 2.1905 0.282429 4.94682
34 6 2.54084 9.31951 3.50619
35 6 0.490206 5.13116 7.86983
36 6 4.25985 4.44254 0.646223
37 4 0.103966 7.47688 1.85716
38 4 4.63264 1.8342 6.86204
39 4 6.74101 2.6748 2.40886
40 4 6.92929 6.88101 6.06672
41 4 5.18235 6.72417 2.74048
42 4 8.58312 2.72201 5.96082
43 4 1.70332 1.82062 1.3773
44 4 2.98329 7.83729 6.86385
45 1 4.54997 0.452041 12.3276
46 1 0.861904 9.15757 13.3244
47 1 2.96834 5.26457 9.01991
48 1 2.4372 4.24982 16.6263
49 2 3.58919 8.36097 12.0208
50 2 1.72562 0.985159 13.8066
51 2 4.01042 3.785 9.73096
52 2 1.467 5.94695 16.0511
53 2 2.13104 8.20129 11.9819
54 2 3.11604 1.19807 13.6799
55 2 5.29463 3.37101 9.2648
56 2 9.17607 6.34364 16.4688
57 2 2.93421 6.72882 10.4934
58 2 2.42023 2.85382 15.3013
59 2 4.49357 1.78424 10.8385
60 2 0.780944 7.62356 14.6404
61 5 5.80114 0.568199 13.8046
62 5 8.50572 9.14412 12.0225
63 5 6.31324 5.60595 16.2325
64 5 8.11984 3.92462 9.50757
65 5 7.8693 0.242238 14.2924
66 5 6.34022 9.55395 11.3553
67 5 4.25446 5.06443 15.7204
68 5 1.08042 4.54266 10.0581
69 3 4.14556 7.19413 11.355
70 3 1.46678 1.90427 14.8793
71 3 3.54399 2.77271 10.6023
72 3 1.84411 6.88832 15.086
73 3 1.85525 7.09678 11.2206
74 3 3.35628 2.42123 14.3603
75 3 5.54327 2.22925 10.0451
76 3 8.81672 7.32118 15.585
77 6 6.95017 0.251263 13.5288
78 6 7.25909 9.28676 12.2444
79 6 5.19775 5.22273 16.487
80 6 9.17488 4.43578 9.26149
81 4 4.8122 7.54264 10.6423
82 4 9.49029 1.89762 15.3421
83 4 2.74114 2.97283 11.2912
84 4 2.59255 6.64085 14.3535
85 4 0.817637 6.80069 11.041
86 4 4.4088 2.67825 14.5041
87 4 6.51037 1.75162 9.86749
88 4 7.83956 7.82737 15.5978
89 1 8.68513 10.2189 3.71478
90 1 5.04109 18.9408 4.70781
91 1 7.11616 15.0974 0.458018
92 1 6.63403 14.0331 8.02957
93 2 7.76775 18.4325 3.13071
94 2 5.88507 11.1708 5.07294
95 2 8.10905 13.4333 0.953098
96 2 5.54719 15.6678 7.31286
97 2 6.40425 18.1325 3.40423
98 2 7.33081 11.307 4.88264
99 2 0.418929 13.0662 0.644961
100 2 4.34748 16.2131 7.79482
101 2 7.14809 16.6062 1.77532
102 2 6.68771 12.6098 6.58987
103 2 8.60211 11.6715 2.38051
104 2 5.01513 17.4742 6.10517
105 5 1.16464 10.4868 5.09108
106 5 3.63827 18.8836 3.20242
107 5 1.50244 15.3327 7.56749
108 5 3.23711 13.9051 0.899987
109 5 3.11846 10.03 5.8152
110 5 1.53454 19.1415 2.67823
111 5 8.44111 14.8903 7.04027
112 5 5.23867 14.3118 1.42427
113 3 8.10353 17.5209 2.10886
114 3 5.68574 11.7142 6.3082
115 3 7.72408 12.6119 2.03984
116 3 5.91635 16.4731 6.35539
117 3 6.19381 16.9073 2.69747
118 3 7.7498 12.2375 5.79747
119 3 0.595249 12.0014 1.50983
120 3 3.96222 17.1493 6.89154
121 6 2.27805 10.0936 4.92783
122 6 2.48259 19.2582 3.44031
123 6 0.392786 15.0093 7.80932
124 6 4.3378 14.3177 0.647471
125 4 0.133117 17.2776 1.90959
126 4 4.65687 12.0537 6.50421
127 4 6.72041 12.5476 2.4287
128 4 6.92585 16.5093 5.92081
129 4 5.21214 16.4317 2.78389
130 4 8.57468 12.8794 5.61351
131 4 1.41599 11.3313 1.38084
132 4 3.21463 17.8932 7.11808
133 1 4.46221 10.2076 12.2853
134 1 0.832514 18.9126 13.401
135 1 2.88873 15.0479 9.08111
136 1 2.39973 14.0636 16.5963
137 2 3.4263 18.4067 11.7585
138 2 1.87688 10.727 13.9636
139 2 3.91933 13.4562 9.6354
140 2 1.45965 15.6396 16.0067
141 2 2.07516 18.0913 12.1041
142 2 3.17057 11.1083 13.6042
143 2 5.18331 13.1015 9.25412
144 2 9.2077 16.0236 16.4489
145 2 2.98828 16.5443 10.4051
146 2 2.40252 12.6097 15.1997
147 2 4.6967 11.8508 11.0394
148 2 0.769703 17.5228 14.81
149 5 5.987 10.3471 13.8064
150 5 8.51004 18.8329 11.8474
151 5 6.31006 15.4085 16.2107
152 5 8.13432 13.8977 9.44031
153 5 8.0126 10.0432 14.2796
154 5 6.37674 19.0865 11.3641
155 5 4.38798 15.0079 15.7004
156 5 1.17509 14.2657 10.0207
157 3 3.98429 17.3932 10.8373
158 3 1.53489 11.6265 14.9799
159 3 3.67915 12.6743 10.6753
160 3 1.69677 16.5807 15.0563
161 3 1.90474 17.0047 11.232
162 3 3.42365 12.1754 14.4088
163 3 5.49053 12.0659 10.0262
164 3 8.87676 17.12 15.6932
165 6 7.03928 9.88706 13.5957
166 6 7.32824 19.0766 12.1235
167 6 5.29883 14.8275 16.4271
168 6 9.18024 14.4274 9.28384
169 4 4.9598 17.4144 10.3336
170 4 0.60091 11.6534 15.5093
171 4 3.04728 12.9945 11.4697
172 4 2.72469 16.7048 14.7317
173 4 1.07835 16.3293 11.417
174 4 4.22224 12.8718 14.2336
175 4 6.42417 11.5251 9.87838
176 4 7.89818 17.5475 15.7371
177 7 7.41859 13.3821 14.4137
178 8 6.92061 13.1349 15.2363
179 8 6.69435 13.338 13.781
180 7 6.93234 15.6273 12.5355
181 8 6.91857 16.5916 12.7888
182 8 7.84921 15.5265 12.3796
183 7 5.31136 4.85011 12.9208
184 8 4.36598 4.91335 13.1194
185 8 5.56417 5.7922 12.8442
186 7 7.24242 5.15537 11.5959
187 8 7.31021 5.38651 12.5862
188 8 8.84316 4.0689 11.5873
189 7 2.89289 4.91691 4.39625
190 8 2.64201 5.82018 4.5028
191 8 2.33288 4.50817 3.75414
192 7 4.64599 2.80969 4.09171
193 8 4.6879 2.67939 3.14194
194 8 5.26181 3.51595 4.18855
195 9 3.05562 9.69965 9.7114
196 10 3.10006 9.08423 8.72468
197 10 2.49166 10.358 10.6221
198 9 9.02107 11.7352 10.5694
199 10 8.43565 11.5028 11.5288
200 10 0.756142 11.7545 9.68341
201 9 7.20916 6.9206 9.88812
202 10 7.44901 6.47225 8.91375
203 10 6.99732 7.42503 10.8169
204 9 1.76525 10.7099 7.80168
205 10 1.08853 9.81865 7.4432
206 10 2.63126 11.2626 8.3268
207 9 6.34274 9.16578 7.37288
208 10 7.24517 8.9701 6.55189
209 10 5.77146 8.81846 8.3258
210 9 9.14185 7.90953 6.98695
211 10 0.881598 7.51 6.15359
212 10 8.39771 7.98447 7.90373
ITEM: TIMESTEP
55
ITEM: NUMBER OF ATOMS
212
ITEM: BOX BOUNDS xy xz yz pp pp pp
-4.6947774821014754e-02 9.5977718644033949e+00 0.0000000000000000e+00
-1.0210869076940376e-01 1.9489107790769406e+01 6.3702388958236467e-01
-8.9867529353783837e-02 1.7152682629353794e+01 0.0000000000000000e+00
ITEM: ATOMS id type x y z
1 1 8.74619 0.42545 3.66815
2 1 4.98117 9.18943 4.74446
3 1 7.07762 5.35838 0.383329
4 1 6.6283 4.24769 8.03972
5 2 7.75491 8.63816 3.10668
6 2 6.16403 0.96348 5.41272
7 2 8.12005 3.66793 1.027
8 2 5.54576 5.864 7.30673
9 2 6.50088 8.20116 3.54995
10 2 7.39684 1.41073 4.87639
11 2 0.421747 3.36293 0.664554
12 2 4.32148 6.28147 7.85034
13 2 7.13163 6.76904 1.91179
14 2 6.59928 2.73926 6.68555
15 2 8.76196 1.86012 2.31857
16 2 4.79733 7.60596 5.87754
17 5 1.0987 0.684301 5.22276
18 5 3.6721 8.9672 3.24168
19 5 1.49435 5.58109 7.56648
20 5 3.1605 4.07509 1.00926
21 5 3.16846 0.218733 5.72421
22 5 1.55992 9.40916 2.73623
23 5 8.57724 4.97872 7.08147
24 5 5.20464 4.52339 1.4228
25 3 8.1046 7.69956 2.17969
26 3 5.64487 1.7973 6.44197
27 3 7.7721 2.80898 2.04161
28 3 5.88077 6.74327 6.29832
29 3 6.19875 7.08252 2.85268
30 3 7.58059 2.39714 5.7341
31 3 0.731155 2.30012 1.45417
32 3 3.91818 7.29872 6.93701
33 6 2.18778 0.279978 4.9419
34 6 2.54147 9.3191 3.50601
35 6 0.491634 5.12822 7.87386
36 6 4.25832 4.4413 0.642761
37 4 0.107227 7.47036 1.85745
38 4 4.63455 1.83494 6.86374
39 4 6.74873 2.66262 2.40724
40 4 6.92051 6.87507 6.06122
41 4 5.18566 6.72356 2.73988
42 4 8.58257 2.72387 5.96867
43 4 1.70038 1.82116 1.37379
44 4 2.97663 7.83066 6.85715
45 1 4.55058 0.449305 12.329
46 1 0.860869 9.15769 13.325
47 1 2.9683 5.26187 9.01946
48 1 2.43696 4.24845 16.6288
49 2 3.58998 8.3535 12.028
50 2 1.72483 0.982471 13.8064
51 2 4.01359 3.78454 9.7315
52 2 1.46552 5.94589 16.0539
53 2 2.12986 8.20057 11.9829
54 2 3.11429 1.19369 13.6827
55 2 5.29387 3.37124 9.26472
56 2 9.17813 6.34356 16.4714
57 2 2.93812 6.7253 10.4972
58 2 2.41894 2.85179 15.3028
59 2 4.49373 1.78076 10.8371
60 2 0.778571 7.6237 14.6398
61 5 5.80034 0.564019 13.8062
62 5 8.50541 9.14689 12.026
63 5 6.31248 5.60629 16.2344
64 5 8.12444 3.9199 9.50773
65 5 7.86696 0.24012 14.2928
66 5 6.3416 9.55954 11.359
67 5 4.25443 5.06262 15.7227
68 5 1.07882 4.54236 10.059
69 3 4.14421 7.1835 11.3633
70 3 1.46651 1.90368 14.881
71 3 3.54521 2.76871 10.6027
72 3 1.84322 6.88992 15.0878
73 3 1.85304 7.09484 11.2202
74 3 3.3553 2.41862 14.3622
75 3 5.54218 2.22472 10.0474
76 3 8.81767 7.32037 15.5871
77 6 6.95059 0.248236 13.5288
78 6 7.25977 9.28666 12.2474
79 6 5.19665 5.22101 16.4951
80 6 9.17687 4.43333 9.26033
81 4 4.80976 7.53643 10.6624
82 4 9.49111 1.89725 15.3392
83 4 2.74024 2.97212 11.2964
84 4 2.59134 6.63397 14.3563
85 4 0.814209 6.80685 11.0336
86 4 4.40039 2.6718 14.5103
87 4 6.51302 1.74987 9.86092
88 4 7.8496 7.82506 15.5949
89 1 8.68616 10.2187 3.71374
90 1 5.04127 18.9436 4.706
91 1 7.11671 15.0982 0.455935
92 1 6.63512 14.0342 8.02985
93 2 7.76866 18.4362 3.1299
94 2 5.88571 11.1763 5.06565
95 2 8.1091 13.4341 0.95066
96 2 5.545 15.6672 7.31313
97 2 6.40481 18.1359 3.40154
98 2 7.33022 11.3101 4.88034
99 2 0.418165 13.066 0.642565
100 2 4.34738 16.2161 7.79471
101 2 7.1491 16.6074 1.77328
102 2 6.68939 12.6131 6.59006
103 2 8.60194 11.6696 2.38058
104 2 5.01619 17.4783 6.10195
105 5 1.16535 10.4886 5.08743
106 5 3.63817 18.8884 3.19905
107 5 1.49946 15.3339 7.56702
108 5 3.2375 13.9072 0.898575
109 5 3.1165 10.0301 5.81432
110 5 1.53546 19.1438 2.67696
111 5 8.44366 14.8913 7.04147
112 5 5.23764 14.3138 1.42217
113 3 8.10428 17.5226 2.10604
114 3 5.68588 11.7175 6.30706
115 3 7.72547 12.6127 2.03804
116 3 5.91604 16.4752 6.35183
117 3 6.19684 16.9092 2.69476
118 3 7.75111 12.2376 5.79718
119 3 0.592275 12.002 1.50817
120 3 3.96111 17.1513 6.89046
121 6 2.27873 10.0942 4.92483
122 6 2.47893 19.264 3.44048
123 6 0.392082 15.0131 7.80802
124 6 4.33927 14.3204 0.643904
125 4 0.134504 17.279 1.91542
126 4 4.66525 12.0667 6.50224
127 4 6.71418 12.5534 2.41924
128 4 6.91697 16.5183 5.91743
129 4 5.21133 16.442 2.78852
130 4 8.58483 12.8895 5.60785
131 4 1.41502 11.3252 1.37773
132 4 3.21663 17.9039 7.12016
133 1 4.46153 10.2071 12.2861
134 1 0.830902 18.9149 13.4028
135 1 2.88735 15.0479 9.08157
136 1 2.39894 14.0652 16.5981
137 2 3.42612 18.409 11.7587
138 2 1.87646 10.7255 13.9657
139 2 3.91842 13.4595 9.63531
140 2 1.45721 15.6386 16.0109
141 2 2.07249 18.0936 12.1045
142 2 3.17109 11.1079 13.6058
143 2 5.18468 13.1026 9.25268
144 2 9.2103 16.0243 16.4516
145 2 2.98785 16.5447 10.4057
146 2 2.40212 12.6132 15.2025
147 2 4.70006 11.8527 11.0438
148 2 0.768911 17.5264 14.8119
149 5 5.98858 10.3459 13.8082
150 5 8.51011 18.8375 11.848
151 5 6.31025 15.4118 16.2134
152 5 8.13884 13.9004 9.43983
153 5 8.01307 10.0438 14.2796
154 5 6.37894 19.0876 11.3661
155 5 4.38964 15.0109 15.7032
156 5 1.17423 14.2684 10.0196
157 3 3.98244 17.3943 10.8405
158 3 1.53531 11.6262 14.982
159 3 3.68179 12.6766 10.6778
160 3 1.69507 16.5852 15.0558
161 3 1.90465 17.0081 11.2318
162 3 3.42319 12.1742 14.4099
163 3 5.4915 12.0659 10.0256
164 3 8.87795 17.1222 15.6967
165 6 7.03993 9.88509 13.5988
166 6 7.32899 19.0783 12.1247
167 6 5.29915 14.8268 16.431
168 6 9.18094 14.4311 9.28569
169 4 4.95805 17.4214 10.3439
170 4 0.595453 11.6477 15.5062
171 4 3.05049 13.0057 11.478
172 4 2.72063 16.7107 14.7363
173 4 1.08272 16.33 11.4147
174 4 4.22137 12.8812 14.2344
175 4 6.41998 11.5295 9.87641
176 4 7.89062 17.5496 15.7456
177 7 7.42098 13.3823 14.4156
178 8 6.92762 13.1393 15.24
179 8 6.69538 13.3486 13.7842
180 7 6.933 15.6286 12.5371
181 8 6.92008 16.591 12.7891
182 8 7.85037 15.5341 12.377
183 7 5.31028 4.84826 12.9215
184 8 4.36683 4.90688 13.1261
185 8 5.56149 5.78969 12.8324
186 7 7.24768 5.14125 11.6039
187 8 7.29755 5.3809 12.596
188 8 8.84082 4.036 11.6027
189 7 2.88986 4.9184 4.39323
190 8 2.64004 5.81948 4.51079
191 8 2.34246 4.49869 3.74962
192 7 4.64555 2.80815 4.08829
193 8 4.69655 2.67851 3.13968
194 8 5.26054 3.51464 4.1787
195 9 3.05324 9.70182 9.70682
196 10 3.0957 9.0934 8.71849
197 10 2.48766 10.3557 10.6204
198 9 9.02279 11.7359 10.5686
199 10 8.43778 11.5089 11.5303
200 10 0.754282 11.7496 9.68246
201 9 7.2086 6.92463 9.88598
202 10 7.45128 6.47551 8.91252
203 10 6.99513 7.42628 10.8125
204 9 1.76472 10.7118 7.79932
205 10 1.08744 9.81917 7.44489
206 10 2.63255 11.2639 8.32367
207 9 6.34623 9.16767 7.37594
208 10 7.25009 8.9661 6.55613
209 10 5.77395 8.82261 8.33101
210 9 9.14403 7.90999 6.98684
211 10 0.878274 7.51206 6.1519
212 10 8.40259 7.98429 7.90403
ITEM: TIMESTEP
56
ITEM: NUMBER OF ATOMS
212
ITEM: BOX BOUNDS xy xz yz pp pp pp
-4.8231885455633616e-02 9.5992375995452939e+00 0.0000000000000000e+00
-1.0490155701714166e-01 1.9491900657017144e+01 6.3720551408964266e-01
-9.2325576632704909e-02 1.7155140676632719e+01 0.0000000000000000e+00
ITEM: ATOMS id type x y z
1 1 8.7483 0.422473 3.66633
2 1 4.98033 9.1902 4.74323
3 1 7.07748 5.35727 0.380228
4 1 6.62944 4.24619 8.04025
5 2 7.75701 8.63918 3.10589
6 2 6.16834 0.958578 5.41191
7 2 8.1203 3.66737 1.0245
8 2 5.54384 5.86071 7.30427
9 2 6.50142 8.20053 3.54987
10 2 7.39598 1.40729 4.87525
11 2 0.421919 3.36159 0.662263
12 2 4.31928 6.28289 7.84862
13 2 7.13345 6.7656 1.90983
14 2 6.59832 2.73741 6.68749
15 2 8.76238 1.85672 2.31773
16 2 4.79421 7.60323 5.87213
17 5 1.09937 0.682035 5.22276
18 5 3.67063 8.96765 3.23972
19 5 1.49319 5.57996 7.56666
20 5 3.16113 4.07438 1.00891
21 5 3.16751 0.216088 5.72372
22 5 1.56093 9.40943 2.7356
23 5 8.57984 4.97456 7.08015
24 5 5.20297 4.52277 1.4205
25 3 8.10485 7.69855 2.17885
26 3 5.64792 1.79423 6.44322
27 3 7.77521 2.80584 2.04004
28 3 5.87646 6.74145 6.29451
29 3 6.2004 7.08136 2.85426
30 3 7.58283 2.39564 5.73288
31 3 0.730796 2.29817 1.45241
32 3 3.91835 7.29382 6.93496
33 6 2.18517 0.277464 4.93694
34 6 2.54202 9.31875 3.50588
35 6 0.492875 5.12516 7.87787
36 6 4.25689 4.4401 0.639301
37 4 0.11057 7.46406 1.85781
38 4 4.63652 1.83554 6.86533
39 4 6.75653 2.65053 2.40549
40 4 6.91175 6.86882 6.05534
41 4 5.18888 6.72292 2.73942
42 4 8.58215 2.72577 5.9763
43 4 1.69746 1.82163 1.3703
44 4 2.97001 7.82368 6.85082
45 1 4.55119 0.446555 12.3303
46 1 0.859823 9.15781 13.3255
47 1 2.96826 5.25918 9.01901
48 1 2.43672 4.24708 16.6314
49 2 3.59069 8.34593 12.0351
50 2 1.72411 0.979827 13.8063
51 2 4.01677 3.78402 9.73203
52 2 1.464 5.94484 16.0568
53 2 2.12879 8.19982 11.9841
54 2 3.1125 1.18938 13.6855
55 2 5.29304 3.37143 9.26471
56 2 9.18022 6.34345 16.474
57 2 2.94217 6.72176 10.5011
58 2 2.41764 2.84968 15.3043
59 2 4.4939 1.7773 10.8357
60 2 0.776198 7.62387 14.6392
61 5 5.79956 0.559825 13.8079
62 5 8.50505 9.14962 12.0294
63 5 6.31174 5.60664 16.2363
64 5 8.12902 3.91515 9.50787
65 5 7.86466 0.237998 14.2934
66 5 6.34303 9.56518 11.3629
67 5 4.25442 5.06081 15.725
68 5 1.07723 4.54205 10.0598
69 3 4.14256 7.173 11.3715
70 3 1.46623 1.90306 14.8827
71 3 3.54649 2.76474 10.603
72 3 1.84228 6.89147 15.0897
73 3 1.85083 7.09292 11.2199
74 3 3.35433 2.41596 14.3642
75 3 5.54109 2.22026 10.0497
76 3 8.81867 7.31957 15.5891
77 6 6.95104 0.245149 13.5287
78 6 7.26046 9.28665 12.2504
79 6 5.19546 5.21921 16.5032
80 6 9.17896 4.43092 9.25916
81 4 4.80786 7.5302 10.6823
82 4 9.49189 1.89698 15.3364
83 4 2.73927 2.97132 11.3017
84 4 2.59029 6.62705 14.3591
85 4 0.810884 6.81309 11.0261
86 4 4.392 2.66542 14.5167
87 4 6.51545 1.74783 9.85456
88 4 7.85965 7.82267 15.5921
89 1 8.6872 10.2184 3.71269
90 1 5.04145 18.9464 4.70419
91 1 7.11727 15.0989 0.453838
92 1 6.63621 14.0354 8.03011
93 2 7.76952 18.4398 3.12904
94 2 5.88648 11.1817 5.05841
95 2 8.10916 13.4349 0.948276
96 2 5.54278 15.6665 7.31343
97 2 6.40542 18.1392 3.39881
98 2 7.32957 11.3131 4.87808
99 2 0.417343 13.0659 0.640188
100 2 4.34725 16.219 7.79459
101 2 7.15012 16.6085 1.77126
102 2 6.69106 12.6164 6.59025
103 2 8.6018 11.6677 2.38061
104 2 5.01725 17.4824 6.0987
105 5 1.16602 10.4905 5.08378
106 5 3.63803 18.8932 3.19566
107 5 1.49653 15.3351 7.56652
108 5 3.23786 13.9093 0.89716
109 5 3.11458 10.0302 5.81338
110 5 1.53636 19.1461 2.67569
111 5 8.44622 14.8923 7.04267
112 5 5.23666 14.3158 1.42009
113 3 8.10503 17.5243 2.10324
114 3 5.68601 11.7209 6.30586
115 3 7.72687 12.6135 2.03619
116 3 5.91575 16.4774 6.34822
117 3 6.19984 16.9111 2.69209
118 3 7.75237 12.2376 5.79687
119 3 0.589319 12.0026 1.50648
120 3 3.96003 17.1533 6.88939
121 6 2.27946 10.0948 4.92176
122 6 2.47531 19.2697 3.44071
123 6 0.391292 15.0168 7.8068
124 6 4.34073 14.3231 0.64028
125 4 0.135919 17.2804 1.92117
126 4 4.6737 12.0795 6.50033
127 4 6.70788 12.5592 2.4097
128 4 6.90807 16.5271 5.91414
129 4 5.21063 16.4521 2.79292
130 4 8.59509 12.8996 5.60214
131 4 1.4142 11.3191 1.37452
132 4 3.21858 17.9145 7.12238
133 1 4.46087 10.2066 12.287
134 1 0.829276 18.9173 13.4046
135 1 2.88597 15.0479 9.08202
136 1 2.39816 14.0668 16.6
137 2 3.42595 18.4113 11.7589
138 2 1.87605 10.7241 13.9679
139 2 3.91754 13.4628 9.63523
140 2 1.45472 15.6377 16.0152
141 2 2.06993 18.0958 12.1048
142 2 3.17156 11.1075 13.6074
143 2 5.18607 13.1036 9.25124
144 2 9.2129 16.025 16.4543
145 2 2.98739 16.545 10.4063
146 2 2.40175 12.6167 15.2052
147 2 4.70337 11.8545 11.0482
148 2 0.768138 17.53 14.8137
149 5 5.99008 10.3448 13.8101
150 5 8.51016 18.8422 11.8486
151 5 6.31048 15.4152 16.2161
152 5 8.14331 13.9032 9.43938
153 5 8.01358 10.0443 14.2796
154 5 6.38114 19.0887 11.3682
155 5 4.39122 15.014 15.706
156 5 1.17333 14.2711 10.0185
157 3 3.98048 17.3955 10.8437
158 3 1.5357 11.6258 14.9841
159 3 3.68443 12.6789 10.6803
160 3 1.69342 16.5897 15.0553
161 3 1.90459 17.0115 11.2316
162 3 3.42273 12.173 14.411
163 3 5.49253 12.0659 10.025
164 3 8.87912 17.1244 15.7003
165 6 7.04061 9.8831 13.6018
166 6 7.32971 19.08 12.126
167 6 5.29947 14.826 16.4349
168 6 9.18174 14.4348 9.2875
169 4 4.95623 17.4285 10.3544
170 4 0.589787 11.6419 15.5029
171 4 3.05344 13.017 11.4862
172 4 2.71659 16.7166 14.7407
173 4 1.08699 16.3307 11.4123
174 4 4.22065 12.8904 14.235
175 4 6.41586 11.534 9.87452
176 4 7.88298 17.5518 15.7541
177 7 7.42334 13.3825 14.4175
178 8 6.93499 13.1438 15.2432
179 8 6.69655 13.3593 13.7873
180 7 6.93364 15.6299 12.5387
181 8 6.92143 16.5897 12.7893
182 8 7.85201 15.5414 12.3743
183 7 5.3092 4.84642 12.9221
184 8 4.36762 4.90046 13.133
185 8 5.55857 5.78698 12.8207
186 7 7.25301 5.12709 11.6119
187 8 7.2849 5.37503 12.605
188 8 8.83761 4.00386 11.6179
189 7 2.88685 4.91987 4.39022
190 8 2.63782 5.81901 4.51872
191 8 2.35185 4.48922 3.7449
192 7 4.6451 2.80659 4.08484
193 8 4.70502 2.67755 3.13737
194 8 5.25943 3.51366 4.16909
195 9 3.05068 9.70407 9.70237
196 10 3.09141 9.10252 8.71237
197 10 2.48374 10.3533 10.6186
198 9 9.02455 11.7367 10.5678
199 10 8.4399 11.5151 11.5319
200 10 0.752402 11.7448 9.6815
201 9 7.20808 6.92857 9.88374
202 10 7.45355 6.47868 8.91118
203 10 6.99291 7.42751 10.8082
204 9 1.76419 10.7137 7.79697
205 10 1.08632 9.81974 7.44662
206 10 2.63383 11.2653 8.32048
207 9 6.34988 9.16945 7.37891
208 10 7.25486 8.96224 6.56039
209 10 5.77642 8.82681 8.33621
210 9 9.14623 7.91035 6.98675
211 10 0.874896 7.51417 6.1502
212 10 8.40758 7.98413 7.9043
ITEM: TIMESTEP
57
ITEM: NUMBER OF ATOMS
212
ITEM: BOX BOUNDS xy xz yz pp pp pp
-4.9520567717256547e-02 9.6007085529247593e+00 0.0000000000000000e+00
-1.0770436628880020e-01 1.9494703466288804e+01 6.3738778520748485e-01
-9.4792374929657086e-02 1.7157607474929673e+01 0.0000000000000000e+00
ITEM: ATOMS id type x y z
1 1 8.75041 0.419492 3.66451
2 1 4.97948 9.19097 4.74199
3 1 7.07736 5.35615 0.377128
4 1 6.63058 4.24469 8.04077
5 2 7.75908 8.64016 3.10511
6 2 6.17262 0.953652 5.4111
7 2 8.12057 3.66683 1.02199
8 2 5.5419 5.85743 7.30181
9 2 6.50196 8.19993 3.54976
10 2 7.39507 1.4038 4.87417
11 2 0.422068 3.36023 0.659992
12 2 4.31707 6.28431 7.84681
13 2 7.13528 6.76215 1.90787
14 2 6.59738 2.73555 6.6894
15 2 8.76278 1.85333 2.31684
16 2 4.79117 7.60046 5.86682
17 5 1.1 0.679762 5.22276
18 5 3.66917 8.9681 3.23774
19 5 1.49213 5.57883 7.56685
20 5 3.16175 4.07367 1.00853
21 5 3.16652 0.213438 5.7232
22 5 1.56195 9.40968 2.73497
23 5 8.58245 4.9704 7.07882
24 5 5.20131 4.52213 1.41817
25 3 8.10509 7.69752 2.17798
26 3 5.65105 1.79114 6.44441
27 3 7.77836 2.80265 2.03846
28 3 5.87204 6.73963 6.29069
29 3 6.20206 7.08021 2.85579
30 3 7.58508 2.39421 5.73173
31 3 0.730425 2.29619 1.45065
32 3 3.91855 7.28891 6.93283
33 6 2.18269 0.274891 4.93196
34 6 2.54248 9.31846 3.50579
35 6 0.493922 5.122 7.88187
36 6 4.25555 4.43893 0.635853
37 4 0.113932 7.458 1.85824
38 4 4.63857 1.83598 6.86679
39 4 6.76437 2.63855 2.40361
40 4 6.90307 6.86229 6.04906
41 4 5.19197 6.72225 2.73911
42 4 8.58187 2.72769 5.98368
43 4 1.69457 1.82198 1.36683
44 4 2.96348 7.81635 6.84487
45 1 4.55178 0.443789 12.3317
46 1 0.858765 9.15792 13.326
47 1 2.96822 5.25649 9.01857
48 1 2.43647 4.24571 16.6339
49 2 3.59132 8.33826 12.0422
50 2 1.72346 0.977229 13.8064
51 2 4.01995 3.78343 9.73256
52 2 1.46243 5.94382 16.0596
53 2 2.12782 8.19903 11.9852
54 2 3.11067 1.18514 13.6883
55 2 5.29216 3.37155 9.26477
56 2 9.18231 6.34331 16.4765
57 2 2.94636 6.71818 10.5051
58 2 2.41634 2.8475 15.3058
59 2 4.49408 1.77385 10.8344
60 2 0.773825 7.62406 14.6387
61 5 5.7988 0.555615 13.8096
62 5 8.50463 9.15232 12.0328
63 5 6.311 5.60699 16.2381
64 5 8.13357 3.91036 9.50798
65 5 7.8624 0.235873 14.2939
66 5 6.34451 9.57084 11.3668
67 5 4.25442 5.05901 15.7273
68 5 1.07564 4.54173 10.0607
69 3 4.14061 7.16264 11.3795
70 3 1.46593 1.9024 14.8844
71 3 3.54782 2.76081 10.6032
72 3 1.84131 6.89297 15.0916
73 3 1.84864 7.09104 11.2196
74 3 3.35336 2.41326 14.3662
75 3 5.54001 2.21587 10.052
76 3 8.81972 7.31879 15.5911
77 6 6.9515 0.242004 13.5285
78 6 7.26116 9.28675 12.2534
79 6 5.19418 5.21734 16.5113
80 6 9.18117 4.42852 9.25799
81 4 4.80656 7.52396 10.7019
82 4 9.49262 1.89681 15.3335
83 4 2.73828 2.97039 11.3068
84 4 2.58939 6.6201 14.362
85 4 0.807668 6.81939 11.0183
86 4 4.38371 2.65915 14.523
87 4 6.51761 1.7455 9.84843
88 4 7.86961 7.82025 15.5894
89 1 8.68824 10.2182 3.71164
90 1 5.04162 18.9492 4.70238
91 1 7.11783 15.0997 0.451728
92 1 6.63729 14.0366 8.03038
93 2 7.77033 18.4433 3.12814
94 2 5.88737 11.1869 5.05124
95 2 8.10925 13.4357 0.945947
96 2 5.54056 15.6659 7.31378
97 2 6.4061 18.1425 3.39604
98 2 7.32885 11.3162 4.87585
99 2 0.416461 13.0657 0.637833
100 2 4.3471 16.2219 7.79446
101 2 7.15115 16.6096 1.76927
102 2 6.69273 12.6198 6.59044
103 2 8.60169 11.6658 2.38061
104 2 5.01832 17.4866 6.09545
105 5 1.16665 10.4924 5.08013
106 5 3.63786 18.8981 3.19225
107 5 1.49365 15.3364 7.56597
108 5 3.23819 13.9113 0.895743
109 5 3.11268 10.0304 5.81239
110 5 1.53725 19.1485 2.67442
111 5 8.4488 14.8932 7.04386
112 5 5.23572 14.3178 1.41803
113 3 8.10577 17.526 2.10047
114 3 5.68614 11.7245 6.30459
115 3 7.72825 12.6143 2.03429
116 3 5.91545 16.4797 6.34457
117 3 6.20281 16.9132 2.68946
118 3 7.75356 12.2377 5.79655
119 3 0.586388 12.0032 1.50478
120 3 3.959 17.1553 6.88833
121 6 2.28022 10.0952 4.91861
122 6 2.47173 19.2755 3.44099
123 6 0.390412 15.0205 7.80567
124 6 4.34217 14.3258 0.636603
125 4 0.13734 17.2819 1.92685
126 4 4.68215 12.0922 6.4985
127 4 6.70157 12.565 2.4001
128 4 6.89927 16.5358 5.91093
129 4 5.21005 16.4622 2.79706
130 4 8.60535 12.9097 5.59641
131 4 1.41349 11.313 1.37122
132 4 3.22053 17.925 7.12473
133 1 4.46022 10.2061 12.2879
134 1 0.827637 18.9196 13.4064
135 1 2.88459 15.0479 9.08247
136 1 2.39739 14.0685 16.6019
137 2 3.4258 18.4135 11.7591
138 2 1.87567 10.7226 13.9702
139 2 3.91669 13.4662 9.63515
140 2 1.4522 15.6368 16.0195
141 2 2.06748 18.098 12.105
142 2 3.172 11.1071 13.6091
143 2 5.18746 13.1047 9.24979
144 2 9.21547 16.0257 16.4569
145 2 2.98688 16.5454 10.4071
146 2 2.4014 12.6203 15.208
147 2 4.70662 11.8563 11.0526
148 2 0.767383 17.5337 14.8155
149 5 5.99152 10.3438 13.812
150 5 8.51019 18.8468 11.8492
151 5 6.31076 15.4186 16.2188
152 5 8.14772 13.9059 9.43897
153 5 8.01413 10.0448 14.2797
154 5 6.38334 19.0899 11.3702
155 5 4.39274 15.017 15.7087
156 5 1.1724 14.2738 10.0174
157 3 3.97842 17.3968 10.847
158 3 1.53607 11.6254 14.9861
159 3 3.68708 12.6812 10.6828
160 3 1.69183 16.5941 15.0548
161 3 1.90456 17.0148 11.2313
162 3 3.42226 12.1719 14.4121
163 3 5.49362 12.0659 10.0243
164 3 8.88025 17.1266 15.7039
165 6 7.04133 9.88107 13.6049
166 6 7.3304 19.0817 12.1273
167 6 5.29978 14.8253 16.4389
168 6 9.18264 14.4385 9.28926
169 4 4.95437 17.4356 10.3649
170 4 0.583948 11.636 15.4996
171 4 3.05617 13.0284 11.4944
172 4 2.71263 16.7226 14.745
173 4 1.09111 16.3314 11.4099
174 4 4.22001 12.8995 14.2354
175 4 6.41187 11.5384 9.87272
176 4 7.87538 17.5541 15.7627
177 7 7.42567 13.3827 14.4194
178 8 6.94268 13.1485 15.246
179 8 6.69787 13.37 13.7903
180 7 6.93426 15.6313 12.5402
181 8 6.92261 16.588 12.7894
182 8 7.85413 15.5484 12.3715
183 7 5.30812 4.84459 12.9227
184 8 4.36834 4.89409 13.14
185 8 5.5554 5.78408 12.8091
186 7 7.25842 5.1129 11.6199
187 8 7.27228 5.36891 12.6131
188 8 8.83356 3.97245 11.6329
189 7 2.88388 4.92132 4.38724
190 8 2.63531 5.81877 4.52656
191 8 2.36101 4.47978 3.73999
192 7 4.64463 2.80502 4.08135
193 8 4.71331 2.6765 3.13497
194 8 5.2585 3.51304 4.15975
195 9 3.04794 9.70639 9.69807
196 10 3.08717 9.1116 8.70632
197 10 2.47992 10.3508 10.6167
198 9 9.02633 11.7373 10.567
199 10 8.442 11.5213 11.5335
200 10 0.750502 11.74 9.68052
201 9 7.20759 6.93241 9.88138
202 10 7.45583 6.48176 8.90975
203 10 6.99066 7.42875 10.8042
204 9 1.76365 10.7155 7.79461
205 10 1.08517 9.82036 7.44839
206 10 2.63511 11.2668 8.31725
207 9 6.35367 9.17111 7.3818
208 10 7.25948 8.95853 6.56466
209 10 5.77889 8.83106 8.34141
210 9 9.14847 7.91061 6.98669
211 10 0.871466 7.51633 6.14848
212 10 8.41266 7.98398 7.90456
ITEM: TIMESTEP
58
ITEM: NUMBER OF ATOMS
212
ITEM: BOX BOUNDS xy xz yz pp pp pp
-5.0813334800225540e-02 9.6021841688823812e+00 0.0000000000000000e+00
-1.1051605981027102e-01 1.9497515159810277e+01 6.3757063408213732e-01
-9.7266992400223629e-02 1.7160082092400238e+01 0.0000000000000000e+00
ITEM: ATOMS id type x y z
1 1 8.75253 0.416506 3.66268
2 1 4.97864 9.19175 4.74075
3 1 7.07723 5.35503 0.374029
4 1 6.63173 4.24318 8.04129
5 2 7.76112 8.64111 3.10435
6 2 6.17685 0.948704 5.41029
7 2 8.12085 3.66629 1.01947
8 2 5.53991 5.85414 7.29936
9 2 6.50249 8.19936 3.54963
10 2 7.39413 1.40025 4.87315
11 2 0.422191 3.35886 0.657741
12 2 4.31485 6.28574 7.84489
13 2 7.13713 6.75869 1.90593
14 2 6.59646 2.73369 6.69127
15 2 8.76317 1.84996 2.31593
16 2 4.78821 7.59765 5.86163
17 5 1.10058 0.677485 5.22276
18 5 3.66771 8.96854 3.23573
19 5 1.49118 5.57772 7.56706
20 5 3.16234 4.07296 1.00812
21 5 3.16548 0.210783 5.72263
22 5 1.56301 9.40991 2.73435
23 5 8.58507 4.96622 7.07748
24 5 5.19964 4.52148 1.41583
25 3 8.10533 7.69646 2.17708
26 3 5.65428 1.78804 6.44554
27 3 7.78156 2.79941 2.03688
28 3 5.86751 6.7378 6.28686
29 3 6.20373 7.07906 2.85725
30 3 7.58733 2.39284 5.73067
31 3 0.730038 2.2942 1.44891
32 3 3.9188 7.284 6.93062
33 6 2.18035 0.272261 4.92697
34 6 2.54286 9.31824 3.50575
35 6 0.494769 5.11873 7.88584
36 6 4.25431 4.4378 0.632421
37 4 0.11725 7.45219 1.85878
38 4 4.64071 1.83626 6.86812
39 4 6.77221 2.62668 2.4016
40 4 6.89451 6.8555 6.04238
41 4 5.19494 6.72155 2.73894
42 4 8.58172 2.72961 5.99081
43 4 1.69175 1.82221 1.36337
44 4 2.95712 7.80864 6.83931
45 1 4.55238 0.44101 12.333
46 1 0.857698 9.15803 13.3266
47 1 2.96817 5.2538 9.01813
48 1 2.43622 4.24434 16.6365
49 2 3.59186 8.33048 12.0492
50 2 1.72287 0.97468 13.8065
51 2 4.02314 3.78277 9.73309
52 2 1.46081 5.94282 16.0624
53 2 2.12697 8.1982 11.9864
54 2 3.10881 1.18098 13.6912
55 2 5.29122 3.37162 9.26489
56 2 9.18442 6.34315 16.479
57 2 2.95067 6.71457 10.5093
58 2 2.41503 2.84525 15.3071
59 2 4.49427 1.77041 10.8331
60 2 0.771454 7.62428 14.6383
61 5 5.79806 0.551392 13.8113
62 5 8.50415 9.15498 12.0361
63 5 6.31026 5.60735 16.24
64 5 8.13811 3.90555 9.50808
65 5 7.8602 0.233745 14.2945
66 5 6.34603 9.57654 11.3708
67 5 4.25444 5.05723 15.7295
68 5 1.07406 4.5414 10.0616
69 3 4.13837 7.15241 11.3874
70 3 1.46561 1.9017 14.8861
71 3 3.54922 2.75691 10.6035
72 3 1.84029 6.89441 15.0935
73 3 1.84645 7.0892 11.2193
74 3 3.3524 2.41049 14.3683
75 3 5.53894 2.21156 10.0541
76 3 8.82083 7.31803 15.5931
77 6 6.95198 0.238804 13.5282
78 6 7.26186 9.28694 12.2563
79 6 5.1928 5.2154 16.5195
80 6 9.18348 4.42616 9.25683
81 4 4.80588 7.51772 10.7211
82 4 9.4933 1.89674 15.3306
83 4 2.73731 2.96934 11.3119
84 4 2.58862 6.61315 14.365
85 4 0.80457 6.82577 11.0103
86 4 4.37561 2.65299 14.5295
87 4 6.51946 1.74289 9.84255
88 4 7.87939 7.81781 15.5868
89 1 8.68929 10.218 3.71058
90 1 5.0418 18.9521 4.70057
91 1 7.11839 15.1005 0.449607
92 1 6.63838 14.0377 8.03064
93 2 7.77109 18.4468 3.1272
94 2 5.8884 11.1921 5.04414
95 2 8.10936 13.4364 0.943673
96 2 5.53831 15.6652 7.31415
97 2 6.40683 18.1457 3.39323
98 2 7.32807 11.3192 4.87366
99 2 0.415516 13.0655 0.635501
100 2 4.34693 16.2246 7.79431
101 2 7.15219 16.6106 1.76728
102 2 6.69441 12.6231 6.59063
103 2 8.60161 11.6638 2.38056
104 2 5.01938 17.4908 6.09219
105 5 1.16726 10.4944 5.07648
106 5 3.63765 18.9029 3.18883
107 5 1.49082 15.3376 7.56539
108 5 3.23851 13.9134 0.894324
109 5 3.11081 10.0305 5.81135
110 5 1.53812 19.1508 2.67315
111 5 8.45139 14.8942 7.04504
112 5 5.23482 14.3199 1.41598
113 3 8.10651 17.5278 2.09772
114 3 5.68627 11.7281 6.30325
115 3 7.72961 12.6151 2.03234
116 3 5.91514 16.482 6.34089
117 3 6.20574 16.9155 2.68687
118 3 7.75472 12.2378 5.79622
119 3 0.583486 12.0038 1.50306
120 3 3.95802 17.1574 6.88727
121 6 2.28101 10.0956 4.9154
122 6 2.4682 19.2813 3.44131
123 6 0.389439 15.0242 7.80464
124 6 4.3436 14.3285 0.632878
125 4 0.138743 17.2834 1.93245
126 4 4.69053 12.1047 6.49673
127 4 6.69529 12.5709 2.39043
128 4 6.89063 16.5444 5.90776
129 4 5.2096 16.4722 2.8009
130 4 8.61546 12.9195 5.59068
131 4 1.41282 11.3071 1.36783
132 4 3.22249 17.9353 7.12723
133 1 4.45958 10.2056 12.2888
134 1 0.825984 18.922 13.4082
135 1 2.88321 15.0479 9.08292
136 1 2.39662 14.0701 16.6038
137 2 3.42566 18.4156 11.7592
138 2 1.87531 10.7213 13.9725
139 2 3.91589 13.4696 9.63509
140 2 1.44965 15.6359 16.0238
141 2 2.06515 18.1001 12.1052
142 2 3.1724 11.1066 13.6107
143 2 5.18886 13.1058 9.24835
144 2 9.21802 16.0264 16.4596
145 2 2.98633 16.5458 10.4079
146 2 2.40108 12.6238 15.2108
147 2 4.70981 11.858 11.0569
148 2 0.766642 17.5375 14.8174
149 5 5.99289 10.3427 13.8139
150 5 8.5102 18.8515 11.8497
151 5 6.31107 15.422 16.2215
152 5 8.15207 13.9086 9.43861
153 5 8.01471 10.0453 14.2797
154 5 6.38553 19.091 11.3722
155 5 4.39418 15.02 15.7115
156 5 1.17144 14.2765 10.0162
157 3 3.97625 17.3981 10.8503
158 3 1.53642 11.625 14.9881
159 3 3.68971 12.6835 10.6854
160 3 1.69029 16.5985 15.0544
161 3 1.90456 17.0181 11.2311
162 3 3.4218 12.1709 14.4133
163 3 5.49476 12.0659 10.0236
164 3 8.88134 17.1288 15.7076
165 6 7.04207 9.87902 13.608
166 6 7.33108 19.0836 12.1287
167 6 5.3001 14.8246 16.4428
168 6 9.18364 14.4423 9.29096
169 4 4.95249 17.4428 10.3754
170 4 0.577976 11.6301 15.4962
171 4 3.05872 13.0398 11.5024
172 4 2.70877 16.7286 14.7492
173 4 1.09509 16.3323 11.4075
174 4 4.21942 12.9084 14.2357
175 4 6.40807 11.5428 9.87099
176 4 7.86789 17.5565 15.7714
177 7 7.42799 13.3829 14.4214
178 8 6.95066 13.1532 15.2485
179 8 6.69932 13.3808 13.7933
180 7 6.93487 15.6327 12.5418
181 8 6.92361 16.5857 12.7894
182 8 7.85667 15.5552 12.3686
183 7 5.30703 4.84277 12.9234
184 8 4.36897 4.8878 13.1472
185 8 5.55198 5.78099 12.7977
186 7 7.2639 5.09869 11.6281
187 8 7.25972 5.36251 12.6202
188 8 8.82871 3.94178 11.6478
189 7 2.88094 4.92276 4.38427
190 8 2.63249 5.81876 4.53429
191 8 2.36994 4.47041 3.73487
192 7 4.64414 2.80343 4.07783
193 8 4.7214 2.67532 3.13248
194 8 5.25774 3.51278 4.15069
195 9 3.04503 9.70879 9.69392
196 10 3.08299 9.12063 8.70033
197 10 2.47619 10.3483 10.6148
198 9 9.02815 11.738 10.5663
199 10 8.44409 11.5276 11.5351
200 10 0.748584 11.7352 9.67951
201 9 7.20715 6.93615 9.87889
202 10 7.4581 6.48474 8.90821
203 10 6.98836 7.42998 10.8003
204 9 1.76312 10.7172 7.79227
205 10 1.084 9.82105 7.45018
206 10 2.63638 11.2683 8.31397
207 9 6.35761 9.17266 7.38461
208 10 7.26395 8.95496 6.56894
209 10 5.78135 8.83535 8.34661
210 9 9.15073 7.91076 6.98665
211 10 0.867985 7.51854 6.14676
212 10 8.41785 7.98385 7.90479
ITEM: TIMESTEP
59
ITEM: NUMBER OF ATOMS
212
ITEM: BOX BOUNDS xy xz yz pp pp pp
-5.2109690438761014e-02 9.6036638809605872e+00 0.0000000000000000e+00
-1.1333555823222952e-01 1.9500334658232234e+01 6.3775399052180715e-01
-9.9748479091406494e-02 1.7162563579091419e+01 0.0000000000000000e+00
ITEM: ATOMS id type x y z
1 1 8.75465 0.413519 3.66086
2 1 4.9778 9.19252 4.73949
3 1 7.07712 5.3539 0.370932
4 1 6.63288 4.24167 8.04181
5 2 7.76315 8.64201 3.10361
6 2 6.18103 0.943738 5.40949
7 2 8.12115 3.66577 1.01693
8 2 5.53788 5.85087 7.29692
9 2 6.50302 8.19882 3.54947
10 2 7.39314 1.39666 4.87219
11 2 0.422285 3.35748 0.655513
12 2 4.31262 6.28716 7.84287
13 2 7.13899 6.75522 1.90399
14 2 6.59556 2.73181 6.6931
15 2 8.76355 1.84661 2.31497
16 2 4.78533 7.5948 5.85655
17 5 1.10113 0.675204 5.22276
18 5 3.66626 8.96897 3.2337
19 5 1.49033 5.5766 7.56729
20 5 3.16292 4.07225 1.00766
21 5 3.16441 0.208124 5.72202
22 5 1.5641 9.41013 2.73372
23 5 8.58771 4.96205 7.07614
24 5 5.19798 4.52083 1.41347
25 3 8.10557 7.69538 2.17614
26 3 5.65758 1.78493 6.4466
27 3 7.78479 2.79613 2.0353
28 3 5.86288 6.73595 6.28304
29 3 6.20541 7.07791 2.85864
30 3 7.58957 2.39155 5.7297
31 3 0.729632 2.29219 1.44717
32 3 3.91907 7.27909 6.92833
33 6 2.17814 0.269578 4.92199
34 6 2.54315 9.31808 3.50575
35 6 0.495412 5.11537 7.88977
36 6 4.25317 4.43671 0.629014
37 4 0.120463 7.44667 1.85944
38 4 4.64295 1.83636 6.86931
39 4 6.78 2.61495 2.39946
40 4 6.8861 6.84847 6.03528
41 4 5.19775 6.72081 2.73892
42 4 8.58172 2.73151 5.99764
43 4 1.68904 1.8223 1.35994
44 4 2.95097 7.80054 6.83417
45 1 4.55297 0.438219 12.3344
46 1 0.856619 9.15814 13.3271
47 1 2.96812 5.25112 9.0177
48 1 2.43597 4.24297 16.6391
49 2 3.59232 8.3226 12.0562
50 2 1.72236 0.972182 13.8067
51 2 4.02631 3.78204 9.73362
52 2 1.45915 5.94185 16.0652
53 2 2.12622 8.19732 11.9877
54 2 3.10691 1.1769 13.694
55 2 5.29024 3.37161 9.26508
56 2 9.18653 6.34296 16.4814
57 2 2.95511 6.71093 10.5135
58 2 2.41371 2.84293 15.3084
59 2 4.49446 1.76699 10.8318
60 2 0.769086 7.62452 14.6379
61 5 5.79734 0.547154 13.8129
62 5 8.50362 9.15761 12.0394
63 5 6.30953 5.6077 16.2418
64 5 8.14263 3.9007 9.50816
65 5 7.85805 0.231615 14.2952
66 5 6.34761 9.58226 11.3749
67 5 4.25448 5.05546 15.7318
68 5 1.07249 4.54106 10.0625
69 3 4.13584 7.14233 11.3951
70 3 1.46528 1.90095 14.8877
71 3 3.55066 2.75306 10.6037
72 3 1.83924 6.89578 15.0954
73 3 1.84429 7.08739 11.2191
74 3 3.35142 2.40768 14.3703
75 3 5.5379 2.20733 10.0562
76 3 8.82201 7.31728 15.5951
77 6 6.95247 0.235552 13.5279
78 6 7.26257 9.28723 12.2592
79 6 5.19133 5.2134 16.5277
80 6 9.1859 4.42381 9.25569
81 4 4.80588 7.51148 10.74
82 4 9.49393 1.89678 15.3277
83 4 2.73641 2.96814 11.3169
84 4 2.58797 6.60621 14.3679
85 4 0.801596 6.8322 11.002
86 4 4.36779 2.64696 14.536
87 4 6.52098 1.73999 9.83695
88 4 7.88889 7.81541 15.5843
89 1 8.69034 10.2178 3.70951
90 1 5.04198 18.9549 4.69875
91 1 7.11896 15.1013 0.447475
92 1 6.63947 14.0389 8.0309
93 2 7.77179 18.4503 3.1262
94 2 5.88954 11.1972 5.03712
95 2 8.10949 13.4372 0.941455
96 2 5.53606 15.6645 7.31455
97 2 6.40763 18.1489 3.39038
98 2 7.32723 11.3221 4.8715
99 2 0.414507 13.0654 0.633191
100 2 4.34673 16.2273 7.79416
101 2 7.15324 16.6117 1.76532
102 2 6.69608 12.6265 6.59082
103 2 8.60155 11.6619 2.38047
104 2 5.02043 17.495 6.08892
105 5 1.16783 10.4963 5.07283
106 5 3.63739 18.9078 3.18541
107 5 1.48804 15.3389 7.56476
108 5 3.23881 13.9155 0.892901
109 5 3.10898 10.0306 5.81025
110 5 1.53897 19.1532 2.67189
111 5 8.45399 14.8953 7.04621
112 5 5.23397 14.3219 1.41395
113 3 8.10726 17.5297 2.09502
114 3 5.6864 11.7318 6.30184
115 3 7.73096 12.616 2.03034
116 3 5.91481 16.4845 6.33718
117 3 6.20864 16.9178 2.68433
118 3 7.75584 12.2379 5.79586
119 3 0.580618 12.0044 1.50133
120 3 3.95707 17.1595 6.88621
121 6 2.28183 10.096 4.91212
122 6 2.46473 19.2871 3.44167
123 6 0.388373 15.0278 7.80371
124 6 4.345 14.3312 0.629112
125 4 0.140103 17.285 1.93795
126 4 4.6988 12.1171 6.49504
127 4 6.68912 12.5767 2.3807
128 4 6.88225 16.5528 5.90462
129 4 5.20929 16.482 2.80444
130 4 8.62532 12.9291 5.58499
131 4 1.41215 11.3014 1.36436
132 4 3.22451 17.9454 7.12984
133 1 4.45896 10.2051 12.2897
134 1 0.824318 18.9244 13.4099
135 1 2.88184 15.048 9.08336
136 1 2.39585 14.0717 16.6057
137 2 3.42552 18.4177 11.7593
138 2 1.87498 10.7199 13.9748
139 2 3.91513 13.4731 9.63503
140 2 1.44707 15.6351 16.0281
141 2 2.06294 18.1022 12.1053
142 2 3.17275 11.1061 13.6123
143 2 5.19026 13.1069 9.2469
144 2 9.22055 16.0271 16.4622
145 2 2.98574 16.5463 10.4088
146 2 2.40078 12.6273 15.2136
147 2 4.71294 11.8597 11.0613
148 2 0.765913 17.5412 14.8192
149 5 5.99419 10.3418 13.8159
150 5 8.51019 18.8561 11.8503
151 5 6.31142 15.4254 16.2242
152 5 8.15636 13.9113 9.43828
153 5 8.01534 10.0459 14.2799
154 5 6.38771 19.0921 11.3742
155 5 4.39555 15.023 15.7142
156 5 1.17044 14.2793 10.0151
157 3 3.97398 17.3996 10.8536
158 3 1.53674 11.6246 14.9901
159 3 3.69234 12.6858 10.6881
160 3 1.68879 16.6029 15.0539
161 3 1.9046 17.0214 11.2309
162 3 3.42135 12.1699 14.4144
163 3 5.49594 12.0658 10.023
164 3 8.88239 17.1309 15.7112
165 6 7.04284 9.87693 13.611
166 6 7.33172 19.0855 12.1302
167 6 5.30042 14.8239 16.4468
168 6 9.18475 14.4461 9.2926
169 4 4.95061 17.45 10.386
170 4 0.571911 11.6242 15.4926
171 4 3.06116 13.0512 11.5102
172 4 2.70505 16.7348 14.7532
173 4 1.09888 16.3331 11.4052
174 4 4.21883 12.9169 14.2358
175 4 6.40452 11.5471 9.86932
176 4 7.86062 17.5588 15.78
177 7 7.43029 13.3831 14.4234
178 8 6.9589 13.158 15.2506
179 8 6.70091 13.3917 13.7962
180 7 6.93546 15.6342 12.5435
181 8 6.92443 16.5831 12.7893
182 8 7.85959 15.5617 12.3656
183 7 5.30594 4.84095 12.924
184 8 4.36949 4.8816 13.1545
185 8 5.54829 5.77772 12.7864
186 7 7.26944 5.08445 11.6363
187 8 7.24723 5.35584 12.6265
188 8 8.82309 3.91184 11.6625
189 7 2.87805 4.92417 4.38133
190 8 2.62935 5.81895 4.54189
191 8 2.37863 4.46112 3.72954
192 7 4.64364 2.80184 4.07427
193 8 4.72929 2.674 3.12987
194 8 5.25715 3.5129 4.14194
195 9 3.04193 9.71126 9.68993
196 10 3.07888 9.1296 8.69439
197 10 2.47257 10.3457 10.6127
198 9 9.03 11.7386 10.5656
199 10 8.44616 11.534 11.5367
200 10 0.746649 11.7304 9.67848
201 9 7.20675 6.93979 9.87625
202 10 7.46038 6.48762 8.90657
203 10 6.98603 7.43123 10.7967
204 9 1.76258 10.7188 7.78993
205 10 1.08281 9.82179 7.45202
206 10 2.63763 11.27 8.31063
207 9 6.36169 9.17408 7.38735
208 10 7.26827 8.95154 6.57324
209 10 5.7838 8.8397 8.35179
210 9 9.15302 7.91083 6.98664
211 10 0.864456 7.52079 6.14502
212 10 8.42313 7.98373 7.905
ITEM: TIMESTEP
60
ITEM: NUMBER OF ATOMS
212
ITEM: BOX BOUNDS xy xz yz pp pp pp
-5.3409130885915701e-02 9.6051471141625022e+00 0.0000000000000000e+00
-1.1616176593424932e-01 1.9503160865934255e+01 6.3793778327656581e-01
-1.0223587072974105e-01 1.7165050970729755e+01 0.0000000000000000e+00
ITEM: ATOMS id type x y z
1 1 8.75677 0.41053 3.65903
2 1 4.97696 9.19331 4.73823
3 1 7.07701 5.35277 0.367837
4 1 6.63404 4.24016 8.04234
5 2 7.76514 8.64288 3.10289
6 2 6.18515 0.938756 5.4087
7 2 8.12147 3.66524 1.01439
8 2 5.53581 5.8476 7.29449
9 2 6.50354 8.19831 3.54929
10 2 7.39213 1.39303 4.8713
11 2 0.422349 3.35609 0.653309
12 2 4.31038 6.28858 7.84076
13 2 7.14087 6.75175 1.90208
14 2 6.5947 2.72993 6.6949
15 2 8.76392 1.84329 2.31398
16 2 4.78254 7.5919 5.85159
17 5 1.10164 0.672921 5.22276
18 5 3.66482 8.96939 3.23166
19 5 1.48957 5.5755 7.56753
20 5 3.16347 4.07153 1.00718
21 5 3.16328 0.205462 5.72136
22 5 1.56521 9.41033 2.73311
23 5 8.59036 4.95787 7.0748
24 5 5.19632 4.52017 1.41108
25 3 8.10582 7.69428 2.17516
26 3 5.66097 1.78179 6.44761
27 3 7.78806 2.79281 2.03371
28 3 5.85814 6.73409 6.27922
29 3 6.20711 7.07675 2.85997
30 3 7.5918 2.39033 5.72883
31 3 0.729202 2.29016 1.44544
32 3 3.91937 7.27419 6.92595
33 6 2.17608 0.266845 4.91701
34 6 2.54335 9.31798 3.50579
35 6 0.495846 5.1119 7.89365
36 6 4.25213 4.43564 0.625639
37 4 0.123511 7.44144 1.86025
38 4 4.64529 1.83628 6.87034
39 4 6.7877 2.60336 2.39719
40 4 6.8779 6.84122 6.02775
41 4 5.20041 6.72004 2.73905
42 4 8.58186 2.73337 6.00416
43 4 1.68645 1.82222 1.35653
44 4 2.9451 7.79204 6.82945
45 1 4.55356 0.435416 12.3357
46 1 0.855531 9.15825 13.3277
47 1 2.96807 5.24844 9.01727
48 1 2.43572 4.2416 16.6417
49 2 3.59268 8.31462 12.0632
50 2 1.72191 0.969737 13.8071
51 2 4.02948 3.78124 9.73415
52 2 1.45745 5.9409 16.068
53 2 2.12558 8.19641 11.989
54 2 3.10498 1.17289 13.6968
55 2 5.28922 3.37153 9.26535
56 2 9.18865 6.34274 16.4838
57 2 2.95966 6.70725 10.5179
58 2 2.41239 2.84054 15.3096
59 2 4.49465 1.76357 10.8305
60 2 0.766722 7.62478 14.6376
61 5 5.79664 0.542903 13.8146
62 5 8.50303 9.16021 12.0427
63 5 6.30879 5.60805 16.2436
64 5 8.14712 3.89582 9.50821
65 5 7.85595 0.229484 14.2959
66 5 6.34923 9.58801 11.379
67 5 4.25454 5.0537 15.7341
68 5 1.07093 4.54071 10.0634
69 3 4.13302 7.13239 11.4027
70 3 1.46493 1.90014 14.8894
71 3 3.55215 2.74926 10.6039
72 3 1.83814 6.89709 15.0974
73 3 1.84215 7.08563 11.2189
74 3 3.35043 2.4048 14.3724
75 3 5.53687 2.20319 10.0582
76 3 8.82326 7.31653 15.597
77 6 6.95296 0.232249 13.5275
78 6 7.26329 9.28762 12.2621
79 6 5.18978 5.21133 16.5359
80 6 9.18844 4.4215 9.25456
81 4 4.80657 7.50525 10.7585
82 4 9.4945 1.89694 15.3248
83 4 2.73563 2.96679 11.3217
84 4 2.58741 6.5993 14.371
85 4 0.798757 6.83868 10.9936
86 4 4.3603 2.64107 14.5426
87 4 6.52212 1.73681 9.83163
88 4 7.89804 7.81307 15.5819
89 1 8.6914 10.2176 3.70844
90 1 5.04215 18.9578 4.69694
91 1 7.11953 15.1021 0.445333
92 1 6.64056 14.0401 8.03116
93 2 7.77245 18.4537 3.12516
94 2 5.89079 11.2022 5.03018
95 2 8.10966 13.4379 0.939293
96 2 5.5338 15.6639 7.31497
97 2 6.40848 18.1519 3.38748
98 2 7.32634 11.3251 4.86937
99 2 0.413431 13.0652 0.630906
100 2 4.34652 16.23 7.794
101 2 7.15431 16.6127 1.76337
102 2 6.69776 12.6299 6.59101
103 2 8.60153 11.6599 2.38034
104 2 5.02148 17.4992 6.08564
105 5 1.16837 10.4983 5.06918
106 5 3.63709 18.9127 3.18198
107 5 1.48533 15.3402 7.56409
108 5 3.23908 13.9176 0.891475
109 5 3.10717 10.0306 5.8091
110 5 1.5398 19.1556 2.67063
111 5 8.45661 14.8963 7.04737
112 5 5.23317 14.324 1.41194
113 3 8.10801 17.5316 2.09234
114 3 5.68656 11.7356 6.30034
115 3 7.73227 12.617 2.0283
116 3 5.91446 16.4869 6.33346
117 3 6.21149 16.9203 2.68185
118 3 7.75693 12.2381 5.79549
119 3 0.577789 12.005 1.4996
120 3 3.95617 17.1616 6.88517
121 6 2.28269 10.0963 4.90878
122 6 2.46134 19.2928 3.44207
123 6 0.387211 15.0313 7.80289
124 6 4.34638 14.334 0.62531
125 4 0.141395 17.2865 1.94337
126 4 4.70689 12.1294 6.49342
127 4 6.6831 12.5825 2.37091
128 4 6.87422 16.561 5.90148
129 4 5.20914 16.4917 2.80765
130 4 8.6348 12.9384 5.57938
131 4 1.41143 11.296 1.36081
132 4 3.22661 17.9553 7.13258
133 1 4.45835 10.2046 12.2907
134 1 0.822639 18.9267 13.4117
135 1 2.88046 15.048 9.08379
136 1 2.3951 14.0733 16.6076
137 2 3.42538 18.4198 11.7594
138 2 1.87468 10.7186 13.9772
139 2 3.91442 13.4766 9.63499
140 2 1.44446 15.6343 16.0324
141 2 2.06085 18.1043 12.1054
142 2 3.17306 11.1057 13.614
143 2 5.19166 13.108 9.24545
144 2 9.22305 16.0278 16.4649
145 2 2.98511 16.5468 10.4097
146 2 2.40051 12.6308 15.2163
147 2 4.71602 11.8614 11.0657
148 2 0.765194 17.545 14.821
149 5 5.99542 10.3408 13.8179
150 5 8.51017 18.8608 11.8509
151 5 6.3118 15.4289 16.227
152 5 8.16059 13.9139 9.43799
153 5 8.01602 10.0464 14.28
154 5 6.38989 19.0932 11.3762
155 5 4.39685 15.026 15.7169
156 5 1.16941 14.2821 10.0139
157 3 3.97161 17.4011 10.857
158 3 1.53703 11.6241 14.9921
159 3 3.69495 12.6881 10.6908
160 3 1.68734 16.6071 15.0535
161 3 1.90468 17.0247 11.2307
162 3 3.42091 12.169 14.4156
163 3 5.49716 12.0658 10.0223
164 3 8.88339 17.1331 15.7149
165 6 7.04364 9.87481 13.614
166 6 7.33235 19.0875 12.1318
167 6 5.30076 14.8232 16.4508
168 6 9.18598 14.4501 9.29418
169 4 4.94875 17.4573 10.3965
170 4 0.565793 11.6182 15.4889
171 4 3.06352 13.0626 11.5178
172 4 2.70152 16.7411 14.7571
173 4 1.10249 16.3341 11.4028
174 4 4.2182 12.925 14.2357
175 4 6.40129 11.5512 9.86773
176 4 7.85364 17.5612 15.7886
177 7 7.43257 13.3832 14.4254
178 8 6.96735 13.1629 15.2525
179 8 6.70263 13.4027 13.799
180 7 6.93604 15.6357 12.5451
181 8 6.92504 16.5801 12.7892
182 8 7.86284 15.5679 12.3625
183 7 5.30485 4.83914 12.9247
184 8 4.36991 4.87548 13.162
185 8 5.54434 5.77428 12.7752
186 7 7.27504 5.07019 11.6445
187 8 7.23484 5.34888 12.632
188 8 8.81673 3.88261 11.6771
189 7 2.87518 4.92556 4.37841
190 8 2.62587 5.81931 4.54933
191 8 2.38707 4.45196 3.72402
192 7 4.64312 2.80024 4.07068
193 8 4.73695 2.67253 3.12713
194 8 5.25672 3.51339 4.13352
195 9 3.03866 9.71382 9.6861
196 10 3.07484 9.13851 8.6885
197 10 2.46904 10.343 10.6105
198 9 9.03187 11.7391 10.5649
199 10 8.44822 11.5405 11.5383
200 10 0.744697 11.7256 9.67742
201 9 7.2064 6.94332 9.87347
202 10 7.46266 6.49041 8.90482
203 10 6.98365 7.4325 10.7932
204 9 1.76205 10.7204 7.7876
205 10 1.08159 9.82259 7.45388
206 10 2.63887 11.2717 8.30724
207 9 6.36591 9.17537 7.39001
208 10 7.27244 8.94827 6.57756
209 10 5.78625 8.8441 8.35696
210 9 9.15535 7.91079 6.98666
211 10 0.86088 7.52309 6.14327
212 10 8.42851 7.98363 7.90519
ITEM: TIMESTEP
61
ITEM: NUMBER OF ATOMS
212
ITEM: BOX BOUNDS xy xz yz pp pp pp
-5.4711147935851301e-02 9.6066332884016887e+00 0.0000000000000000e+00
-1.1899357759806506e-01 1.9505992677598073e+01 6.3812194046581938e-01
-1.0472819450654036e-01 1.7167543294506554e+01 0.0000000000000000e+00
ITEM: ATOMS id type x y z
1 1 8.75889 0.40754 3.65719
2 1 4.97612 9.19409 4.73696
3 1 7.07691 5.35163 0.364747
4 1 6.63521 4.23864 8.04286
5 2 7.7671 8.6437 3.10219
6 2 6.18921 0.933759 5.40792
7 2 8.1218 3.66472 1.01184
8 2 5.53369 5.84435 7.29207
9 2 6.50407 8.19784 3.54908
10 2 7.3911 1.38936 4.87046
11 2 0.42238 3.35469 0.651131
12 2 4.30815 6.28997 7.83856
13 2 7.14274 6.74827 1.90018
14 2 6.59387 2.72805 6.69664
15 2 8.76428 1.83999 2.31295
16 2 4.77982 7.58895 5.84674
17 5 1.1021 0.670637 5.22275
18 5 3.66339 8.96981 3.22959
19 5 1.48893 5.5744 7.56779
20 5 3.164 4.07081 1.00665
21 5 3.16211 0.202797 5.72065
22 5 1.56634 9.41052 2.7325
23 5 8.59304 4.95369 7.07348
24 5 5.19466 4.5195 1.40868
25 3 8.10608 7.69315 2.17415
26 3 5.66443 1.77863 6.44855
27 3 7.79137 2.78945 2.03212
28 3 5.85329 6.73221 6.2754
29 3 6.20883 7.07559 2.86123
30 3 7.59401 2.38918 5.72805
31 3 0.728745 2.28813 1.44372
32 3 3.91968 7.26932 6.92349
33 6 2.17417 0.264064 4.91206
34 6 2.54346 9.31794 3.50587
35 6 0.49607 5.10834 7.89746
36 6 4.25119 4.43461 0.622303
37 4 0.126337 7.43652 1.86121
38 4 4.64774 1.836 6.87121
39 4 6.79528 2.59193 2.3948
40 4 6.86992 6.83379 6.01979
41 4 5.20289 6.71922 2.73935
42 4 8.58214 2.73517 6.01035
43 4 1.68401 1.82196 1.35315
44 4 2.93955 7.78313 6.82518
45 1 4.55414 0.432602 12.3371
46 1 0.854433 9.15836 13.3282
47 1 2.96802 5.24577 9.01685
48 1 2.43547 4.24023 16.6443
49 2 3.59295 8.30655 12.07
50 2 1.72152 0.967347 13.8076
51 2 4.03263 3.78038 9.73469
52 2 1.45571 5.93999 16.0707
53 2 2.12506 8.19545 11.9904
54 2 3.10303 1.16897 13.6996
55 2 5.28816 3.37138 9.26569
56 2 9.19077 6.34249 16.4862
57 2 2.96431 6.70353 10.5224
58 2 2.41106 2.83809 15.3107
59 2 4.49485 1.76015 10.8292
60 2 0.764363 7.62507 14.6373
61 5 5.79596 0.538638 13.8163
62 5 8.5024 9.16278 12.0459
63 5 6.30805 5.60839 16.2455
64 5 8.15159 3.89092 9.50824
65 5 7.8539 0.227353 14.2967
66 5 6.35091 9.59377 11.3833
67 5 4.25462 5.05196 15.7364
68 5 1.06937 4.54035 10.0643
69 3 4.12991 7.1226 11.4101
70 3 1.46457 1.89929 14.891
71 3 3.55368 2.74552 10.604
72 3 1.83701 6.89833 15.0993
73 3 1.84004 7.08391 11.2188
74 3 3.34941 2.40187 14.3745
75 3 5.53587 2.19916 10.0602
76 3 8.8246 7.3158 15.5989
77 6 6.95345 0.2289 13.527
78 6 7.264 9.2881 12.265
79 6 5.18814 5.20921 16.5441
80 6 9.19109 4.4192 9.25346
81 4 4.80797 7.49902 10.7765
82 4 9.49502 1.89723 15.3219
83 4 2.73501 2.96526 11.3264
84 4 2.58693 6.59244 14.3741
85 4 0.79606 6.84522 10.9849
86 4 4.35323 2.63534 14.5492
87 4 6.52285 1.73334 9.82663
88 4 7.90674 7.81083 15.5798
89 1 8.69246 10.2174 3.70737
90 1 5.04233 18.9606 4.69512
91 1 7.12011 15.1029 0.443181
92 1 6.64165 14.0413 8.03142
93 2 7.77305 18.4571 3.12407
94 2 5.89215 11.207 5.02333
95 2 8.10986 13.4386 0.937187
96 2 5.53154 15.6632 7.3154
97 2 6.4094 18.1549 3.38455
98 2 7.32539 11.328 4.86728
99 2 0.412285 13.0651 0.628646
100 2 4.34627 16.2325 7.79384
101 2 7.15539 16.6136 1.76144
102 2 6.69943 12.6333 6.5912
103 2 8.60152 11.6579 2.38016
104 2 5.02252 17.5034 6.08237
105 5 1.16889 10.5004 5.06554
106 5 3.63673 18.9176 3.17855
107 5 1.48267 15.3415 7.56337
108 5 3.23935 13.9197 0.890045
109 5 3.10541 10.0307 5.8079
110 5 1.5406 19.158 2.66937
111 5 8.45923 14.8973 7.04852
112 5 5.23242 14.3261 1.40994
113 3 8.10877 17.5335 2.08971
114 3 5.68673 11.7395 6.29876
115 3 7.73356 12.618 2.02622
116 3 5.91406 16.4895 6.32972
117 3 6.2143 16.9229 2.67941
118 3 7.75801 12.2382 5.7951
119 3 0.575004 12.0055 1.49785
120 3 3.95531 17.1638 6.88412
121 6 2.28357 10.0965 4.90539
122 6 2.45803 19.2986 3.44249
123 6 0.385952 15.0348 7.80218
124 6 4.34772 14.3367 0.621477
125 4 0.142596 17.288 1.94868
126 4 4.71474 12.1414 6.49187
127 4 6.6773 12.5883 2.36107
128 4 6.86662 16.5691 5.89833
129 4 5.20914 16.5012 2.81052
130 4 8.64379 12.9471 5.57386
131 4 1.41061 11.2908 1.35718
132 4 3.22882 17.9649 7.13543
133 1 4.45775 10.204 12.2916
134 1 0.820948 18.9291 13.4135
135 1 2.87909 15.0481 9.08422
136 1 2.39435 14.0749 16.6095
137 2 3.42523 18.4218 11.7595
138 2 1.8744 10.7173 13.9796
139 2 3.91377 13.4802 9.63495
140 2 1.44183 15.6336 16.0367
141 2 2.05888 18.1063 12.1054
142 2 3.17333 11.1052 13.6156
143 2 5.19306 13.1091 9.24401
144 2 9.22551 16.0285 16.4675
145 2 2.98444 16.5473 10.4107
146 2 2.40026 12.6343 15.2191
147 2 4.71903 11.863 11.07
148 2 0.764483 17.5488 14.8228
149 5 5.99658 10.3399 13.8199
150 5 8.51013 18.8655 11.8515
151 5 6.31221 15.4323 16.2297
152 5 8.16474 13.9165 9.43775
153 5 8.01673 10.0469 14.2802
154 5 6.39206 19.0943 11.3781
155 5 4.39808 15.029 15.7196
156 5 1.16836 14.2849 10.0127
157 3 3.96914 17.4027 10.8604
158 3 1.53729 11.6237 14.9941
159 3 3.69754 12.6904 10.6936
160 3 1.68594 16.6113 15.0532
161 3 1.90479 17.028 11.2304
162 3 3.42048 12.1682 14.4168
163 3 5.49841 12.0658 10.0215
164 3 8.88434 17.1352 15.7186
165 6 7.04447 9.87266 13.6171
166 6 7.33295 19.0895 12.1334
167 6 5.30111 14.8225 16.4549
168 6 9.18731 14.454 9.29568
169 4 4.94692 17.4645 10.407
170 4 0.559664 11.6123 15.4851
171 4 3.06586 13.074 11.525
172 4 2.6982 16.7475 14.7608
173 4 1.10588 16.335 11.4005
174 4 4.21748 12.9328 14.2355
175 4 6.39843 11.5552 9.86619
176 4 7.84704 17.5636 15.7971
177 7 7.43484 13.3834 14.4274
178 8 6.97597 13.1679 15.2541
179 8 6.70448 13.4137 13.8018
180 7 6.93661 15.6373 12.5467
181 8 6.92544 16.5769 12.789
182 8 7.86633 15.5738 12.3594
183 7 5.30377 4.83734 12.9253
184 8 4.37022 4.86948 13.1696
185 8 5.5401 5.77068 12.7642
186 7 7.28069 5.0559 11.6529
187 8 7.22257 5.34163 12.6366
188 8 8.80965 3.85409 11.6915
189 7 2.87236 4.92694 4.37552
190 8 2.62204 5.81982 4.55659
191 8 2.39527 4.44296 3.71833
192 7 4.64259 2.79863 4.06705
193 8 4.74437 2.67088 3.12426
194 8 5.25643 3.51423 4.12543
195 9 3.0352 9.71646 9.68243
196 10 3.07086 9.14736 8.68266
197 10 2.46561 10.3402 10.6082
198 9 9.03376 11.7396 10.5643
199 10 8.45026 11.547 11.5399
200 10 0.74273 11.7208 9.67634
201 9 7.2061 6.94674 9.87053
202 10 7.46493 6.49309 8.90297
203 10 6.98122 7.4338 10.79
204 9 1.76152 10.7218 7.78528
205 10 1.08035 9.82344 7.45577
206 10 2.6401 11.2736 8.3038
207 9 6.37027 9.17654 7.39261
208 10 7.27645 8.94514 6.58189
209 10 5.7887 8.84854 8.36211
210 9 9.1577 7.91066 6.98669
211 10 0.85726 7.52542 6.1415
212 10 8.43398 7.98354 7.90538
ITEM: TIMESTEP
62
ITEM: NUMBER OF ATOMS
212
ITEM: BOX BOUNDS xy xz yz pp pp pp
-5.6015232330418385e-02 9.6081218223905722e+00 0.0000000000000000e+00
-1.2182988561670172e-01 1.9508828985616709e+01 6.3830639006013512e-01
-1.0722447559878212e-01 1.7170039575598800e+01 0.0000000000000000e+00
ITEM: ATOMS id type x y z
1 1 8.76101 0.404551 3.65536
2 1 4.97528 9.19488 4.73569
3 1 7.07681 5.35049 0.361661
4 1 6.63637 4.23712 8.04338
5 2 7.76902 8.64448 3.10152
6 2 6.19321 0.928752 5.40716
7 2 8.12216 3.66421 1.00929
8 2 5.53153 5.84112 7.28966
9 2 6.5046 8.19741 3.54885
10 2 7.39005 1.38566 4.86968
11 2 0.422375 3.35329 0.64898
12 2 4.30593 6.29134 7.83626
13 2 7.14463 6.7448 1.89831
14 2 6.59309 2.72616 6.69835
15 2 8.76465 1.83671 2.31188
16 2 4.77719 7.58597 5.84202
17 5 1.10252 0.668353 5.22274
18 5 3.66198 8.97021 3.22751
19 5 1.48838 5.57332 7.56808
20 5 3.16451 4.0701 1.0061
21 5 3.16089 0.200132 5.71988
22 5 1.56751 9.41068 2.7319
23 5 8.59573 4.94951 7.07216
24 5 5.193 4.51882 1.40626
25 3 8.10636 7.69199 2.17309
26 3 5.66796 1.77545 6.44942
27 3 7.79472 2.78605 2.03052
28 3 5.84834 6.73032 6.27159
29 3 6.21056 7.07443 2.86241
30 3 7.59619 2.38811 5.72737
31 3 0.728258 2.28608 1.44202
32 3 3.92 7.26448 6.92094
33 6 2.17242 0.261239 4.90715
34 6 2.54348 9.31797 3.50599
35 6 0.49608 5.10468 7.9012
36 6 4.25036 4.43361 0.619012
37 4 0.128886 7.43193 1.86235
38 4 4.65031 1.83551 6.8719
39 4 6.80269 2.58067 2.3923
40 4 6.86221 6.82617 6.01137
41 4 5.2052 6.71837 2.7398
42 4 8.58257 2.7369 6.0162
43 4 1.68175 1.8215 1.3498
44 4 2.93438 7.77381 6.82135
45 1 4.55472 0.429779 12.3384
46 1 0.853326 9.15846 13.3288
47 1 2.96796 5.24311 9.01644
48 1 2.43522 4.23886 16.6469
49 2 3.59313 8.29838 12.0769
50 2 1.7212 0.965015 13.8081
51 2 4.03577 3.77945 9.73523
52 2 1.45393 5.93911 16.0734
53 2 2.12464 8.19443 11.9917
54 2 3.10105 1.16513 13.7024
55 2 5.28708 3.37114 9.2661
56 2 9.1929 6.34222 16.4885
57 2 2.96906 6.69977 10.5269
58 2 2.40973 2.83557 15.3118
59 2 4.49505 1.75674 10.828
60 2 0.762011 7.62537 14.637
61 5 5.79531 0.534361 13.818
62 5 8.50171 9.16531 12.0491
63 5 6.30731 5.60873 16.2473
64 5 8.15603 3.88599 9.50825
65 5 7.85191 0.225223 14.2975
66 5 6.35263 9.59956 11.3876
67 5 4.25473 5.05022 15.7387
68 5 1.06783 4.53999 10.0652
69 3 4.12653 7.11297 11.4174
70 3 1.46418 1.89838 14.8926
71 3 3.55526 2.74184 10.6041
72 3 1.83584 6.8995 15.1013
73 3 1.83796 7.08223 11.2187
74 3 3.34837 2.39888 14.3766
75 3 5.53491 2.19523 10.062
76 3 8.82603 7.31507 15.6008
77 6 6.95393 0.225506 13.5265
78 6 7.26471 9.28868 12.2678
79 6 5.18641 5.20705 16.5522
80 6 9.19385 4.41693 9.25239
81 4 4.81011 7.4928 10.7942
82 4 9.49548 1.89765 15.319
83 4 2.73458 2.96356 11.3308
84 4 2.58652 6.58566 14.3773
85 4 0.793516 6.85181 10.976
86 4 4.34664 2.62977 14.556
87 4 6.52314 1.7296 9.82194
88 4 7.91491 7.80873 15.5777
89 1 8.69353 10.2172 3.70628
90 1 5.04251 18.9635 4.6933
91 1 7.12069 15.1037 0.441022
92 1 6.64273 14.0425 8.03167
93 2 7.7736 18.4604 3.12292
94 2 5.89362 11.2118 5.01658
95 2 8.1101 13.4393 0.935138
96 2 5.52927 15.6626 7.31584
97 2 6.41038 18.1579 3.38158
98 2 7.32439 11.331 4.86522
99 2 0.41107 13.065 0.626412
100 2 4.346 16.235 7.79367
101 2 7.15649 16.6145 1.75952
102 2 6.7011 12.6368 6.59138
103 2 8.60154 11.6559 2.37993
104 2 5.02354 17.5076 6.0791
105 5 1.16938 10.5025 5.0619
106 5 3.63631 18.9225 3.17512
107 5 1.48008 15.3429 7.56261
108 5 3.23959 13.9218 0.88861
109 5 3.10367 10.0307 5.80665
110 5 1.54137 19.1604 2.66812
111 5 8.46186 14.8983 7.04965
112 5 5.23171 14.3281 1.40797
113 3 8.10953 17.5355 2.08713
114 3 5.68693 11.7435 6.29708
115 3 7.7348 12.619 2.02409
116 3 5.91363 16.4921 6.32598
117 3 6.21706 16.9256 2.67704
118 3 7.75909 12.2385 5.79469
119 3 0.572267 12.006 1.4961
120 3 3.9545 17.1661 6.88307
121 6 2.28447 10.0967 4.90194
122 6 2.45482 19.3044 3.44293
123 6 0.384596 15.0382 7.80159
124 6 4.34902 14.3394 0.61762
125 4 0.143679 17.2896 1.95389
126 4 4.72231 12.1534 6.4904
127 4 6.67176 12.594 2.35118
128 4 6.85951 16.5769 5.89515
129 4 5.2093 16.5105 2.81302
130 4 8.65219 12.9553 5.56846
131 4 1.40965 11.2859 1.35349
132 4 3.23117 17.9741 7.13838
133 1 4.45717 10.2035 12.2926
134 1 0.819245 18.9315 13.4153
135 1 2.87773 15.0482 9.08464
136 1 2.39361 14.0766 16.6114
137 2 3.42508 18.4237 11.7595
138 2 1.87416 10.7161 13.982
139 2 3.91317 13.4838 9.63493
140 2 1.43919 15.633 16.0409
141 2 2.05704 18.1083 12.1054
142 2 3.17354 11.1047 13.6173
143 2 5.19445 13.1103 9.24258
144 2 9.22794 16.0293 16.4701
145 2 2.98374 16.5479 10.4118
146 2 2.40004 12.6377 15.2219
147 2 4.72199 11.8646 11.0744
148 2 0.763777 17.5527 14.8246
149 5 5.99768 10.339 13.822
150 5 8.51007 18.8702 11.8521
151 5 6.31265 15.4357 16.2325
152 5 8.16883 13.9191 9.43754
153 5 8.01749 10.0475 14.2805
154 5 6.39421 19.0954 11.38
155 5 4.39924 15.032 15.7222
156 5 1.16727 14.2877 10.0116
157 3 3.96657 17.4044 10.8638
158 3 1.53751 11.6232 14.996
159 3 3.70011 12.6927 10.6965
160 3 1.68457 16.6155 15.0529
161 3 1.90493 17.0312 11.2301
162 3 3.42008 12.1675 14.4181
163 3 5.49968 12.0658 10.0208
164 3 8.88522 17.1374 15.7224
165 6 7.04531 9.87047 13.6201
166 6 7.33353 19.0916 12.1351
167 6 5.30148 14.8219 16.4589
168 6 9.18876 14.4581 9.29711
169 4 4.94514 17.4717 10.4174
170 4 0.553567 11.6064 15.4812
171 4 3.06821 13.0852 11.532
172 4 2.69511 16.754 14.7643
173 4 1.10904 16.336 11.3982
174 4 4.21662 12.94 14.2351
175 4 6.396 11.559 9.86471
176 4 7.8409 17.5659 15.8056
177 7 7.4371 13.3835 14.4295
178 8 6.98472 13.1729 15.2556
179 8 6.70646 13.4248 13.8046
180 7 6.93719 15.6389 12.5483
181 8 6.92561 16.5735 12.7889
182 8 7.87001 15.5795 12.3562
183 7 5.30268 4.83555 12.9259
184 8 4.37042 4.86359 13.1774
185 8 5.53558 5.76692 12.7533
186 7 7.2864 5.0416 11.6613
187 8 7.21043 5.33408 12.6404
188 8 8.80189 3.82628 11.7058
189 7 2.86958 4.92829 4.37265
190 8 2.61784 5.82044 4.56365
191 8 2.40323 4.43416 3.71248
192 7 4.64205 2.79702 4.06339
193 8 4.75156 2.66904 3.12123
194 8 5.25626 3.51541 4.11771
195 9 3.03157 9.71917 9.67892
196 10 3.06695 9.15614 8.67686
197 10 2.46229 10.3374 10.6058
198 9 9.03567 11.74 10.5637
199 10 8.45229 11.5536 11.5415
200 10 0.740748 11.716 9.67523
201 9 7.20584 6.95005 9.86743
202 10 7.46721 6.49567 8.90101
203 10 6.97875 7.43512 10.787
204 9 1.761 10.7233 7.78297
205 10 1.07909 9.82436 7.45768
206 10 2.64131 11.2755 8.3003
207 9 6.37477 9.17758 7.39514
208 10 7.2803 8.94215 6.58623
209 10 5.79115 8.85304 8.36723
210 9 9.16008 7.91043 6.98675
211 10 0.853598 7.5278 6.13971
212 10 8.43955 7.98347 7.90555
ITEM: TIMESTEP
63
ITEM: NUMBER OF ATOMS
212
ITEM: BOX BOUNDS xy xz yz pp pp pp
-5.7320877555732785e-02 9.6096121379739792e+00 0.0000000000000000e+00
-1.2466958835180186e-01 1.9511668688351811e+01 6.3849106041822912e-01
-1.0972374443652555e-01 1.7172538844436545e+01 0.0000000000000000e+00
ITEM: ATOMS id type x y z
1 1 8.76314 0.401565 3.65352
2 1 4.97444 9.19566 4.73441
3 1 7.07671 5.34934 0.358581
4 1 6.63755 4.2356 8.04391
5 2 7.77091 8.64521 3.10086
6 2 6.19712 0.923736 5.40642
7 2 8.12255 3.66369 1.00674
8 2 5.52932 5.83792 7.28725
9 2 6.50514 8.19702 3.54859
10 2 7.38899 1.38192 4.86896
11 2 0.422334 3.35187 0.646858
12 2 4.30372 6.29268 7.83388
13 2 7.14651 6.74134 1.89646
14 2 6.59234 2.72426 6.7
15 2 8.76502 1.83346 2.31076
16 2 4.77463 7.58294 5.83741
17 5 1.1029 0.666068 5.22273
18 5 3.66058 8.9706 3.22542
19 5 1.48793 5.57224 7.56838
20 5 3.165 4.06938 1.00551
21 5 3.15962 0.197466 5.71905
22 5 1.5687 9.41084 2.73131
23 5 8.59846 4.94533 7.07086
24 5 5.19134 4.51815 1.40382
25 3 8.10667 7.6908 2.172
26 3 5.67157 1.77225 6.45023
27 3 7.79812 2.78262 2.02892
28 3 5.84329 6.72841 6.26779
29 3 6.21232 7.07326 2.86351
30 3 7.59835 2.38711 5.7268
31 3 0.727738 2.28403 1.44033
32 3 3.92033 7.25968 6.91829
33 6 2.17082 0.258374 4.90228
34 6 2.54341 9.31805 3.50614
35 6 0.495878 5.10094 7.90485
36 6 4.24963 4.43264 0.615773
37 4 0.131109 7.42768 1.86367
38 4 4.65301 1.83481 6.87242
39 4 6.80989 2.56958 2.38968
40 4 6.85479 6.81841 6.00251
41 4 5.20732 6.71748 2.74042
42 4 8.58315 2.73855 6.02167
43 4 1.67969 1.82084 1.34648
44 4 2.92962 7.76408 6.81798
45 1 4.55529 0.426947 12.3398
46 1 0.85221 9.15856 13.3294
47 1 2.96791 5.24045 9.01603
48 1 2.43497 4.2375 16.6495
49 2 3.59321 8.29011 12.0837
50 2 1.72093 0.962742 13.8088
51 2 4.03887 3.77845 9.73579
52 2 1.45211 5.93827 16.076
53 2 2.12433 8.19337 11.9932
54 2 3.09905 1.16137 13.7053
55 2 5.28596 3.37082 9.26659
56 2 9.19502 6.34193 16.4908
57 2 2.97389 6.69598 10.5316
58 2 2.4084 2.833 15.3127
59 2 4.49524 1.75333 10.8269
60 2 0.759668 7.62569 14.6369
61 5 5.79469 0.530071 13.8197
62 5 8.50097 9.16782 12.0523
63 5 6.30655 5.60907 16.2492
64 5 8.16045 3.88103 9.50823
65 5 7.84997 0.223095 14.2983
66 5 6.35441 9.60536 11.392
67 5 4.25486 5.0485 15.741
68 5 1.06629 4.53961 10.0661
69 3 4.12289 7.10349 11.4246
70 3 1.46377 1.89741 14.8941
71 3 3.55687 2.73822 10.6042
72 3 1.83464 6.9006 15.1033
73 3 1.83592 7.0806 11.2186
74 3 3.3473 2.39582 14.3787
75 3 5.53398 2.19141 10.0637
76 3 8.82755 7.31435 15.6026
77 6 6.9544 0.22207 13.5259
78 6 7.26541 9.28936 12.2706
79 6 5.18461 5.20484 16.5603
80 6 9.19672 4.41468 9.25136
81 4 4.81297 7.48657 10.8113
82 4 9.49588 1.89821 15.3161
83 4 2.7344 2.96166 11.335
84 4 2.58614 6.57897 14.3805
85 4 0.791135 6.85845 10.9669
86 4 4.34058 2.62438 14.5628
87 4 6.52297 1.72558 9.81759
88 4 7.92249 7.80677 15.5759
89 1 8.69461 10.2171 3.7052
90 1 5.04268 18.9663 4.69149
91 1 7.12128 15.1046 0.438856
92 1 6.64382 14.0436 8.03192
93 2 7.77411 18.4637 3.12172
94 2 5.89519 11.2165 5.00993
95 2 8.11037 13.44 0.933145
96 2 5.52701 15.6619 7.31629
97 2 6.41142 18.1607 3.37857
98 2 7.32334 11.3339 4.86318
99 2 0.409781 13.0649 0.624204
100 2 4.34571 16.2374 7.79349
101 2 7.1576 16.6154 1.75763
102 2 6.70277 12.6402 6.59155
103 2 8.60158 11.6539 2.37965
104 2 5.02454 17.5118 6.07583
105 5 1.16984 10.5046 5.05826
106 5 3.63583 18.9275 3.17169
107 5 1.47756 15.3443 7.56181
108 5 3.23983 13.9239 0.88717
109 5 3.10198 10.0308 5.80535
110 5 1.54211 19.1629 2.66687
111 5 8.46449 14.8994 7.05077
112 5 5.23105 14.3302 1.40601
113 3 8.1103 17.5376 2.08459
114 3 5.68716 11.7476 6.29532
115 3 7.73601 12.6201 2.02192
116 3 5.91314 16.4948 6.32223
117 3 6.21976 16.9284 2.67473
118 3 7.76016 12.2388 5.79425
119 3 0.569582 12.0065 1.49435
120 3 3.95373 17.1684 6.88203
121 6 2.2854 10.0969 4.89845
122 6 2.45172 19.3101 3.44339
123 6 0.383142 15.0416 7.80113
124 6 4.35028 14.3421 0.613744
125 4 0.144621 17.2911 1.95899
126 4 4.72954 12.1651 6.48899
127 4 6.66654 12.5996 2.34124
128 4 6.85298 16.5844 5.89191
129 4 5.20964 16.5196 2.81515
130 4 8.65989 12.9629 5.56323
131 4 1.40851 11.2814 1.34973
132 4 3.23367 17.9829 7.14143
133 1 4.4566 10.203 12.2936
134 1 0.81753 18.934 13.417
135 1 2.87636 15.0482 9.08506
136 1 2.39287 14.0782 16.6134
137 2 3.42491 18.4256 11.7595
138 2 1.87395 10.7148 13.9845
139 2 3.91264 13.4875 9.63492
140 2 1.43654 15.6324 16.0451
141 2 2.05534 18.1103 12.1053
142 2 3.17371 11.1042 13.6189
143 2 5.19582 13.1115 9.24115
144 2 9.23033 16.03 16.4726
145 2 2.983 16.5485 10.413
146 2 2.39983 12.6411 15.2246
147 2 4.7249 11.8662 11.0787
148 2 0.763074 17.5565 14.8264
149 5 5.9987 10.3382 13.8241
150 5 8.51 18.8748 11.8526
151 5 6.31311 15.4391 16.2354
152 5 8.17285 13.9216 9.43738
153 5 8.0183 10.048 14.2808
154 5 6.39636 19.0966 11.382
155 5 4.40032 15.0349 15.7249
156 5 1.16616 14.2905 10.0104
157 3 3.96391 17.4062 10.8673
158 3 1.5377 11.6226 14.9979
159 3 3.70266 12.695 10.6994
160 3 1.68323 16.6195 15.0526
161 3 1.90511 17.0344 11.2298
162 3 3.41969 12.1669 14.4194
163 3 5.50097 12.0658 10.0201
164 3 8.88605 17.1395 15.7261
165 6 7.04618 9.86825 13.623
166 6 7.33409 19.0937 12.1369
167 6 5.30187 14.8213 16.4629
168 6 9.19032 14.4622 9.29847
169 4 4.94342 17.4788 10.4277
170 4 0.547541 11.6005 15.4771
171 4 3.07063 13.0962 11.5385
172 4 2.69229 16.7606 14.7676
173 4 1.11196 16.337 11.396
174 4 4.21561 12.9467 14.2345
175 4 6.39404 11.5626 9.86328
176 4 7.83529 17.5681 15.8141
177 7 7.43935 13.3837 14.4316
178 8 6.99354 13.1779 15.257
179 8 6.70856 13.4359 13.8074
180 7 6.93777 15.6405 12.5499
181 8 6.92555 16.5701 12.7888
182 8 7.8738 15.5848 12.3529
183 7 5.3016 4.83376 12.9266
184 8 4.37053 4.85782 13.1854
185 8 5.53078 5.76303 12.7426
186 7 7.29216 5.02728 11.6698
187 8 7.19845 5.32624 12.6435
188 8 8.79347 3.79918 11.7199
189 7 2.86684 4.92963 4.36981
190 8 2.61328 5.82112 4.57047
191 8 2.41096 4.4256 3.70651
192 7 4.6415 2.7954 4.0597
193 8 4.7585 2.66699 3.11806
194 8 5.25616 3.5169 4.11034
195 9 3.02777 9.72197 9.67558
196 10 3.06311 9.16485 8.67111
197 10 2.45906 10.3345 10.6034
198 9 9.0376 11.7404 10.5631
199 10 8.45431 11.5602 11.5431
200 10 0.738752 11.7113 9.6741
201 9 7.20563 6.95324 9.86417
202 10 7.46949 6.49815 8.89893
203 10 6.97622 7.43647 10.7843
204 9 1.76049 10.7246 7.78067
205 10 1.0778 9.82533 7.45962
206 10 2.64251 11.2775 8.29675
207 9 6.37939 9.17849 7.39762
208 10 7.284 8.93931 6.59059
209 10 5.79359 8.85759 8.37233
210 9 9.1625 7.91011 6.98683
211 10 0.849897 7.53022 6.1379
212 10 8.44521 7.98342 7.90572
ITEM: TIMESTEP
64
ITEM: NUMBER OF ATOMS
212
ITEM: BOX BOUNDS xy xz yz pp pp pp
-5.8627584397061838e-02 9.6111036653282884e+00 0.0000000000000000e+00
-1.2751160004023987e-01 1.9514510700040248e+01 6.3867588093120886e-01
-1.1222504542187828e-01 1.7175040145421896e+01 0.0000000000000000e+00
ITEM: ATOMS id type x y z
1 1 8.76526 0.398581 3.65169
2 1 4.97361 9.19646 4.73312
3 1 7.07663 5.34819 0.355507
4 1 6.63872 4.23408 8.04444
5 2 7.77276 8.64589 3.10023
6 2 6.20096 0.918714 5.40571
7 2 8.12297 3.66316 1.00418
8 2 5.52706 5.83473 7.28486
9 2 6.50568 8.19667 3.54832
10 2 7.38793 1.37816 4.8683
11 2 0.422252 3.35046 0.644766
12 2 4.30152 6.29399 7.83142
13 2 7.1484 6.73788 1.89465
14 2 6.59165 2.72237 6.7016
15 2 8.7654 1.83023 2.3096
16 2 4.77215 7.57988 5.83292
17 5 1.10323 0.663785 5.2227
18 5 3.6592 8.97098 3.22331
19 5 1.48757 5.57117 7.56871
20 5 3.16546 4.06867 1.00488
21 5 3.15829 0.1948 5.71816
22 5 1.56991 9.41097 2.73072
23 5 8.60121 4.94115 7.06958
24 5 5.18968 4.51746 1.40136
25 3 8.107 7.68958 2.17087
26 3 5.67524 1.76903 6.45097
27 3 7.80154 2.77916 2.02731
28 3 5.83814 6.72648 6.264
29 3 6.2141 7.07207 2.86454
30 3 7.60046 2.38618 5.72634
31 3 0.727183 2.28197 1.43866
32 3 3.92065 7.25493 6.91555
33 6 2.16939 0.255472 4.89748
34 6 2.54326 9.31819 3.50632
35 6 0.495461 5.09711 7.9084
36 6 4.249 4.43169 0.612593
37 4 0.13296 7.42378 1.8652
38 4 4.65584 1.83388 6.87275
39 4 6.81687 2.55869 2.38695
40 4 6.84766 6.8105 5.99318
41 4 5.20924 6.71655 2.74121
42 4 8.58388 2.74008 6.02675
43 4 1.67785 1.81995 1.3432
44 4 2.9253 7.75393 6.81507
45 1 4.55586 0.424108 12.3411
46 1 0.851086 9.15866 13.3299
47 1 2.96785 5.2378 9.01563
48 1 2.43472 4.23614 16.6522
49 2 3.59318 8.28175 12.0904
50 2 1.72072 0.960529 13.8096
51 2 4.04194 3.77738 9.73636
52 2 1.45026 5.93747 16.0787
53 2 2.12414 8.19225 11.9947
54 2 3.09704 1.1577 13.7081
55 2 5.28482 3.3704 9.26715
56 2 9.19714 6.34161 16.493
57 2 2.97879 6.69215 10.5364
58 2 2.40707 2.83037 15.3136
59 2 4.49544 1.74992 10.8257
60 2 0.757335 7.62602 14.6367
61 5 5.79409 0.525769 13.8214
62 5 8.50019 9.17029 12.0554
63 5 6.30578 5.6094 16.251
64 5 8.16483 3.87604 9.50818
65 5 7.84809 0.220968 14.2992
66 5 6.35623 9.61117 11.3964
67 5 4.25502 5.04679 15.7434
68 5 1.06476 4.53923 10.0671
69 3 4.11898 7.09418 11.4316
70 3 1.46334 1.89638 14.8956
71 3 3.55852 2.73468 10.6043
72 3 1.8334 6.90162 15.1053
73 3 1.83391 7.07901 11.2186
74 3 3.34619 2.39271 14.3809
75 3 5.53309 2.1877 10.0654
76 3 8.82918 7.31363 15.6044
77 6 6.95486 0.218597 13.5252
78 6 7.26611 9.29013 12.2733
79 6 5.18273 5.20259 16.5684
80 6 9.1997 4.41245 9.25037
81 4 4.81655 7.48032 10.8281
82 4 9.49622 1.89891 15.3133
83 4 2.73449 2.95956 11.3388
84 4 2.58578 6.5724 14.3838
85 4 0.788928 6.86513 10.9575
86 4 4.33512 2.61917 14.5698
87 4 6.52232 1.72128 9.81358
88 4 7.92942 7.805 15.5742
89 1 8.69568 10.2169 3.70411
90 1 5.04286 18.9692 4.68967
91 1 7.12187 15.1054 0.436684
92 1 6.6449 14.0448 8.03217
93 2 7.77456 18.4669 3.12046
94 2 5.89685 11.2211 5.00339
95 2 8.11069 13.4406 0.931208
96 2 5.52475 15.6613 7.31674
97 2 6.41252 18.1635 3.37552
98 2 7.32225 11.3367 4.86118
99 2 0.40842 13.0648 0.622025
100 2 4.34539 16.2397 7.79331
101 2 7.15873 16.6163 1.75574
102 2 6.70443 12.6437 6.59172
103 2 8.60164 11.6519 2.37933
104 2 5.02552 17.5161 6.07257
105 5 1.17028 10.5067 5.05463
106 5 3.63528 18.9325 3.16828
107 5 1.47511 15.3457 7.56096
108 5 3.24006 13.926 0.885724
109 5 3.10031 10.0308 5.80399
110 5 1.54282 19.1653 2.66563
111 5 8.46711 14.9004 7.05186
112 5 5.23044 14.3324 1.40407
113 3 8.11108 17.5397 2.08209
114 3 5.68743 11.7518 6.29346
115 3 7.73716 12.6212 2.01972
116 3 5.91259 16.4975 6.31849
117 3 6.22241 16.9314 2.67248
118 3 7.76123 12.2392 5.79379
119 3 0.566953 12.007 1.49259
120 3 3.95301 17.1707 6.88098
121 6 2.28634 10.097 4.89491
122 6 2.44873 19.3158 3.44385
123 6 0.381592 15.0448 7.80079
124 6 4.3515 14.3447 0.609855
125 4 0.145399 17.2927 1.96397
126 4 4.73639 12.1767 6.48766
127 4 6.66169 12.6051 2.33127
128 4 6.84708 16.5918 5.8886
129 4 5.21016 16.5284 2.81688
130 4 8.66681 12.9697 5.55818
131 4 1.40714 11.2772 1.34592
132 4 3.23635 17.9913 7.14456
133 1 4.45604 10.2025 12.2946
134 1 0.815804 18.9364 13.4188
135 1 2.875 15.0483 9.08547
136 1 2.39214 14.0798 16.6153
137 2 3.42473 18.4275 11.7595
138 2 1.87378 10.7137 13.987
139 2 3.91217 13.4912 9.63493
140 2 1.43388 15.6319 16.0492
141 2 2.05377 18.1122 12.1052
142 2 3.17383 11.1036 13.6206
143 2 5.19718 13.1127 9.23972
144 2 9.23268 16.0308 16.4752
145 2 2.98222 16.5491 10.4142
146 2 2.39965 12.6445 15.2273
147 2 4.72774 11.8677 11.0831
148 2 0.762372 17.5604 14.8282
149 5 5.99965 10.3374 13.8262
150 5 8.50992 18.8795 11.8532
151 5 6.3136 15.4425 16.2382
152 5 8.17679 13.9241 9.43726
153 5 8.01915 10.0486 14.2811
154 5 6.39848 19.0977 11.3838
155 5 4.40133 15.0379 15.7275
156 5 1.16503 14.2934 10.0092
157 3 3.96115 17.4081 10.8708
158 3 1.53785 11.6221 14.9998
159 3 3.70517 12.6973 10.7024
160 3 1.68193 16.6235 15.0525
161 3 1.90532 17.0376 11.2295
162 3 3.41932 12.1663 14.4207
163 3 5.50227 12.0658 10.0194
164 3 8.88681 17.1416 15.7299
165 6 7.04706 9.866 13.626
166 6 7.33463 19.0959 12.1387
167 6 5.30229 14.8207 16.4669
168 6 9.19199 14.4664 9.29975
169 4 4.94177 17.4859 10.4379
170 4 0.541629 11.5947 15.473
171 4 3.07315 13.1071 11.5446
172 4 2.68977 16.7674 14.7707
173 4 1.11462 16.3381 11.3939
174 4 4.2144 12.9529 14.2338
175 4 6.3926 11.5659 9.8619
176 4 7.83029 17.5703 15.8225
177 7 7.4416 13.3838 14.4336
178 8 7.00239 13.1829 15.2583
179 8 6.7108 13.4471 13.8101
180 7 6.93836 15.6422 12.5516
181 8 6.92526 16.5667 12.7887
182 8 7.87762 15.5899 12.3496
183 7 5.30052 4.83197 12.9272
184 8 4.37055 4.85218 13.1935
185 8 5.5257 5.75902 12.732
186 7 7.29796 5.01295 11.6783
187 8 7.18664 5.3181 12.6459
188 8 8.7844 3.77277 11.7339
189 7 2.86414 4.93095 4.36699
190 8 2.60834 5.82182 4.57703
191 8 2.41848 4.41734 3.70046
192 7 4.64095 2.79379 4.05598
193 8 4.76518 2.66474 3.11474
194 8 5.25612 3.51867 4.10336
195 9 3.02378 9.72484 9.6724
196 10 3.05934 9.17348 8.6654
197 10 2.45593 10.3315 10.6008
198 9 9.03954 11.7408 10.5626
199 10 8.45631 11.567 11.5447
200 10 0.736743 11.7066 9.67294
201 9 7.20547 6.95633 9.86076
202 10 7.47177 6.50053 8.89675
203 10 6.97365 7.43786 10.7818
204 9 1.75998 10.7259 7.77839
205 10 1.07649 9.82636 7.46159
206 10 2.64369 11.2796 8.29313
207 9 6.38415 9.17927 7.40005
208 10 7.28753 8.93661 6.59495
209 10 5.79604 8.8622 8.3774
210 9 9.16495 7.9097 6.98693
211 10 0.846159 7.53267 6.13607
212 10 8.45095 7.98338 7.90589
ITEM: TIMESTEP
65
ITEM: NUMBER OF ATOMS
212
ITEM: BOX BOUNDS xy xz yz pp pp pp
-5.9934864858965931e-02 9.6125958474360225e+00 0.0000000000000000e+00
-1.3035485932020130e-01 1.9517353959320211e+01 6.3886078257703771e-01
-1.1472744443294225e-01 1.7177542544432960e+01 0.0000000000000000e+00
ITEM: ATOMS id type x y z
1 1 8.76738 0.3956 3.64986
2 1 4.97277 9.19725 4.73183
3 1 7.07654 5.34704 0.352441
4 1 6.6399 4.23256 8.04496
5 2 7.77456 8.64651 3.09962
6 2 6.20472 0.913687 5.40503
7 2 8.12341 3.66263 1.00163
8 2 5.52475 5.83158 7.28247
9 2 6.50623 8.19635 3.54801
10 2 7.38687 1.37438 4.86769
11 2 0.422129 3.34904 0.642706
12 2 4.29934 6.29525 7.82888
13 2 7.15029 6.73443 1.89288
14 2 6.59101 2.72047 6.70315
15 2 8.76579 1.82703 2.3084
16 2 4.76974 7.57677 5.82854
17 5 1.10352 0.661503 5.22267
18 5 3.65783 8.97135 3.22118
19 5 1.48731 5.5701 7.56906
20 5 3.1659 4.06795 1.00422
21 5 3.1569 0.192136 5.7172
22 5 1.57115 9.4111 2.73015
23 5 8.60398 4.93697 7.06833
24 5 5.18802 4.51677 1.39889
25 3 8.10737 7.68834 2.1697
26 3 5.67898 1.76578 6.45164
27 3 7.80501 2.77567 2.0257
28 3 5.83289 6.72454 6.26023
29 3 6.2159 7.07088 2.86548
30 3 7.60254 2.38533 5.72599
31 3 0.72659 2.2799 1.43701
32 3 3.92096 7.25023 6.91272
33 6 2.16812 0.252537 4.89274
34 6 2.54301 9.31838 3.50653
35 6 0.494833 5.0932 7.91185
36 6 4.24847 4.43076 0.609477
37 4 0.134399 7.42025 1.86693
38 4 4.65882 1.83273 6.87289
39 4 6.82357 2.54799 2.3841
40 4 6.84085 6.80247 5.98339
41 4 5.21098 6.71557 2.74216
42 4 8.58475 2.74149 6.03143
43 4 1.67623 1.81884 1.33995
44 4 2.92147 7.74337 6.81262
45 1 4.55642 0.421261 12.3425
46 1 0.849954 9.15876 13.3305
47 1 2.96779 5.23516 9.01524
48 1 2.43447 4.23478 16.6548
49 2 3.59305 8.2733 12.0971
50 2 1.72056 0.958379 13.8106
51 2 4.04498 3.77625 9.73694
52 2 1.44838 5.9367 16.0812
53 2 2.12405 8.19107 11.9962
54 2 3.09501 1.15412 13.7109
55 2 5.28366 3.3699 9.26779
56 2 9.19925 6.34126 16.4953
57 2 2.98376 6.68828 10.5413
58 2 2.40574 2.82768 15.3144
59 2 4.49564 1.74652 10.8246
60 2 0.755014 7.62637 14.6367
61 5 5.79352 0.521455 13.8231
62 5 8.49936 9.17274 12.0584
63 5 6.30498 5.60971 16.2529
64 5 8.16919 3.87104 9.50811
65 5 7.84627 0.218845 14.3002
66 5 6.35811 9.61699 11.401
67 5 4.2552 5.0451 15.7457
68 5 1.06325 4.53884 10.068
69 3 4.11482 7.08503 11.4385
70 3 1.46289 1.89528 14.8971
71 3 3.5602 2.73121 10.6043
72 3 1.83212 6.90255 15.1074
73 3 1.83196 7.07747 11.2187
74 3 3.34503 2.38954 14.383
75 3 5.53225 2.18412 10.0669
76 3 8.8309 7.31292 15.6062
77 6 6.9553 0.215088 13.5245
78 6 7.2668 9.291 12.276
79 6 5.18077 5.20032 16.5763
80 6 9.20279 4.41025 9.24943
81 4 4.82084 7.47405 10.8444
82 4 9.49651 1.89976 15.3105
83 4 2.73489 2.95725 11.3424
84 4 2.58543 6.56597 14.3872
85 4 0.786907 6.87185 10.9479
86 4 4.33028 2.61414 14.5768
87 4 6.52117 1.71672 9.80994
88 4 7.93562 7.80343 15.5727
89 1 8.69676 10.2167 3.70302
90 1 5.04303 18.9721 4.68786
91 1 7.12246 15.1062 0.434506
92 1 6.64599 14.046 8.03242
93 2 7.77496 18.47 3.11915
94 2 5.8986 11.2256 4.99696
95 2 8.11104 13.4412 0.929328
96 2 5.5225 15.6608 7.31719
97 2 6.41368 18.1662 3.37244
98 2 7.32112 11.3396 4.85921
99 2 0.406983 13.0647 0.619874
100 2 4.34504 16.2419 7.79312
101 2 7.15988 16.6171 1.75388
102 2 6.70609 12.6471 6.59189
103 2 8.60173 11.6499 2.37894
104 2 5.02648 17.5203 6.06933
105 5 1.1707 10.5089 5.051
106 5 3.63466 18.9375 3.16487
107 5 1.47273 15.3471 7.56007
108 5 3.24028 13.9281 0.884273
109 5 3.09869 10.0308 5.80259
110 5 1.5435 19.1678 2.66439
111 5 8.46974 14.9015 7.05294
112 5 5.22988 14.3345 1.40215
113 3 8.11187 17.5419 2.07965
114 3 5.68775 11.756 6.2915
115 3 7.73827 12.6224 2.01748
116 3 5.91198 16.5003 6.31476
117 3 6.22501 16.9345 2.6703
118 3 7.76232 12.2396 5.79331
119 3 0.564383 12.0074 1.49084
120 3 3.95233 17.1731 6.87993
121 6 2.28731 10.097 4.89133
122 6 2.44587 19.3214 3.44431
123 6 0.379946 15.0481 7.80058
124 6 4.35266 14.3474 0.60596
125 4 0.145992 17.2942 1.96883
126 4 4.74283 12.1882 6.48639
127 4 6.65725 12.6104 2.32126
128 4 6.84186 16.5989 5.88521
129 4 5.21086 16.537 2.81821
130 4 8.67287 12.9758 5.55333
131 4 1.40551 11.2736 1.34205
132 4 3.23922 17.9992 7.14777
133 1 4.4555 10.202 12.2956
134 1 0.814066 18.9388 13.4205
135 1 2.87364 15.0484 9.08588
136 1 2.39142 14.0814 16.6172
137 2 3.42453 18.4293 11.7595
138 2 1.87365 10.7125 13.9895
139 2 3.91177 13.4949 9.63496
140 2 1.43122 15.6315 16.0533
141 2 2.05233 18.1141 12.105
142 2 3.17389 11.1031 13.6222
143 2 5.19852 13.1139 9.23831
144 2 9.23498 16.0316 16.4777
145 2 2.98141 16.5498 10.4156
146 2 2.39948 12.6479 15.23
147 2 4.73053 11.8692 11.0874
148 2 0.761668 17.5643 14.83
149 5 6.00054 10.3367 13.8283
150 5 8.50982 18.8842 11.8538
151 5 6.31411 15.4459 16.2411
152 5 8.18065 13.9266 9.43718
153 5 8.02005 10.0491 14.2814
154 5 6.40059 19.0988 11.3857
155 5 4.40228 15.0408 15.7302
156 5 1.16387 14.2963 10.008
157 3 3.9583 17.4101 10.8743
158 3 1.53795 11.6215 15.0016
159 3 3.70765 12.6996 10.7055
160 3 1.68066 16.6273 15.0524
161 3 1.90556 17.0407 11.2292
162 3 3.41898 12.1659 14.4221
163 3 5.50358 12.0658 10.0186
164 3 8.8875 17.1437 15.7337
165 6 7.04796 9.86371 13.6289
166 6 7.33515 19.0982 12.1406
167 6 5.30274 14.8202 16.4708
168 6 9.19378 14.4706 9.30094
169 4 4.9402 17.4929 10.448
170 4 0.535868 11.589 15.4686
171 4 3.07581 13.1178 11.5502
172 4 2.68755 16.7742 14.7737
173 4 1.11702 16.3392 11.3918
174 4 4.21297 12.9584 14.2329
175 4 6.39172 11.569 9.86055
176 4 7.82595 17.5723 15.8308
177 7 7.44384 13.3839 14.4357
178 8 7.01121 13.1878 15.2596
179 8 6.71316 13.4584 13.8129
180 7 6.93897 15.6438 12.5532
181 8 6.92471 16.5635 12.7887
182 8 7.88138 15.5947 12.3463
183 7 5.29943 4.83019 12.9278
184 8 4.37051 4.84669 13.2018
185 8 5.52033 5.7549 12.7215
186 7 7.30381 4.9986 11.6869
187 8 7.17503 5.30966 12.6476
188 8 8.77471 3.74707 11.7477
189 7 2.86148 4.93225 4.36419
190 8 2.60302 5.8225 4.58331
191 8 2.42579 4.4094 3.69436
192 7 4.6404 2.79219 4.05222
193 8 4.77159 2.66226 3.11128
194 8 5.2561 3.52069 4.09675
195 9 3.01963 9.72778 9.66939
196 10 3.05565 9.18203 8.65972
197 10 2.45291 10.3285 10.5981
198 9 9.04149 11.7411 10.5621
199 10 8.45831 11.5737 11.5463
200 10 0.734722 11.7019 9.67175
201 9 7.20536 6.9593 9.85719
202 10 7.47405 6.5028 8.89446
203 10 6.97102 7.43928 10.7795
204 9 1.75949 10.7271 7.77613
205 10 1.07515 9.82744 7.46357
206 10 2.64484 11.2817 8.28946
207 9 6.38902 9.17991 7.40243
208 10 7.29091 8.93405 6.59933
209 10 5.79849 8.86685 8.38244
210 9 9.16743 7.90919 6.98705
211 10 0.842386 7.53516 6.13422
212 10 8.45678 7.98336 7.90606
ITEM: TIMESTEP
66
ITEM: NUMBER OF ATOMS
212
ITEM: BOX BOUNDS xy xz yz pp pp pp
-6.1242246337635642e-02 9.6140881448483242e+00 0.0000000000000000e+00
-1.3319833830577821e-01 1.9520197438305789e+01 6.3904569851067006e-01
-1.1723003681051303e-01 1.7180045136810534e+01 0.0000000000000000e+00
ITEM: ATOMS id type x y z
1 1 8.7695 0.392625 3.64802
2 1 4.97194 9.19805 4.73053
3 1 7.07646 5.34589 0.349383
4 1 6.64108 4.23104 8.04549
5 2 7.77632 8.64708 3.09904
6 2 6.20839 0.908659 5.40437
7 2 8.12389 3.6621 0.999073
8 2 5.52238 5.82847 7.28009
9 2 6.5068 8.19608 3.54769
10 2 7.38582 1.37058 4.86715
11 2 0.421963 3.34762 0.640678
12 2 4.29718 6.29647 7.82626
13 2 7.15218 6.731 1.89115
14 2 6.59042 2.71857 6.70463
15 2 8.7662 1.82386 2.30715
16 2 4.76741 7.57362 5.82429
17 5 1.10376 0.659224 5.22263
18 5 3.65648 8.97172 3.21905
19 5 1.48715 5.56905 7.56945
20 5 3.16631 4.06724 1.00352
21 5 3.15546 0.189474 5.71617
22 5 1.57242 9.4112 2.72958
23 5 8.60679 4.93279 7.06711
24 5 5.18637 4.51608 1.3964
25 3 8.10777 7.68706 2.1685
26 3 5.68278 1.7625 6.45224
27 3 7.80851 2.77216 2.02407
28 3 5.82755 6.72257 6.25648
29 3 6.21772 7.06968 2.86634
30 3 7.60457 2.38455 5.72575
31 3 0.725957 2.27784 1.43538
32 3 3.92126 7.24558 6.90978
33 6 2.16702 0.249573 4.88808
34 6 2.54268 9.31863 3.50676
35 6 0.493994 5.08921 7.91518
36 6 4.24805 4.42986 0.606433
37 4 0.135392 7.41708 1.86888
38 4 4.66193 1.83134 6.87283
39 4 6.82999 2.5375 2.38115
40 4 6.83435 6.79433 5.97313
41 4 5.21251 6.71456 2.74328
42 4 8.58576 2.74277 6.03569
43 4 1.67486 1.81748 1.33675
44 4 2.91813 7.73242 6.81063
45 1 4.55698 0.418409 12.3438
46 1 0.848815 9.15886 13.331
47 1 2.96773 5.23253 9.01485
48 1 2.43422 4.23342 16.6574
49 2 3.59282 8.26477 12.1037
50 2 1.72045 0.956292 13.8116
51 2 4.04797 3.77506 9.73754
52 2 1.44647 5.93598 16.0838
53 2 2.12407 8.18984 11.9977
54 2 3.09297 1.15063 13.7137
55 2 5.2825 3.36929 9.2685
56 2 9.20136 6.34089 16.4974
57 2 2.98878 6.68436 10.5462
58 2 2.40441 2.82494 15.3152
59 2 4.49584 1.74311 10.8235
60 2 0.752706 7.62674 14.6367
61 5 5.79298 0.517129 13.8247
62 5 8.49848 9.17515 12.0614
63 5 6.30417 5.61002 16.2548
64 5 8.17353 3.86601 9.50801
65 5 7.84451 0.216726 14.3011
66 5 6.36004 9.62283 11.4056
67 5 4.25541 5.04341 15.7481
68 5 1.06174 4.53845 10.0689
69 3 4.11043 7.07605 11.4453
70 3 1.46242 1.89412 14.8985
71 3 3.5619 2.72783 10.6043
72 3 1.83081 6.90341 15.1094
73 3 1.83005 7.07597 11.2187
74 3 3.34384 2.38631 14.3852
75 3 5.53145 2.18067 10.0683
76 3 8.83274 7.31222 15.6079
77 6 6.95571 0.211547 13.5237
78 6 7.26747 9.29196 12.2787
79 6 5.17875 5.19803 16.5842
80 6 9.20599 4.40806 9.24854
81 4 4.82579 7.46772 10.8602
82 4 9.49674 1.90077 15.3077
83 4 2.73562 2.95472 11.3455
84 4 2.58506 6.55969 14.3907
85 4 0.785085 6.87862 10.9381
86 4 4.32611 2.60929 14.5839
87 4 6.51951 1.71189 9.80665
88 4 7.94107 7.80208 15.5714
89 1 8.69784 10.2166 3.70193
90 1 5.04321 18.9749 4.68604
91 1 7.12305 15.107 0.432324
92 1 6.64707 14.0472 8.03267
93 2 7.77532 18.4731 3.11778
94 2 5.90043 11.23 4.99065
95 2 8.11144 13.4418 0.927505
96 2 5.52026 15.6602 7.31762
97 2 6.4149 18.1689 3.36933
98 2 7.31996 11.3424 4.85727
99 2 0.405469 13.0646 0.617752
100 2 4.34466 16.2441 7.79293
101 2 7.16104 16.6179 1.75203
102 2 6.70776 12.6505 6.59204
103 2 8.60183 11.6479 2.37851
104 2 5.02742 17.5245 6.06609
105 5 1.1711 10.511 5.04738
106 5 3.63398 18.9425 3.16147
107 5 1.47042 15.3485 7.55914
108 5 3.24049 13.9302 0.882815
109 5 3.0971 10.0308 5.80113
110 5 1.54413 19.1703 2.66315
111 5 8.47236 14.9025 7.054
112 5 5.22937 14.3366 1.40025
113 3 8.11268 17.5441 2.07727
114 3 5.68811 11.7604 6.28943
115 3 7.73932 12.6236 2.01521
116 3 5.91129 16.5031 6.31104
117 3 6.22755 16.9377 2.66819
118 3 7.76343 12.2402 5.7928
119 3 0.561875 12.0077 1.48908
120 3 3.95171 17.1756 6.87888
121 6 2.28828 10.0971 4.88772
122 6 2.44314 19.327 3.44476
123 6 0.378206 15.0512 7.8005
124 6 4.35377 14.35 0.602064
125 4 0.146378 17.2957 1.97357
126 4 4.7488 12.1995 6.48518
127 4 6.65326 12.6157 2.31124
128 4 6.83737 16.6057 5.88173
129 4 5.21175 16.5454 2.81912
130 4 8.678 12.981 5.54872
131 4 1.40361 11.2703 1.33814
132 4 3.24231 18.0066 7.15105
133 1 4.45498 10.2015 12.2966
134 1 0.812318 18.9412 13.4222
135 1 2.87228 15.0486 9.08628
136 1 2.39071 14.083 16.6192
137 2 3.4243 18.431 11.7595
138 2 1.87356 10.7114 13.992
139 2 3.91144 13.4987 9.635
140 2 1.42856 15.6311 16.0574
141 2 2.05103 18.1159 12.1047
142 2 3.1739 11.1025 13.6239
143 2 5.19984 13.1152 9.23691
144 2 9.23723 16.0324 16.4803
145 2 2.98057 16.5506 10.4169
146 2 2.39934 12.6512 15.2327
147 2 4.73327 11.8707 11.0916
148 2 0.76096 17.5683 14.8317
149 5 6.00136 10.336 13.8305
150 5 8.50971 18.8889 11.8543
151 5 6.31464 15.4493 16.244
152 5 8.18444 13.929 9.43714
153 5 8.021 10.0497 14.2818
154 5 6.40268 19.0999 11.3876
155 5 4.40315 15.0437 15.7328
156 5 1.16269 14.2991 10.0067
157 3 3.95536 17.4121 10.8778
158 3 1.53802 11.6209 15.0035
159 3 3.71009 12.702 10.7086
160 3 1.67942 16.631 15.0523
161 3 1.90583 17.0438 11.2288
162 3 3.41867 12.1657 14.4235
163 3 5.50489 12.0658 10.0179
164 3 8.88812 17.1459 15.7375
165 6 7.04887 9.86139 13.6318
166 6 7.33565 19.1005 12.1426
167 6 5.30322 14.8197 16.4748
168 6 9.19568 14.4749 9.30205
169 4 4.93871 17.4998 10.4579
170 4 0.530296 11.5834 15.4642
171 4 3.07864 13.1282 11.5553
172 4 2.68566 16.7811 14.7764
173 4 1.11915 16.3403 11.3898
174 4 4.21129 12.9632 14.2319
175 4 6.39142 11.5718 9.85925
176 4 7.82233 17.5742 15.839
177 7 7.44609 13.3841 14.4378
178 8 7.01995 13.1927 15.2611
179 8 6.71566 13.4696 13.8157
180 7 6.93959 15.6455 12.5548
181 8 6.92391 16.5605 12.7889
182 8 7.88503 15.5992 12.343
183 7 5.29835 4.82841 12.9284
184 8 4.37042 4.84134 13.2103
185 8 5.51468 5.75069 12.7112
186 7 7.3097 4.98423 11.6955
187 8 7.16361 5.30092 12.6487
188 8 8.7644 3.72206 11.7614
189 7 2.85886 4.93353 4.36142
190 8 2.59733 5.8231 4.58928
191 8 2.43291 4.40184 3.68824
192 7 4.63985 2.79059 4.04844
193 8 4.77774 2.65955 3.10769
194 8 5.25605 3.52291 4.09053
195 9 3.0153 9.7308 9.66653
196 10 3.05203 9.19049 8.65409
197 10 2.44998 10.3254 10.5954
198 9 9.04345 11.7414 10.5617
199 10 8.46029 11.5806 11.5479
200 10 0.732688 11.6972 9.67053
201 9 7.2053 6.96217 9.85346
202 10 7.47633 6.50497 8.89206
203 10 6.96835 7.44074 10.7774
204 9 1.75902 10.7283 7.77388
205 10 1.07379 9.82858 7.46558
206 10 2.64597 11.284 8.28573
207 9 6.39401 9.18041 7.40477
208 10 7.29413 8.93164 6.60371
209 10 5.80095 8.87157 8.38744
210 9 9.16994 7.9086 6.98719
211 10 0.838581 7.53768 6.13235
212 10 8.46269 7.98336 7.90624
ITEM: TIMESTEP
67
ITEM: NUMBER OF ATOMS
212
ITEM: BOX BOUNDS xy xz yz pp pp pp
-6.2549275394973236e-02 9.6155800399928495e+00 0.0000000000000000e+00
-1.3604105079537199e-01 1.9523040150795381e+01 6.3923056459785688e-01
-1.1973195458242891e-01 1.7182547054582450e+01 0.0000000000000000e+00
ITEM: ATOMS id type x y z
1 1 8.77162 0.389655 3.64619
2 1 4.9711 9.19885 4.72923
3 1 7.07639 5.34473 0.346333
4 1 6.64226 4.22952 8.04602
5 2 7.77803 8.64759 3.09847
6 2 6.21196 0.903631 5.40376
7 2 8.1244 3.66155 0.996524
8 2 5.51997 5.82539 7.27771
9 2 6.50737 8.19586 3.54734
10 2 7.38479 1.36677 4.86666
11 2 0.421752 3.34619 0.638685
12 2 4.29505 6.29763 7.82356
13 2 7.15406 6.72758 1.88946
14 2 6.5899 2.71667 6.70606
15 2 8.76663 1.82071 2.30586
16 2 4.76515 7.57043 5.82016
17 5 1.10396 0.656947 5.22258
18 5 3.65515 8.97207 3.2169
19 5 1.48708 5.568 7.56986
20 5 3.16669 4.06654 1.00279
21 5 3.15396 0.186814 5.71508
22 5 1.5737 9.4113 2.72903
23 5 8.60962 4.92862 7.06592
24 5 5.18473 4.51539 1.39389
25 3 8.10822 7.68576 2.16725
26 3 5.68664 1.7592 6.45277
27 3 7.81204 2.76863 2.02245
28 3 5.82213 6.72057 6.25275
29 3 6.21957 7.06846 2.86711
30 3 7.60655 2.38385 5.72562
31 3 0.725283 2.27577 1.43377
32 3 3.92153 7.241 6.90675
33 6 2.16608 0.246583 4.88352
34 6 2.54226 9.31893 3.50702
35 6 0.492948 5.08515 7.91838
36 6 4.24773 4.42897 0.603464
37 4 0.135909 7.41429 1.87105
38 4 4.6652 1.82971 6.87256
39 4 6.83608 2.52723 2.37808
40 4 6.82816 6.78609 5.96241
41 4 5.21386 6.7135 2.74458
42 4 8.5869 2.74389 6.03952
43 4 1.67374 1.81587 1.33358
44 4 2.91531 7.72108 6.80909
45 1 4.55753 0.415553 12.3452
46 1 0.847668 9.15895 13.3316
47 1 2.96767 5.22991 9.01446
48 1 2.43397 4.23207 16.6601
49 2 3.59249 8.25615 12.1103
50 2 1.72038 0.95427 13.8127
51 2 4.05092 3.77379 9.73816
52 2 1.44452 5.9353 16.0863
53 2 2.12419 8.18854 11.9993
54 2 3.09092 1.14723 13.7165
55 2 5.28132 3.36859 9.26929
56 2 9.20345 6.3405 16.4995
57 2 2.99385 6.68041 10.5513
58 2 2.40309 2.82216 15.3159
59 2 4.49603 1.73969 10.8225
60 2 0.750414 7.62712 14.6367
61 5 5.79247 0.512792 13.8264
62 5 8.49757 9.17754 12.0644
63 5 6.30333 5.61031 16.2567
64 5 8.17783 3.86096 9.50788
65 5 7.84281 0.214611 14.3022
66 5 6.36201 9.62867 11.4102
67 5 4.25565 5.04174 15.7505
68 5 1.06025 4.53805 10.0698
69 3 4.10581 7.06724 11.452
70 3 1.46192 1.8929 14.8999
71 3 3.56364 2.72453 10.6043
72 3 1.82947 6.90418 15.1115
73 3 1.8282 7.07453 11.2188
74 3 3.3426 2.38302 14.3874
75 3 5.53069 2.17734 10.0696
76 3 8.83469 7.31151 15.6096
77 6 6.9561 0.207976 13.5228
78 6 7.26814 9.29302 12.2813
79 6 5.17666 5.19571 16.592
80 6 9.20929 4.40588 9.24771
81 4 4.83138 7.46133 10.8757
82 4 9.49692 1.90192 15.3049
83 4 2.73671 2.95196 11.3483
84 4 2.58466 6.55359 14.3943
85 4 0.783473 6.88543 10.9281
86 4 4.32264 2.60464 14.5912
87 4 6.51733 1.70679 9.80373
88 4 7.94571 7.80096 15.5703
89 1 8.69893 10.2164 3.70083
90 1 5.04338 18.9778 4.68423
91 1 7.12365 15.1079 0.430138
92 1 6.64815 14.0484 8.03292
93 2 7.77563 18.4761 3.11635
94 2 5.90233 11.2343 4.98446
95 2 8.11189 13.4424 0.925737
96 2 5.51803 15.6597 7.31804
97 2 6.41619 18.1715 3.36619
98 2 7.31877 11.3452 4.85535
99 2 0.403879 13.0646 0.615661
100 2 4.34425 16.2461 7.79274
101 2 7.16222 16.6186 1.75021
102 2 6.70941 12.654 6.59218
103 2 8.60195 11.6459 2.37801
104 2 5.02832 17.5287 6.06288
105 5 1.17148 10.5133 5.04376
106 5 3.63321 18.9476 3.15809
107 5 1.46819 15.35 7.55815
108 5 3.2407 13.9323 0.88135
109 5 3.09555 10.0308 5.79961
110 5 1.54473 19.1728 2.66193
111 5 8.47498 14.9036 7.05503
112 5 5.22891 14.3388 1.39836
113 3 8.11349 17.5464 2.07494
114 3 5.68852 11.7648 6.28726
115 3 7.74031 12.6248 2.0129
116 3 5.91053 16.506 6.30735
117 3 6.23002 16.9411 2.66615
118 3 7.76456 12.2408 5.79226
119 3 0.559431 12.008 1.48733
120 3 3.95113 17.1782 6.87783
121 6 2.28926 10.097 4.88408
122 6 2.44055 19.3326 3.4452
123 6 0.376373 15.0543 7.80056
124 6 4.35482 14.3526 0.598173
125 4 0.146538 17.2972 1.97817
126 4 4.7543 12.2107 6.48403
127 4 6.64975 12.6207 2.30121
128 4 6.83366 16.6123 5.87814
129 4 5.21282 16.5534 2.81961
130 4 8.68213 12.9853 5.54436
131 4 1.40139 11.2676 1.33419
132 4 3.24561 18.0136 7.15438
133 1 4.45446 10.201 12.2977
134 1 0.81056 18.9437 13.424
135 1 2.87093 15.0487 9.08667
136 1 2.39001 14.0846 16.6211
137 2 3.42405 18.4327 11.7595
138 2 1.87351 10.7104 13.9946
139 2 3.91119 13.5024 9.63506
140 2 1.42591 15.6308 16.0613
141 2 2.04987 18.1177 12.1044
142 2 3.17386 11.1019 13.6255
143 2 5.20114 13.1164 9.23553
144 2 9.23943 16.0331 16.4828
145 2 2.97969 16.5513 10.4184
146 2 2.39921 12.6545 15.2354
147 2 4.73594 11.8722 11.0959
148 2 0.760246 17.5723 14.8335
149 5 6.0021 10.3353 13.8327
150 5 8.50959 18.8936 11.8549
151 5 6.31519 15.4526 16.2469
152 5 8.18814 13.9313 9.43715
153 5 8.02199 10.0503 14.2822
154 5 6.40475 19.101 11.3894
155 5 4.40395 15.0465 15.7354
156 5 1.16149 14.302 10.0055
157 3 3.95234 17.4142 10.8814
158 3 1.53804 11.6202 15.0053
159 3 3.71249 12.7044 10.7119
160 3 1.6782 16.6347 15.0523
161 3 1.90613 17.0468 11.2285
162 3 3.41838 12.1655 14.4249
163 3 5.5062 12.0659 10.0172
164 3 8.88867 17.148 15.7414
165 6 7.04979 9.85903 13.6347
166 6 7.33613 19.1029 12.1447
167 6 5.30373 14.8192 16.4787
168 6 9.19769 14.4793 9.30307
169 4 4.93732 17.5065 10.4677
170 4 0.524948 11.5779 15.4597
171 4 3.08166 13.1383 11.5598
172 4 2.6841 16.7882 14.779
173 4 1.121 16.3415 11.3878
174 4 4.20935 12.9674 14.2307
175 4 6.39174 11.5742 9.85799
176 4 7.81948 17.576 15.847
177 7 7.44834 13.3842 14.4398
178 8 7.02857 13.1976 15.2627
179 8 6.71829 13.481 13.8185
180 7 6.94024 15.6471 12.5564
181 8 6.92286 16.5579 12.7891
182 8 7.88848 15.6034 12.3397
183 7 5.29726 4.82663 12.929
184 8 4.3703 4.83615 13.2189
185 8 5.50875 5.74641 12.701
186 7 7.31563 4.96986 11.7042
187 8 7.15242 5.2919 12.6493
188 8 8.7535 3.69776 11.7749
189 7 2.85628 4.9348 4.35868
190 8 2.59127 5.82358 4.59491
191 8 2.43985 4.39471 3.68216
192 7 4.6393 2.78901 4.04462
193 8 4.78361 2.65661 3.10398
194 8 5.25593 3.5253 4.08471
195 9 3.01081 9.73388 9.66383
196 10 3.04849 9.19888 8.64849
197 10 2.44716 10.3223 10.5926
198 9 9.04542 11.7416 10.5613
199 10 8.46226 11.5875 11.5495
200 10 0.730642 11.6925 9.66929
201 9 7.20528 6.96495 9.8496
202 10 7.47861 6.50703 8.88954
203 10 6.96562 7.44223 10.7756
204 9 1.75857 10.7294 7.77166
205 10 1.07241 9.82978 7.4676
206 10 2.64708 11.2864 8.28194
207 9 6.39911 9.18078 7.40708
208 10 7.2972 8.92936 6.6081
209 10 5.80342 8.87633 8.3924
210 9 9.17248 7.90793 6.98734
211 10 0.834747 7.54024 6.13045
212 10 8.46868 7.98338 7.90642
ITEM: TIMESTEP
68
ITEM: NUMBER OF ATOMS
212
ITEM: BOX BOUNDS xy xz yz pp pp pp
-6.3855521774541124e-02 9.6170710417577219e+00 0.0000000000000000e+00
-1.3888206100615186e-01 1.9525881161006161e+01 6.3941531998316126e-01
-1.2223237415090971e-01 1.7185047474150931e+01 0.0000000000000000e+00
ITEM: ATOMS id type x y z
1 1 8.77374 0.386692 3.64436
2 1 4.97027 9.19966 4.72792
3 1 7.07632 5.34358 0.343293
4 1 6.64345 4.228 8.04655
5 2 7.77969 8.64805 3.09794
6 2 6.21543 0.898605 5.40318
7 2 8.12495 3.66099 0.99398
8 2 5.51749 5.82235 7.27535
9 2 6.50797 8.19567 3.54697
10 2 7.38377 1.36295 4.86622
11 2 0.421493 3.34477 0.636727
12 2 4.29295 6.29874 7.82079
13 2 7.15593 6.72418 1.88781
14 2 6.58944 2.71478 6.70743
15 2 8.76708 1.8176 2.30452
16 2 4.76296 7.56721 5.81615
17 5 1.10411 0.654674 5.22252
18 5 3.65384 8.97241 3.21474
19 5 1.48709 5.56695 7.5703
20 5 3.16706 4.06583 1.00203
21 5 3.1524 0.184158 5.7139
22 5 1.57501 9.41137 2.72848
23 5 8.61249 4.92444 7.06477
24 5 5.18308 4.51469 1.39137
25 3 8.1087 7.68443 2.16597
26 3 5.69056 1.75587 6.45323
27 3 7.8156 2.76509 2.02081
28 3 5.81663 6.71856 6.24904
29 3 6.22144 7.06723 2.8678
30 3 7.60848 2.38321 5.72561
31 3 0.724566 2.2737 1.43218
32 3 3.92179 7.23649 6.90362
33 6 2.16531 0.243571 4.87906
34 6 2.54175 9.31928 3.50731
35 6 0.491699 5.08102 7.92144
36 6 4.2475 4.4281 0.600577
37 4 0.13593 7.41188 1.87343
38 4 4.66861 1.82783 6.8721
39 4 6.84184 2.51718 2.37491
40 4 6.82228 6.77776 5.95123
41 4 5.21501 6.7124 2.74605
42 4 8.58819 2.74485 6.0429
43 4 1.67286 1.81401 1.33047
44 4 2.913 7.70938 6.808
45 1 4.55808 0.412692 12.3465
46 1 0.846515 9.15904 13.3322
47 1 2.9676 5.2273 9.01408
48 1 2.43372 4.23073 16.6628
49 2 3.59204 8.24745 12.1168
50 2 1.72036 0.952313 13.814
51 2 4.05381 3.77247 9.7388
52 2 1.44255 5.93467 16.0887
53 2 2.12443 8.18719 12.0009
54 2 3.08887 1.14393 13.7193
55 2 5.28014 3.36778 9.27015
56 2 9.20554 6.34009 16.5016
57 2 2.99895 6.67642 10.5564
58 2 2.40177 2.81932 15.3165
59 2 4.49622 1.73628 10.8215
60 2 0.748139 7.62751 14.6368
61 5 5.792 0.508444 13.8281
62 5 8.49661 9.1799 12.0673
63 5 6.30245 5.61059 16.2586
64 5 8.1821 3.85589 9.50772
65 5 7.84117 0.212502 14.3032
66 5 6.36403 9.63451 11.415
67 5 4.25592 5.04008 15.7529
68 5 1.05878 4.53765 10.0707
69 3 4.10097 7.0586 11.4586
70 3 1.46139 1.8916 14.9012
71 3 3.5654 2.72131 10.6043
72 3 1.82809 6.90487 15.1135
73 3 1.8264 7.07313 11.219
74 3 3.34131 2.37968 14.3896
75 3 5.52999 2.17416 10.0708
76 3 8.83674 7.31081 15.6112
77 6 6.95646 0.20438 13.5219
78 6 7.26878 9.29417 12.2839
79 6 5.17452 5.19339 16.5996
80 6 9.21268 4.40372 9.24694
81 4 4.83755 7.45485 10.8908
82 4 9.49706 1.90324 15.3021
83 4 2.73817 2.94899 11.3508
84 4 2.58421 6.54768 14.3979
85 4 0.782086 6.89227 10.9179
86 4 4.31987 2.60016 14.5985
87 4 6.51462 1.70144 9.80118
88 4 7.94953 7.80008 15.5694
89 1 8.70001 10.2163 3.69974
90 1 5.04355 18.9807 4.68242
91 1 7.12425 15.1087 0.42795
92 1 6.64923 14.0496 8.03316
93 2 7.7759 18.4791 3.11486
94 2 5.90431 11.2386 4.97841
95 2 8.11239 13.443 0.924026
96 2 5.51582 15.6592 7.31844
97 2 6.41753 18.174 3.36301
98 2 7.31756 11.348 4.85346
99 2 0.40221 13.0645 0.613602
100 2 4.34381 16.2481 7.79254
101 2 7.16342 16.6193 1.7484
102 2 6.71107 12.6574 6.59231
103 2 8.60209 11.6439 2.37746
104 2 5.0292 17.5329 6.05968
105 5 1.17184 10.5155 5.04016
106 5 3.63237 18.9527 3.15473
107 5 1.46603 15.3515 7.55713
108 5 3.2409 13.9345 0.879877
109 5 3.09404 10.0307 5.79805
110 5 1.54529 19.1753 2.66071
111 5 8.47759 14.9046 7.05604
112 5 5.2285 14.3409 1.3965
113 3 8.11433 17.5488 2.07267
114 3 5.68898 11.7694 6.28498
115 3 7.74124 12.6261 2.01056
116 3 5.9097 16.5089 6.30368
117 3 6.23243 16.9445 2.66417
118 3 7.76571 12.2415 5.7917
119 3 0.557053 12.0083 1.48559
120 3 3.95061 17.1808 6.87678
121 6 2.29025 10.097 4.88041
122 6 2.43811 19.3381 3.44561
123 6 0.37445 15.0573 7.80076
124 6 4.35581 14.3551 0.594294
125 4 0.146457 17.2986 1.98264
126 4 4.75928 12.2216 6.48294
127 4 6.64677 12.6256 2.29118
128 4 6.83075 16.6186 5.87445
129 4 5.21408 16.5612 2.81967
130 4 8.68524 12.9887 5.54027
131 4 1.39884 11.2654 1.3302
132 4 3.24914 18.02 7.15777
133 1 4.45396 10.2005 12.2987
134 1 0.808792 18.9461 13.4257
135 1 2.86958 15.0488 9.08706
136 1 2.38931 14.0862 16.6231
137 2 3.42377 18.4343 11.7594
138 2 1.8735 10.7093 13.9973
139 2 3.91101 13.5062 9.63514
140 2 1.42327 15.6307 16.0652
141 2 2.04885 18.1195 12.104
142 2 3.17376 11.1013 13.6272
143 2 5.20241 13.1177 9.23415
144 2 9.24156 16.034 16.4853
145 2 2.97879 16.5522 10.4199
146 2 2.3991 12.6577 15.238
147 2 4.73857 11.8736 11.1001
148 2 0.759523 17.5762 14.8353
149 5 6.00279 10.3347 13.8349
150 5 8.50946 18.8982 11.8555
151 5 6.31575 15.456 16.2498
152 5 8.19177 13.9337 9.4372
153 5 8.02303 10.0508 14.2826
154 5 6.4068 19.1021 11.3912
155 5 4.40468 15.0494 15.7379
156 5 1.16027 14.3049 10.0043
157 3 3.94923 17.4164 10.885
158 3 1.53802 11.6196 15.0071
159 3 3.71485 12.7068 10.7152
160 3 1.67701 16.6382 15.0525
161 3 1.90646 17.0498 11.2281
162 3 3.41812 12.1655 14.4264
163 3 5.5075 12.0659 10.0164
164 3 8.88915 17.1501 15.7452
165 6 7.05071 9.85664 13.6375
166 6 7.33659 19.1053 12.1468
167 6 5.30429 14.8188 16.4825
168 6 9.19981 14.4838 9.304
169 4 4.93601 17.5131 10.4773
170 4 0.519858 11.5726 15.455
171 4 3.0849 13.1481 11.5638
172 4 2.68289 16.7954 14.7813
173 4 1.12256 16.3427 11.386
174 4 4.20713 12.9708 14.2294
175 4 6.39269 11.5764 9.85676
176 4 7.81742 17.5776 15.855
177 7 7.45059 13.3843 14.4418
178 8 7.03701 13.2023 15.2646
179 8 6.72105 13.4924 13.8213
180 7 6.94092 15.6487 12.5579
181 8 6.92154 16.5557 12.7896
182 8 7.89168 15.6074 12.3364
183 7 5.29617 4.82485 12.9296
184 8 4.3702 4.83111 13.2276
185 8 5.50254 5.74207 12.6909
186 7 7.32159 4.95547 11.7129
187 8 7.14146 5.28258 12.6494
188 8 8.742 3.67417 11.7884
189 7 2.85373 4.93605 4.35596
190 8 2.58483 5.82389 4.60019
191 8 2.44663 4.38804 3.67614
192 7 4.63877 2.78744 4.04077
193 8 4.78921 2.65342 3.10017
194 8 5.2557 3.5278 4.07927
195 9 3.00615 9.73703 9.66127
196 10 3.04502 9.20717 8.64293
197 10 2.44443 10.3191 10.5897
198 9 9.0474 11.7417 10.561
199 10 8.46422 11.5944 11.5511
200 10 0.728584 11.6878 9.66801
201 9 7.2053 6.96762 9.8456
202 10 7.48089 6.50898 8.88691
203 10 6.96285 7.44376 10.774
204 9 1.75814 10.7305 7.76945
205 10 1.071 9.83103 7.46964
206 10 2.64816 11.2888 8.27808
207 9 6.40432 9.18101 7.40937
208 10 7.3001 8.92723 6.61249
209 10 5.80589 8.88115 8.39732
210 9 9.17506 7.90716 6.98751
211 10 0.830886 7.54282 6.12852
212 10 8.47475 7.98341 7.90662
ITEM: TIMESTEP
69
ITEM: NUMBER OF ATOMS
212
ITEM: BOX BOUNDS xy xz yz pp pp pp
-6.5160581490854241e-02 9.6185606890177802e+00 0.0000000000000000e+00
-1.4172049029309086e-01 1.9528719590293100e+01 6.3959990752690810e-01
-1.2473052220609127e-01 1.7187545622206109e+01 0.0000000000000000e+00
ITEM: ATOMS id type x y z
1 1 8.77585 0.383737 3.64254
2 1 4.96943 9.20047 4.72661
3 1 7.07625 5.34242 0.340264
4 1 6.64464 4.22648 8.04708
5 2 7.7813 8.64844 3.09742
6 2 6.2188 0.893583 5.40265
7 2 8.12554 3.66041 0.991444
8 2 5.51497 5.81935 7.27299
9 2 6.50857 8.19553 3.54657
10 2 7.38279 1.35912 4.86585
11 2 0.421185 3.34335 0.634806
12 2 4.29089 6.29979 7.81796
13 2 7.1578 6.7208 1.88622
14 2 6.58904 2.71289 6.70874
15 2 8.76755 1.81451 2.30314
16 2 4.76084 7.56395 5.81226
17 5 1.10422 0.652403 5.22245
18 5 3.65255 8.97275 3.21257
19 5 1.48718 5.56592 7.57077
20 5 3.16739 4.06513 1.00123
21 5 3.15078 0.181505 5.71266
22 5 1.57634 9.41144 2.72795
23 5 8.61538 4.92028 7.06366
24 5 5.18145 4.514 1.38884
25 3 8.10923 7.68307 2.16465
26 3 5.69453 1.7525 6.45362
27 3 7.8192 2.76153 2.01917
28 3 5.81105 6.71652 6.24535
29 3 6.22334 7.06599 2.86839
30 3 7.61035 2.38265 5.72572
31 3 0.723805 2.27163 1.43061
32 3 3.92202 7.23206 6.90039
33 6 2.1647 0.240542 4.87471
34 6 2.54116 9.31968 3.50761
35 6 0.490251 5.07682 7.92436
36 6 4.24738 4.42724 0.597776
37 4 0.135438 7.40985 1.87604
38 4 4.67217 1.82569 6.87142
39 4 6.84725 2.50736 2.37163
40 4 6.81668 6.76935 5.9396
41 4 5.21599 6.71126 2.74769
42 4 8.5896 2.74563 6.04583
43 4 1.67225 1.8119 1.3274
44 4 2.91121 7.69733 6.80735
45 1 4.55863 0.409828 12.3479
46 1 0.845355 9.15914 13.3327
47 1 2.96754 5.2247 9.01371
48 1 2.43347 4.22939 16.6654
49 2 3.59148 8.23867 12.1233
50 2 1.72039 0.950422 13.8154
51 2 4.05665 3.77107 9.73946
52 2 1.44056 5.93409 16.0911
53 2 2.12476 8.18576 12.0026
54 2 3.08682 1.14071 13.7221
55 2 5.27896 3.36687 9.27108
56 2 9.2076 6.33965 16.5037
57 2 3.00407 6.67238 10.5616
58 2 2.40045 2.81644 15.317
59 2 4.49641 1.73286 10.8205
60 2 0.745884 7.62791 14.637
61 5 5.79156 0.504086 13.8297
62 5 8.49561 9.18224 12.0702
63 5 6.30155 5.61085 16.2605
64 5 8.18635 3.8508 9.50753
65 5 7.83958 0.210398 14.3043
66 5 6.36611 9.64036 11.4198
67 5 4.25622 5.03844 15.7554
68 5 1.05732 4.53724 10.0717
69 3 4.09594 7.05015 11.4651
70 3 1.46083 1.89024 14.9025
71 3 3.56718 2.71819 10.6042
72 3 1.82668 6.90547 15.1156
73 3 1.82467 7.07177 11.2192
74 3 3.33998 2.37627 14.3918
75 3 5.52933 2.17111 10.0719
76 3 8.83891 7.31012 15.6127
77 6 6.95678 0.20076 13.521
78 6 7.26941 9.29541 12.2865
79 6 5.17231 5.19106 16.6072
80 6 9.21618 4.40158 9.24623
81 4 4.84423 7.44824 10.9055
82 4 9.49715 1.90472 15.2994
83 4 2.74002 2.94578 11.3528
84 4 2.5837 6.54199 14.4017
85 4 0.780937 6.89916 10.9074
86 4 4.31783 2.59587 14.6059
87 4 6.51139 1.69582 9.79901
88 4 7.9525 7.79945 15.5687
89 1 8.7011 10.2162 3.69864
90 1 5.04373 18.9835 4.68061
91 1 7.12485 15.1095 0.42576
92 1 6.6503 14.0508 8.0334
93 2 7.77612 18.482 3.1133
94 2 5.90635 11.2427 4.97249
95 2 8.11293 13.4435 0.92237
96 2 5.51363 15.6588 7.31881
97 2 6.41893 18.1764 3.35981
98 2 7.31632 11.3508 4.8516
99 2 0.400462 13.0645 0.611574
100 2 4.34334 16.25 7.79234
101 2 7.16464 16.62 1.74661
102 2 6.71272 12.6609 6.59243
103 2 8.60224 11.6419 2.37685
104 2 5.03004 17.5371 6.05651
105 5 1.17219 10.5178 5.03656
106 5 3.63145 18.9578 3.15139
107 5 1.46394 15.353 7.55606
108 5 3.24111 13.9366 0.878396
109 5 3.09256 10.0307 5.79643
110 5 1.54581 19.1778 2.65949
111 5 8.48018 14.9057 7.05702
112 5 5.22814 14.3431 1.39465
113 3 8.11518 17.5512 2.07046
114 3 5.6895 11.774 6.28259
115 3 7.74211 12.6274 2.0082
116 3 5.90878 16.5118 6.30005
117 3 6.23478 16.9481 2.66227
118 3 7.76688 12.2423 5.79111
119 3 0.554743 12.0084 1.48385
120 3 3.95014 17.1835 6.87572
121 6 2.29124 10.0969 4.87672
122 6 2.43582 19.3436 3.446
123 6 0.372438 15.0603 7.8011
124 6 4.35673 14.3577 0.590433
125 4 0.146119 17.3001 1.98697
126 4 4.76374 12.2325 6.48189
127 4 6.64432 12.6303 2.28117
128 4 6.82865 16.6246 5.87065
129 4 5.21553 16.5687 2.8193
130 4 8.68728 12.9911 5.53645
131 4 1.39595 11.2637 1.32618
132 4 3.25291 18.0258 7.1612
133 1 4.45348 10.2 12.2998
134 1 0.807013 18.9486 13.4274
135 1 2.86824 15.049 9.08744
136 1 2.38863 14.0878 16.625
137 2 3.42345 18.4359 11.7594
138 2 1.87354 10.7084 13.9999
139 2 3.91092 13.51 9.63524
140 2 1.42065 15.6306 16.0691
141 2 2.04797 18.1212 12.1036
142 2 3.17361 11.1006 13.6288
143 2 5.20365 13.119 9.2328
144 2 9.24364 16.0348 16.4878
145 2 2.97785 16.553 10.4215
146 2 2.399 12.6609 15.2406
147 2 4.74113 11.875 11.1042
148 2 0.75879 17.5803 14.8371
149 5 6.0034 10.3341 13.8372
150 5 8.50931 18.9029 11.856
151 5 6.31632 15.4593 16.2528
152 5 8.19532 13.9359 9.43729
153 5 8.02412 10.0514 14.2831
154 5 6.40882 19.1032 11.3929
155 5 4.40535 15.0522 15.7405
156 5 1.15903 14.3078 10.0031
157 3 3.94605 17.4186 10.8886
158 3 1.53796 11.6189 15.0089
159 3 3.71717 12.7092 10.7185
160 3 1.67584 16.6416 15.0527
161 3 1.90682 17.0528 11.2276
162 3 3.41789 12.1655 14.4279
163 3 5.5088 12.066 10.0157
164 3 8.88955 17.1521 15.7491
165 6 7.05164 9.85422 13.6404
166 6 7.33704 19.1078 12.1489
167 6 5.30488 14.8184 16.4863
168 6 9.20204 14.4883 9.30484
169 4 4.93479 17.5195 10.4866
170 4 0.515054 11.5675 15.4502
171 4 3.08839 13.1576 11.5672
172 4 2.68201 16.8026 14.7835
173 4 1.12384 16.344 11.3842
174 4 4.20463 12.9735 14.2279
175 4 6.39428 11.5782 9.85557
176 4 7.8162 17.5791 15.8628
177 7 7.45285 13.3845 14.4438
178 8 7.04523 13.207 15.2667
179 8 6.72395 13.5038 13.8243
180 7 6.94164 15.6504 12.5595
181 8 6.91997 16.554 12.7903
182 8 7.89456 15.6111 12.3331
183 7 5.29507 4.82308 12.9302
184 8 4.37013 4.82624 13.2364
185 8 5.49606 5.73768 12.681
186 7 7.3276 4.94107 11.7217
187 8 7.13074 5.27298 12.6491
188 8 8.72992 3.65129 11.8017
189 7 2.85122 4.93728 4.35326
190 8 2.57803 5.82398 4.60509
191 8 2.45326 4.38188 3.67023
192 7 4.63824 2.78589 4.03689
193 8 4.79452 2.65 3.09626
194 8 5.25533 3.53039 4.07423
195 9 3.00133 9.74024 9.65886
196 10 3.04163 9.21537 8.63741
197 10 2.4418 10.3158 10.5867
198 9 9.04938 11.7419 10.5607
199 10 8.46617 11.6014 11.5527
200 10 0.726515 11.6832 9.66671
201 9 7.20536 6.97021 9.84149
202 10 7.48317 6.51083 8.88417
203 10 6.96003 7.44531 10.7726
204 9 1.75773 10.7315 7.76727
205 10 1.06957 9.83234 7.47169
206 10 2.64921 11.2913 8.27417
207 9 6.40963 9.1811 7.41164
208 10 7.30285 8.92523 6.61688
209 10 5.80837 8.88603 8.40218
210 9 9.17767 7.90632 6.98769
211 10 0.827003 7.54544 6.12655
212 10 8.4809 7.98346 7.90683
ITEM: TIMESTEP
70
ITEM: NUMBER OF ATOMS
212
ITEM: BOX BOUNDS xy xz yz pp pp pp
-6.6464079468252280e-02 9.6200485536466971e+00 0.0000000000000000e+00
-1.4455552288835349e-01 1.9531554622888365e+01 6.3978427417842554e-01
-1.2722568077735374e-01 1.7190040780777373e+01 0.0000000000000000e+00
ITEM: ATOMS id type x y z
1 1 8.77796 0.38079 3.64071
2 1 4.9686 9.20128 4.7253
3 1 7.07618 5.34126 0.337245
4 1 6.64583 4.22497 8.04761
5 2 7.78286 8.64877 3.09693
6 2 6.22207 0.888568 5.40215
7 2 8.12617 3.65981 0.988917
8 2 5.51238 5.8164 7.27063
9 2 6.5092 8.19544 3.54616
10 2 7.38183 1.3553 4.86553
11 2 0.420828 3.34193 0.632921
12 2 4.28886 6.30076 7.81506
13 2 7.15967 6.71744 1.88468
14 2 6.58872 2.711 6.70998
15 2 8.76805 1.81144 2.3017
16 2 4.75878 7.56065 5.80849
17 5 1.10428 0.650136 5.22236
18 5 3.65128 8.97308 3.2104
19 5 1.48736 5.56488 7.57128
20 5 3.1677 4.06444 1.0004
21 5 3.1491 0.178857 5.71133
22 5 1.57769 9.41149 2.72743
23 5 8.61831 4.91611 7.06259
24 5 5.17982 4.5133 1.38629
25 3 8.1098 7.68169 2.1633
26 3 5.69856 1.74911 6.45393
27 3 7.82281 2.75796 2.01752
28 3 5.80541 6.71445 6.24169
29 3 6.22525 7.06473 2.8689
30 3 7.61215 2.38215 5.72595
31 3 0.723001 2.26956 1.42907
32 3 3.92222 7.2277 6.89705
33 6 2.16426 0.237498 4.87047
34 6 2.5405 9.32012 3.50792
35 6 0.488611 5.07257 7.92712
36 6 4.24734 4.42639 0.595066
37 4 0.134427 7.4082 1.87886
38 4 4.67588 1.8233 6.87054
39 4 6.85229 2.49777 2.36825
40 4 6.81136 6.76086 5.92752
41 4 5.21679 6.71009 2.74951
42 4 8.59114 2.74622 6.04829
43 4 1.67188 1.80954 1.32438
44 4 2.90992 7.68496 6.80713
45 1 4.55917 0.406961 12.3492
46 1 0.844189 9.15922 13.3333
47 1 2.96748 5.22211 9.01334
48 1 2.43323 4.22805 16.6681
49 2 3.59082 8.22982 12.1297
50 2 1.72045 0.948597 13.8169
51 2 4.05942 3.76962 9.74015
52 2 1.43854 5.93355 16.0935
53 2 2.1252 8.18427 12.0043
54 2 3.08477 1.13759 13.7249
55 2 5.27779 3.36585 9.27209
56 2 9.20966 6.3392 16.5057
57 2 3.0092 6.66831 10.5669
58 2 2.39913 2.81352 15.3175
59 2 4.49659 1.72943 10.8196
60 2 0.743649 7.62832 14.6372
61 5 5.79115 0.499717 13.8314
62 5 8.49458 9.18455 12.073
63 5 6.3006 5.6111 16.2624
64 5 8.19057 3.8457 9.50731
65 5 7.83806 0.208301 14.3055
66 5 6.36823 9.64621 11.4246
67 5 4.25654 5.03681 15.7579
68 5 1.05588 4.53684 10.0726
69 3 4.09071 7.04188 11.4714
70 3 1.46025 1.88881 14.9037
71 3 3.56898 2.71515 10.6041
72 3 1.82524 6.90597 15.1177
73 3 1.82301 7.07047 11.2194
74 3 3.3386 2.37281 14.394
75 3 5.52873 2.1682 10.0728
76 3 8.8412 7.30943 15.6142
77 6 6.95707 0.197121 13.52
78 6 7.27002 9.29674 12.289
79 6 5.17006 5.18873 16.6146
80 6 9.21976 4.39944 9.2456
81 4 4.85137 7.44148 10.9199
82 4 9.49721 1.90636 15.2967
83 4 2.74227 2.94234 11.3543
84 4 2.5831 6.53653 14.4055
85 4 0.780041 6.90609 10.8968
86 4 4.3165 2.59175 14.6134
87 4 6.50764 1.68995 9.7972
88 4 7.95461 7.79905 15.5683
89 1 8.70218 10.216 3.69754
90 1 5.0439 18.9864 4.6788
91 1 7.12545 15.1104 0.423568
92 1 6.65137 14.052 8.03364
93 2 7.77629 18.4848 3.11169
94 2 5.90846 11.2468 4.96671
95 2 8.11352 13.444 0.920768
96 2 5.51145 15.6583 7.31916
97 2 6.42039 18.1788 3.35658
98 2 7.31507 11.3535 4.84977
99 2 0.398636 13.0645 0.609579
100 2 4.34283 16.2519 7.79214
101 2 7.16588 16.6207 1.74484
102 2 6.71437 12.6643 6.59253
103 2 8.6024 11.64 2.37618
104 2 5.03084 17.5413 6.05336
105 5 1.17253 10.5201 5.03296
106 5 3.63044 18.9629 3.14807
107 5 1.46193 15.3545 7.55494
108 5 3.24131 13.9387 0.876906
109 5 3.09113 10.0306 5.79476
110 5 1.54629 19.1804 2.65829
111 5 8.48276 14.9068 7.05798
112 5 5.22783 14.3453 1.39282
113 3 8.11604 17.5537 2.06831
114 3 5.69008 11.7787 6.28009
115 3 7.74291 12.6287 2.0058
116 3 5.90778 16.5148 6.29645
117 3 6.23706 16.9518 2.66044
118 3 7.76808 12.2431 5.79049
119 3 0.5525 12.0086 1.48212
120 3 3.94973 17.1862 6.87466
121 6 2.29222 10.0968 4.87301
122 6 2.4337 19.349 3.44636
123 6 0.370342 15.0631 7.80158
124 6 4.35759 14.3602 0.586596
125 4 0.145513 17.3015 1.99115
126 4 4.76765 12.2431 6.48088
127 4 6.64244 12.6347 2.27119
128 4 6.82739 16.6303 5.86675
129 4 5.21716 16.5758 2.81848
130 4 8.68824 12.9926 5.53294
131 4 1.39271 11.2625 1.32213
132 4 3.25691 18.0311 7.16467
133 1 4.45301 10.1995 12.3009
134 1 0.805226 18.951 13.4291
135 1 2.86689 15.0491 9.08782
136 1 2.38795 14.0893 16.627
137 2 3.4231 18.4374 11.7594
138 2 1.87362 10.7074 14.0026
139 2 3.91091 13.5138 9.63536
140 2 1.41804 15.6306 16.0728
141 2 2.04723 18.1229 12.1031
142 2 3.1734 11.1 13.6304
143 2 5.20486 13.1204 9.23146
144 2 9.24566 16.0356 16.4902
145 2 2.97689 16.5539 10.4232
146 2 2.39892 12.664 15.2432
147 2 4.74365 11.8764 11.1084
148 2 0.758045 17.5843 14.8389
149 5 6.00395 10.3335 13.8395
150 5 8.50916 18.9075 11.8565
151 5 6.3169 15.4626 16.2558
152 5 8.19879 13.9382 9.43742
153 5 8.02526 10.052 14.2837
154 5 6.41083 19.1043 11.3947
155 5 4.40595 15.055 15.7431
156 5 1.15779 14.3107 10.0019
157 3 3.94279 17.4209 10.8922
158 3 1.53784 11.6182 15.0106
159 3 3.71944 12.7117 10.722
160 3 1.6747 16.6448 15.0529
161 3 1.9072 17.0557 11.2272
162 3 3.41769 12.1658 14.4295
163 3 5.51008 12.0661 10.015
164 3 8.88989 17.1542 15.753
165 6 7.05257 9.85177 13.6432
166 6 7.33747 19.1103 12.1512
167 6 5.30551 14.8181 16.4901
168 6 9.20437 14.4929 9.30559
169 4 4.93366 17.5258 10.4958
170 4 0.510565 11.5625 15.4453
171 4 3.09212 13.1668 11.57
172 4 2.68149 16.81 14.7854
173 4 1.12482 16.3453 11.3826
174 4 4.20185 12.9755 14.2263
175 4 6.39652 11.5797 9.85441
176 4 7.81582 17.5804 15.8705
177 7 7.45512 13.3846 14.4458
178 8 7.05319 13.2115 15.2693
179 8 6.72698 13.5153 13.8273
180 7 6.94238 15.6519 12.561
181 8 6.91813 16.553 12.7911
182 8 7.89706 15.6145 12.3299
183 7 5.29396 4.8213 12.9308
184 8 4.37012 4.82154 13.2454
185 8 5.48932 5.73327 12.6712
186 7 7.33363 4.92667 11.7304
187 8 7.12027 5.2631 12.6485
188 8 8.71725 3.62913 11.8149
189 7 2.84875 4.93851 4.35058
190 8 2.57087 5.82383 4.60958
191 8 2.45973 4.37626 3.66446
192 7 4.63773 2.78437 4.03297
193 8 4.79955 2.64634 3.0923
194 8 5.25477 3.53301 4.06958
195 9 2.99635 9.7435 9.65659
196 10 3.03833 9.22348 8.63193
197 10 2.43926 10.3125 10.5837
198 9 9.05136 11.7419 10.5605
199 10 8.46811 11.6085 11.5543
200 10 0.724434 11.6786 9.66538
201 9 7.20545 6.97272 9.83726
202 10 7.48546 6.51257 8.88131
203 10 6.95718 7.44689 10.7714
204 9 1.75736 10.7325 7.76512
205 10 1.06811 9.83369 7.47376
206 10 2.65023 11.2939 8.27019
207 9 6.41503 9.18106 7.4139
208 10 7.30544 8.92337 6.62128
209 10 5.81086 8.89096 8.407
210 9 9.18032 7.90539 6.98789
211 10 0.823099 7.54808 6.12456
212 10 8.48712 7.98353 7.90706
ITEM: TIMESTEP
71
ITEM: NUMBER OF ATOMS
212
ITEM: BOX BOUNDS xy xz yz pp pp pp
-6.7765671747609169e-02 9.6215342430357893e+00 0.0000000000000000e+00
-1.4738641070076497e-01 1.9534385510700776e+01 6.3996837128816175e-01
-1.2971719145741645e-01 1.7192532291457439e+01 0.0000000000000000e+00
ITEM: ATOMS id type x y z
1 1 8.78006 0.377852 3.63889
2 1 4.96777 9.20209 4.72398
3 1 7.07612 5.34011 0.334239
4 1 6.64702 4.22346 8.04814
5 2 7.78436 8.64904 3.09646
6 2 6.22522 0.88356 5.40171
7 2 8.12684 3.6592 0.986402
8 2 5.50974 5.8135 7.26828
9 2 6.50984 8.19539 3.54572
10 2 7.38091 1.35147 4.86527
11 2 0.420418 3.34052 0.631075
12 2 4.28687 6.30166 7.81209
13 2 7.16152 6.71411 1.88319
14 2 6.58848 2.70911 6.71116
15 2 8.76859 1.80841 2.30022
16 2 4.75679 7.55732 5.80483
17 5 1.1043 0.647871 5.22226
18 5 3.65003 8.97339 3.20822
19 5 1.48761 5.56385 7.57182
20 5 3.16799 4.06375 0.999532
21 5 3.14737 0.176212 5.70993
22 5 1.57905 9.41153 2.72692
23 5 8.62126 4.91195 7.06156
24 5 5.1782 4.5126 1.38373
25 3 8.11041 7.68028 2.16191
26 3 5.70263 1.74568 6.45417
27 3 7.82645 2.75438 2.01586
28 3 5.7997 6.71236 6.23806
29 3 6.22719 7.06345 2.86931
30 3 7.61389 2.38172 5.72629
31 3 0.722152 2.26749 1.42756
32 3 3.92239 7.22342 6.89362
33 6 2.16399 0.234444 4.86637
34 6 2.53975 9.32061 3.50825
35 6 0.486784 5.06827 7.92972
36 6 4.2474 4.42555 0.592451
37 4 0.132894 7.40693 1.88189
38 4 4.67973 1.82065 6.86945
39 4 6.85695 2.48843 2.36475
40 4 6.80627 6.75231 5.915
41 4 5.21743 6.70887 2.7515
42 4 8.5928 2.74663 6.05028
43 4 1.67175 1.80692 1.32142
44 4 2.90913 7.6723 6.80733
45 1 4.5597 0.404092 12.3506
46 1 0.843017 9.15931 13.3338
47 1 2.96741 5.21954 9.01298
48 1 2.43298 4.22673 16.6708
49 2 3.59004 8.22089 12.1361
50 2 1.72054 0.94684 13.8185
51 2 4.06213 3.7681 9.74086
52 2 1.43651 5.93306 16.0958
53 2 2.12574 8.18271 12.006
54 2 3.08273 1.13456 13.7277
55 2 5.27663 3.36472 9.27317
56 2 9.21169 6.33872 16.5076
57 2 3.01433 6.66419 10.5722
58 2 2.39782 2.81055 15.3179
59 2 4.49677 1.726 10.8188
60 2 0.741438 7.62874 14.6375
61 5 5.79078 0.495337 13.833
62 5 8.49351 9.18683 12.0757
63 5 6.29962 5.61133 16.2644
64 5 8.19476 3.84058 9.50706
65 5 7.8366 0.20621 14.3067
66 5 6.37039 9.65206 11.4295
67 5 4.2569 5.03518 15.7604
68 5 1.05445 4.53643 10.0735
69 3 4.08532 7.03379 11.4777
70 3 1.45963 1.8873 14.9049
71 3 3.57081 2.71222 10.604
72 3 1.82377 6.90639 15.1198
73 3 1.82142 7.06921 11.2196
74 3 3.33718 2.3693 14.3962
75 3 5.52817 2.16543 10.0737
76 3 8.84359 7.30875 15.6157
77 6 6.95732 0.193465 13.519
78 6 7.27061 9.29816 12.2916
79 6 5.16776 5.18641 16.6218
80 6 9.22344 4.39731 9.24503
81 4 4.85888 7.43454 10.934
82 4 9.49723 1.90816 15.2941
83 4 2.74492 2.93868 11.3555
84 4 2.58241 6.53131 14.4095
85 4 0.779411 6.91305 10.886
86 4 4.31588 2.5878 14.621
87 4 6.50338 1.68383 9.79575
88 4 7.95588 7.79889 15.568
89 1 8.70327 10.2159 3.69645
90 1 5.04407 18.9893 4.677
91 1 7.12605 15.1112 0.421375
92 1 6.65244 14.0532 8.03388
93 2 7.77643 18.4875 3.11001
94 2 5.91061 11.2507 4.96107
95 2 8.11417 13.4445 0.919221
96 2 5.5093 15.658 7.31947
97 2 6.42191 18.1811 3.35333
98 2 7.3138 11.3562 4.84796
99 2 0.396729 13.0645 0.607617
100 2 4.34229 16.2536 7.79193
101 2 7.16713 16.6213 1.74309
102 2 6.71602 12.6677 6.59262
103 2 8.60258 11.638 2.37544
104 2 5.0316 17.5454 6.05024
105 5 1.17286 10.5224 5.02938
106 5 3.62936 18.9681 3.14478
107 5 1.46 15.3561 7.55378
108 5 3.24152 13.9409 0.875407
109 5 3.08973 10.0305 5.79304
110 5 1.54672 19.1829 2.6571
111 5 8.48533 14.9078 7.0589
112 5 5.22758 14.3475 1.39101
113 3 8.11692 17.5562 2.06622
114 3 5.69072 11.7835 6.27747
115 3 7.74365 12.6301 2.00339
116 3 5.90669 16.5178 6.29289
117 3 6.23928 16.9557 2.65867
118 3 7.7693 12.2441 5.78984
119 3 0.550325 12.0086 1.4804
120 3 3.94938 17.1891 6.87359
121 6 2.29321 10.0966 4.86929
122 6 2.43174 19.3543 3.44667
123 6 0.368166 15.066 7.80221
124 6 4.35838 14.3626 0.582788
125 4 0.144628 17.3029 1.99518
126 4 4.77101 12.2536 6.4799
127 4 6.64113 12.639 2.26124
128 4 6.82695 16.6358 5.86274
129 4 5.21897 16.5827 2.81722
130 4 8.68812 12.9931 5.52972
131 4 1.38912 11.2618 1.31805
132 4 3.26114 18.0359 7.16817
133 1 4.45255 10.199 12.302
134 1 0.803429 18.9534 13.4307
135 1 2.86556 15.0493 9.08819
136 1 2.38728 14.0909 16.629
137 2 3.42271 18.4389 11.7593
138 2 1.87375 10.7065 14.0053
139 2 3.91099 13.5176 9.63551
140 2 1.41546 15.6307 16.0765
141 2 2.04664 18.1245 12.1025
142 2 3.17314 11.0993 13.632
143 2 5.20604 13.1217 9.23014
144 2 9.24761 16.0364 16.4927
145 2 2.9759 16.5548 10.4249
146 2 2.39886 12.667 15.2458
147 2 4.74611 11.8777 11.1124
148 2 0.757284 17.5883 14.8407
149 5 6.00444 10.333 13.8418
150 5 8.50899 18.9122 11.8571
151 5 6.31749 15.4659 16.2588
152 5 8.20218 13.9403 9.43759
153 5 8.02645 10.0526 14.2842
154 5 6.4128 19.1054 11.3964
155 5 4.40648 15.0578 15.7456
156 5 1.15653 14.3136 10.0007
157 3 3.93946 17.4233 10.8959
158 3 1.53768 11.6175 15.0124
159 3 3.72167 12.7142 10.7255
160 3 1.67358 16.648 15.0533
161 3 1.90759 17.0585 11.2267
162 3 3.41752 12.1661 14.4311
163 3 5.51135 12.0662 10.0143
164 3 8.89016 17.1563 15.7568
165 6 7.0535 9.84928 13.646
166 6 7.33788 19.1128 12.1535
167 6 5.30619 14.8179 16.4937
168 6 9.2068 14.4975 9.30624
169 4 4.9326 17.5318 10.5047
170 4 0.506412 11.5577 15.4403
171 4 3.09612 13.1755 11.5722
172 4 2.68129 16.8174 14.7872
173 4 1.12553 16.3467 11.381
174 4 4.19879 12.9768 14.2245
175 4 6.3994 11.5809 9.85329
176 4 7.81629 17.5816 15.878
177 7 7.45741 13.3847 14.4477
178 8 7.06086 13.2159 15.2723
179 8 6.73015 13.5268 13.8303
180 7 6.94317 15.6535 12.5625
181 8 6.91602 16.5526 12.7922
182 8 7.89915 15.6176 12.3267
183 7 5.29285 4.81952 12.9313
184 8 4.37022 4.81701 13.2544
185 8 5.48231 5.72885 12.6615
186 7 7.33971 4.91225 11.7392
187 8 7.11007 5.25295 12.6476
188 8 8.70401 3.60771 11.828
189 7 2.84631 4.93972 4.34793
190 8 2.56336 5.82339 4.61365
191 8 2.46607 4.37123 3.65886
192 7 4.63724 2.78286 4.02903
193 8 4.80429 2.64245 3.08829
194 8 5.25399 3.53562 4.06532
195 9 2.99122 9.74681 9.65445
196 10 3.03511 9.2315 8.6265
197 10 2.43682 10.3092 10.5806
198 9 9.05335 11.742 10.5604
199 10 8.47004 11.6156 11.5558
200 10 0.722341 11.6739 9.66402
201 9 7.20557 6.97516 9.83295
202 10 7.48774 6.5142 8.87834
203 10 6.95428 7.4485 10.7704
204 9 1.75701 10.7335 7.76299
205 10 1.06662 9.83511 7.47584
206 10 2.65122 11.2966 8.26614
207 9 6.42052 9.18087 7.41615
208 10 7.30787 8.92164 6.62566
209 10 5.81337 8.89594 8.41176
210 9 9.183 7.90438 6.9881
211 10 0.819179 7.55074 6.12253
212 10 8.4934 7.98362 7.90732
ITEM: TIMESTEP
72
ITEM: NUMBER OF ATOMS
212
ITEM: BOX BOUNDS xy xz yz pp pp pp
-6.9065047376546396e-02 9.6230174022516017e+00 0.0000000000000000e+00
-1.5021247742691202e-01 1.9537211577426923e+01 6.4015215487503674e-01
-1.3220445902058131e-01 1.7195019559020604e+01 0.0000000000000000e+00
ITEM: ATOMS id type x y z
1 1 8.78216 0.374923 3.63708
2 1 4.96693 9.20291 4.72266
3 1 7.07606 5.33895 0.331244
4 1 6.64821 4.22195 8.04868
5 2 7.78581 8.64924 3.09601
6 2 6.22826 0.878562 5.40132
7 2 8.12756 3.65856 0.983899
8 2 5.50704 5.81065 7.26594
9 2 6.5105 8.19538 3.54526
10 2 7.38003 1.34766 4.86506
11 2 0.419956 3.33911 0.629268
12 2 4.28493 6.30249 7.80907
13 2 7.16336 6.7108 1.88177
14 2 6.58831 2.70723 6.71227
15 2 8.76916 1.8054 2.29869
16 2 4.75485 7.55396 5.80129
17 5 1.10429 0.64561 5.22214
18 5 3.6488 8.9737 3.20604
19 5 1.48793 5.56282 7.5724
20 5 3.16825 4.06307 0.998631
21 5 3.14557 0.173572 5.70844
22 5 1.58043 9.41155 2.72642
23 5 8.62425 4.90779 7.06058
24 5 5.17659 4.51191 1.38116
25 3 8.11107 7.67885 2.16049
26 3 5.70675 1.74221 6.45434
27 3 7.83011 2.7508 2.01419
28 3 5.79395 6.71024 6.23446
29 3 6.22915 7.06216 2.86963
30 3 7.61555 2.38136 5.72675
31 3 0.72126 2.26542 1.42607
32 3 3.92252 7.21922 6.89009
33 6 2.16387 0.231384 4.8624
34 6 2.53893 9.32113 3.50859
35 6 0.484779 5.06392 7.93215
36 6 4.24755 4.42472 0.589935
37 4 0.130847 7.40604 1.88513
38 4 4.68372 1.81773 6.86815
39 4 6.86123 2.47935 2.36114
40 4 6.80138 6.7437 5.90206
41 4 5.21792 6.70762 2.75367
42 4 8.59458 2.74682 6.05179
43 4 1.67185 1.80406 1.31852
44 4 2.90879 7.65937 6.80792
45 1 4.56023 0.401223 12.3519
46 1 0.84184 9.1594 13.3344
47 1 2.96735 5.21698 9.01263
48 1 2.43273 4.22541 16.6734
49 2 3.58915 8.2119 12.1424
50 2 1.72067 0.945149 13.8202
51 2 4.06477 3.76652 9.7416
52 2 1.43445 5.93262 16.098
53 2 2.12638 8.18108 12.0078
54 2 3.0807 1.13163 13.7305
55 2 5.27549 3.36348 9.27432
56 2 9.2137 6.33822 16.5095
57 2 3.01945 6.66003 10.5776
58 2 2.39652 2.80755 15.3182
59 2 4.49694 1.72257 10.8179
60 2 0.739252 7.62917 14.6379
61 5 5.79044 0.490947 13.8346
62 5 8.49241 9.18909 12.0784
63 5 6.29858 5.61153 16.2664
64 5 8.19892 3.83545 9.50677
65 5 7.8352 0.204126 14.3079
66 5 6.37261 9.65791 11.4345
67 5 4.25729 5.03358 15.7629
68 5 1.05305 4.53602 10.0744
69 3 4.07976 7.0259 11.4838
70 3 1.45899 1.88572 14.9061
71 3 3.57266 2.70938 10.6039
72 3 1.82227 6.90671 15.122
73 3 1.8199 7.068 11.2199
74 3 3.33571 2.36573 14.3984
75 3 5.52767 2.16281 10.0744
76 3 8.84608 7.30808 15.6171
77 6 6.95753 0.189794 13.5179
78 6 7.27118 9.29967 12.294
79 6 5.16542 5.1841 16.6289
80 6 9.22719 4.39519 9.24455
81 4 4.86666 7.42738 10.948
82 4 9.49723 1.91013 15.2914
83 4 2.74797 2.9348 11.3562
84 4 2.58162 6.52636 14.4135
85 4 0.779062 6.92006 10.875
86 4 4.31595 2.58401 14.6287
87 4 6.49862 1.67746 9.79466
88 4 7.9563 7.79895 15.568
89 1 8.70436 10.2158 3.69535
90 1 5.04424 18.9921 4.6752
91 1 7.12666 15.112 0.419183
92 1 6.65351 14.0543 8.03412
93 2 7.77653 18.4902 3.10827
94 2 5.91282 11.2546 4.95558
95 2 8.11487 13.4449 0.917728
96 2 5.50718 15.6577 7.31974
97 2 6.42348 18.1833 3.35006
98 2 7.31253 11.3588 4.84618
99 2 0.394743 13.0645 0.605689
100 2 4.34172 16.2553 7.79172
101 2 7.16841 16.6219 1.74136
102 2 6.71767 12.6711 6.59269
103 2 8.60278 11.6361 2.37464
104 2 5.03232 17.5495 6.04714
105 5 1.17318 10.5248 5.0258
106 5 3.62818 18.9733 3.14151
107 5 1.45815 15.3576 7.55258
108 5 3.24173 13.9431 0.873898
109 5 3.08838 10.0304 5.79126
110 5 1.54711 19.1855 2.65592
111 5 8.48787 14.9089 7.0598
112 5 5.22736 14.3498 1.38921
113 3 8.11782 17.5588 2.06419
114 3 5.69142 11.7884 6.27473
115 3 7.74432 12.6315 2.00095
116 3 5.90553 16.5208 6.28937
117 3 6.24143 16.9596 2.65697
118 3 7.77055 12.2452 5.78917
119 3 0.548218 12.0086 1.4787
120 3 3.94909 17.192 6.87253
121 6 2.29418 10.0964 4.86556
122 6 2.42996 19.3596 3.44693
123 6 0.365911 15.0687 7.80297
124 6 4.35909 14.365 0.579015
125 4 0.143458 17.3042 1.99906
126 4 4.77381 12.2639 6.47894
127 4 6.6404 12.643 2.25136
128 4 6.82734 16.6409 5.85864
129 4 5.22095 16.5892 2.81552
130 4 8.68693 12.9926 5.5268
131 4 1.38518 11.2617 1.31395
132 4 3.2656 18.0401 7.17169
133 1 4.45211 10.1985 12.3031
134 1 0.801624 18.9559 13.4324
135 1 2.86422 15.0495 9.08855
136 1 2.38662 14.0925 16.6309
137 2 3.42227 18.4403 11.7593
138 2 1.87393 10.7056 14.008
139 2 3.91116 13.5214 9.63569
140 2 1.41291 15.6308 16.08
141 2 2.04619 18.1262 12.1019
142 2 3.17281 11.0986 13.6337
143 2 5.20718 13.1231 9.22884
144 2 9.24949 16.0373 16.4952
145 2 2.97488 16.5558 10.4267
146 2 2.3988 12.67 15.2483
147 2 4.74851 11.8791 11.1165
148 2 0.756506 17.5924 14.8425
149 5 6.00487 10.3325 13.8441
150 5 8.50882 18.9169 11.8576
151 5 6.31808 15.4691 16.2618
152 5 8.20549 13.9425 9.43781
153 5 8.02769 10.0532 14.2848
154 5 6.41475 19.1065 11.3981
155 5 4.40695 15.0605 15.7481
156 5 1.15526 14.3165 9.99944
157 3 3.93607 17.4258 10.8995
158 3 1.53748 11.6168 15.0141
159 3 3.72386 12.7168 10.7291
160 3 1.67249 16.651 15.0538
161 3 1.90801 17.0613 11.2262
162 3 3.41737 12.1666 14.4327
163 3 5.51261 12.0664 10.0136
164 3 8.89036 17.1584 15.7607
165 6 7.05443 9.84677 13.6488
166 6 7.33828 19.1154 12.1558
167 6 5.30691 14.8177 16.4973
168 6 9.20932 14.5023 9.3068
169 4 4.93161 17.5376 10.5135
170 4 0.502615 11.5532 15.4352
171 4 3.10039 13.1839 11.5739
172 4 2.68142 16.8249 14.7888
173 4 1.12594 16.3482 11.3796
174 4 4.19546 12.9773 14.2226
175 4 6.40292 11.5817 9.85221
176 4 7.81761 17.5826 15.8853
177 7 7.4597 13.3849 14.4496
178 8 7.06821 13.2202 15.2758
179 8 6.73345 13.5383 13.8335
180 7 6.94399 15.655 12.564
181 8 6.91365 16.5529 12.7936
182 8 7.90078 15.6205 12.3237
183 7 5.29172 4.81773 12.9319
184 8 4.37045 4.81266 13.2635
185 8 5.47505 5.72442 12.6519
186 7 7.34581 4.89782 11.748
187 8 7.10013 5.24252 12.6465
188 8 8.69017 3.58703 11.841
189 7 2.84391 4.94091 4.34529
190 8 2.55549 5.82263 4.61728
191 8 2.47228 4.3668 3.65347
192 7 4.63677 2.78139 4.02505
193 8 4.80875 2.63832 3.08426
194 8 5.25295 3.53818 4.06144
195 9 2.98594 9.75017 9.65242
196 10 3.03197 9.23942 8.6211
197 10 2.43447 10.3058 10.5774
198 9 9.05533 11.742 10.5603
199 10 8.47197 11.6228 11.5574
200 10 0.720236 11.6694 9.66263
201 9 7.20572 6.97753 9.82855
202 10 7.49002 6.51572 8.87525
203 10 6.95135 7.45012 10.7696
204 9 1.7567 10.7345 7.76089
205 10 1.06511 9.83657 7.47792
206 10 2.65217 11.2994 8.26203
207 9 6.42608 9.18055 7.41841
208 10 7.31016 8.92005 6.63004
209 10 5.81588 8.90098 8.41646
210 9 9.18571 7.9033 6.98832
211 10 0.815244 7.55344 6.12046
212 10 8.49976 7.98372 7.9076
ITEM: TIMESTEP
73
ITEM: NUMBER OF ATOMS
212
ITEM: BOX BOUNDS xy xz yz pp pp pp
-7.0361929125528633e-02 9.6244977148532733e+00 0.0000000000000000e+00
-1.5303312010861880e-01 1.9540032220108628e+01 6.4033558572772686e-01
-1.3468695279348886e-01 1.7197502052793514e+01 0.0000000000000000e+00
ITEM: ATOMS id type x y z
1 1 8.78426 0.372005 3.63527
2 1 4.9661 9.20373 4.72133
3 1 7.07601 5.33779 0.328262
4 1 6.6494 4.22044 8.04922
5 2 7.7872 8.64937 3.09558
6 2 6.23119 0.873574 5.40097
7 2 8.12832 3.6579 0.98141
8 2 5.50428 5.80786 7.26359
9 2 6.51119 8.19542 3.54477
10 2 7.3792 1.34386 4.86491
11 2 0.419439 3.3377 0.6275
12 2 4.28303 6.30323 7.80599
13 2 7.16519 6.70752 1.8804
14 2 6.58822 2.70536 6.71331
15 2 8.76977 1.80242 2.2971
16 2 4.75298 7.55058 5.79787
17 5 1.10423 0.64335 5.222
18 5 3.64759 8.97401 3.20385
19 5 1.48832 5.5618 7.57302
20 5 3.16848 4.0624 0.997696
21 5 3.14372 0.170937 5.70688
22 5 1.58182 9.41157 2.72593
23 5 8.62727 4.90364 7.05966
24 5 5.175 4.51122 1.37858
25 3 8.11178 7.6774 2.15905
26 3 5.71091 1.73871 6.45442
27 3 7.83378 2.74722 2.01251
28 3 5.78816 6.70808 6.23088
29 3 6.23114 7.06085 2.86986
30 3 7.61715 2.38106 5.72732
31 3 0.720324 2.26336 1.4246
32 3 3.92263 7.21511 6.88647
33 6 2.16391 0.228322 4.85858
34 6 2.53805 9.3217 3.50893
35 6 0.482604 5.05953 7.9344
36 6 4.24778 4.42389 0.587521
37 4 0.128297 7.4055 1.88856
38 4 4.68786 1.81454 6.86665
39 4 6.86512 2.47052 2.35742
40 4 6.79667 6.73503 5.88872
41 4 5.21828 6.70633 2.75601
42 4 8.59647 2.74681 6.05282
43 4 1.67216 1.80095 1.31567
44 4 2.90889 7.6462 6.80888
45 1 4.56075 0.398352 12.3532
46 1 0.840658 9.15948 13.3349
47 1 2.96728 5.21443 9.01228
48 1 2.43249 4.22409 16.6761
49 2 3.58814 8.20285 12.1487
50 2 1.72083 0.943524 13.8221
51 2 4.06733 3.76488 9.74237
52 2 1.43238 5.93223 16.1002
53 2 2.12711 8.17937 12.0096
54 2 3.07868 1.12879 13.7332
55 2 5.27437 3.36212 9.27553
56 2 9.21569 6.33771 16.5114
57 2 3.02455 6.65583 10.5831
58 2 2.39522 2.80451 15.3185
59 2 4.49711 1.71913 10.8172
60 2 0.737093 7.6296 14.6383
61 5 5.79014 0.486546 13.8362
62 5 8.49127 9.19132 12.0811
63 5 6.2975 5.61172 16.2685
64 5 8.20305 3.83031 9.50646
65 5 7.83387 0.20205 14.3091
66 5 6.37486 9.66376 11.4395
67 5 4.2577 5.03198 15.7655
68 5 1.05166 4.53561 10.0753
69 3 4.07407 7.0182 11.4899
70 3 1.45831 1.88407 14.9071
71 3 3.57453 2.70664 10.6038
72 3 1.82074 6.90694 15.1241
73 3 1.81847 7.06684 11.2202
74 3 3.33421 2.36211 14.4007
75 3 5.52721 2.16034 10.0749
76 3 8.84868 7.30741 15.6184
77 6 6.9577 0.186113 13.5168
78 6 7.27173 9.30127 12.2965
79 6 5.16306 5.18181 16.6358
80 6 9.23103 4.39307 9.24415
81 4 4.87463 7.41997 10.9617
82 4 9.4972 1.91226 15.2888
83 4 2.75141 2.93069 11.3565
84 4 2.58071 6.52169 14.4177
85 4 0.779009 6.9271 10.8638
86 4 4.31668 2.58035 14.6365
87 4 6.49339 1.67084 9.79392
88 4 7.9559 7.79922 15.5683
89 1 8.70545 10.2157 3.69425
90 1 5.04441 18.995 4.6734
91 1 7.12726 15.1129 0.416991
92 1 6.65458 14.0555 8.03436
93 2 7.77658 18.4928 3.10646
94 2 5.91506 11.2585 4.95025
95 2 8.11562 13.4454 0.916287
96 2 5.50508 15.6574 7.31996
97 2 6.4251 18.1855 3.34677
98 2 7.31126 11.3615 4.84442
99 2 0.392678 13.0645 0.603796
100 2 4.34112 16.2568 7.79151
101 2 7.16971 16.6224 1.73966
102 2 6.71931 12.6745 6.59275
103 2 8.60298 11.6342 2.37377
104 2 5.033 17.5536 6.04408
105 5 1.17349 10.5271 5.02223
106 5 3.62692 18.9785 3.13828
107 5 1.45636 15.3592 7.55133
108 5 3.24194 13.9452 0.872378
109 5 3.08706 10.0303 5.78943
110 5 1.54745 19.1881 2.65475
111 5 8.4904 14.91 7.06067
112 5 5.2272 14.352 1.38743
113 3 8.11873 17.5614 2.06224
114 3 5.69218 11.7933 6.27187
115 3 7.74493 12.633 1.99848
116 3 5.90428 16.5239 6.2859
117 3 6.24351 16.9636 2.65534
118 3 7.77181 12.2464 5.78847
119 3 0.546177 12.0086 1.477
120 3 3.94886 17.1949 6.87145
121 6 2.29513 10.0962 4.86183
122 6 2.42835 19.3648 3.44715
123 6 0.363584 15.0714 7.80388
124 6 4.35974 14.3674 0.575282
125 4 0.142 17.3056 2.00278
126 4 4.77607 12.274 6.478
127 4 6.64025 12.6467 2.24155
128 4 6.82853 16.6457 5.85446
129 4 5.22309 16.5954 2.81338
130 4 8.68468 12.9912 5.52419
131 4 1.3809 11.2621 1.30983
132 4 3.27027 18.0437 7.17523
133 1 4.45169 10.198 12.3043
134 1 0.79981 18.9583 13.4341
135 1 2.86289 15.0497 9.0889
136 1 2.38597 14.094 16.6329
137 2 3.4218 18.4417 11.7593
138 2 1.87415 10.7048 14.0107
139 2 3.91142 13.5252 9.63589
140 2 1.41039 15.6311 16.0835
141 2 2.04589 18.1278 12.1013
142 2 3.17244 11.0979 13.6353
143 2 5.20828 13.1245 9.22756
144 2 9.25129 16.0381 16.4976
145 2 2.97384 16.5568 10.4286
146 2 2.39876 12.6729 15.2507
147 2 4.75086 11.8804 11.1204
148 2 0.755709 17.5965 14.8443
149 5 6.00523 10.3321 13.8465
150 5 8.50864 18.9215 11.8582
151 5 6.31868 15.4723 16.2649
152 5 8.20871 13.9445 9.43807
153 5 8.02897 10.0538 14.2854
154 5 6.41667 19.1075 11.3997
155 5 4.40735 15.0632 15.7507
156 5 1.15399 14.3194 9.99823
157 3 3.93262 17.4283 10.9031
158 3 1.53723 11.616 15.0158
159 3 3.72599 12.7194 10.7328
160 3 1.67141 16.6538 15.0543
161 3 1.90844 17.064 11.2257
162 3 3.41725 12.1672 14.4344
163 3 5.51385 12.0666 10.0129
164 3 8.89051 17.1604 15.7646
165 6 7.05534 9.84422 13.6515
166 6 7.33867 19.1181 12.1582
167 6 5.30768 14.8176 16.5009
168 6 9.21194 14.507 9.30726
169 4 4.93067 17.5432 10.522
170 4 0.49919 11.5489 15.43
171 4 3.10493 13.1918 11.5749
172 4 2.68186 16.8325 14.7902
173 4 1.12608 16.3498 11.3782
174 4 4.19187 12.977 14.2206
175 4 6.40705 11.5822 9.85116
176 4 7.81977 17.5835 15.8925
177 7 7.46202 13.385 14.4514
178 8 7.07522 13.2244 15.2797
179 8 6.73688 13.5499 13.8368
180 7 6.94486 15.6565 12.5655
181 8 6.91103 16.554 12.7952
182 8 7.90193 15.6232 12.3207
183 7 5.29057 4.81594 12.9325
184 8 4.37083 4.80848 13.2727
185 8 5.46753 5.72001 12.6425
186 7 7.35195 4.88338 11.7568
187 8 7.09046 5.23183 12.6454
188 8 8.67575 3.56712 11.854
189 7 2.84154 4.94209 4.34268
190 8 2.54729 5.82151 4.62045
191 8 2.47835 4.363 3.6483
192 7 4.63632 2.77995 4.02103
193 8 4.81291 2.63396 3.08024
194 8 5.25162 3.54066 4.05793
195 9 2.98052 9.75355 9.6505
196 10 3.02891 9.24724 8.61575
197 10 2.4322 10.3024 10.5742
198 9 9.05731 11.7419 10.5602
199 10 8.47388 11.63 11.5589
200 10 0.718118 11.6648 9.66122
201 9 7.2059 6.97984 9.8241
202 10 7.4923 6.51713 8.87204
203 10 6.94839 7.45175 10.769
204 9 1.75642 10.7354 7.75882
205 10 1.06357 9.83808 7.48002
206 10 2.65308 11.3023 8.25785
207 9 6.43173 9.18009 7.42068
208 10 7.31229 8.91859 6.63441
209 10 5.81842 8.90608 8.42111
210 9 9.18846 7.90214 6.98856
211 10 0.8113 7.55615 6.11835
212 10 8.50618 7.98385 7.90791
ITEM: TIMESTEP
74
ITEM: NUMBER OF ATOMS
212
ITEM: BOX BOUNDS xy xz yz pp pp pp
-7.1656074584909746e-02 9.6259749041447566e+00 0.0000000000000000e+00
-1.5584781151894234e-01 1.9542846911518950e+01 6.4051862955983074e-01
-1.3716420875508462e-01 1.7199979308755111e+01 0.0000000000000000e+00
ITEM: ATOMS id type x y z
1 1 8.78635 0.369098 3.63346
2 1 4.96527 9.20456 4.72
3 1 7.07596 5.33664 0.325293
4 1 6.6506 4.21894 8.04975
5 2 7.78853 8.64943 3.09518
6 2 6.23399 0.868599 5.40068
7 2 8.12914 3.6572 0.978937
8 2 5.50147 5.80512 7.26126
9 2 6.51189 8.19551 3.54427
10 2 7.37842 1.34007 4.86482
11 2 0.418866 3.3363 0.625773
12 2 4.28118 6.30389 7.80285
13 2 7.16701 6.70427 1.87909
14 2 6.58822 2.7035 6.71428
15 2 8.77043 1.79947 2.29547
16 2 4.75116 7.54716 5.79455
17 5 1.10414 0.641093 5.22184
18 5 3.6464 8.9743 3.20166
19 5 1.48877 5.56077 7.57368
20 5 3.16869 4.06173 0.996727
21 5 3.14181 0.168306 5.70523
22 5 1.58323 9.41157 2.72545
23 5 8.63031 4.89949 7.05878
24 5 5.17342 4.51052 1.376
25 3 8.11252 7.67593 2.15757
26 3 5.71512 1.73518 6.45444
27 3 7.83746 2.74365 2.01081
28 3 5.78233 6.7059 6.22734
29 3 6.23314 7.05953 2.86999
30 3 7.61867 2.38081 5.72801
31 3 0.719347 2.2613 1.42316
32 3 3.9227 7.21108 6.88274
33 6 2.16411 0.22526 4.85491
34 6 2.53709 9.3223 3.50928
35 6 0.480266 5.0551 7.93647
36 6 4.24809 4.42306 0.585213
37 4 0.125265 7.40532 1.89217
38 4 4.69212 1.81109 6.86495
39 4 6.86864 2.46196 2.35358
40 4 6.79208 6.72631 5.87499
41 4 5.21852 6.70501 2.75852
42 4 8.59847 2.74658 6.05336
43 4 1.67267 1.79761 1.3129
44 4 2.90938 7.63284 6.81021
45 1 4.56127 0.395481 12.3546
46 1 0.83947 9.15956 13.3355
47 1 2.96722 5.21189 9.01194
48 1 2.43225 4.22279 16.6788
49 2 3.58703 8.19374 12.1549
50 2 1.72102 0.941965 13.824
51 2 4.06981 3.76318 9.74317
52 2 1.43029 5.93189 16.1023
53 2 2.12794 8.1776 12.0114
54 2 3.07668 1.12604 13.736
55 2 5.27327 3.36065 9.27682
56 2 9.21766 6.33717 16.5133
57 2 3.02961 6.65159 10.5886
58 2 2.39393 2.80144 15.3187
59 2 4.49728 1.71568 10.8164
60 2 0.734964 7.63004 14.6388
61 5 5.78988 0.482135 13.8378
62 5 8.49011 9.19354 12.0837
63 5 6.29637 5.61187 16.2705
64 5 8.20716 3.82515 9.5061
65 5 7.83259 0.199981 14.3104
66 5 6.37716 9.6696 11.4446
67 5 4.25815 5.03039 15.7682
68 5 1.0503 4.5352 10.0762
69 3 4.06826 7.01069 11.4958
70 3 1.45759 1.88235 14.9081
71 3 3.57641 2.70399 10.6036
72 3 1.81917 6.90708 15.1262
73 3 1.81712 7.06572 11.2206
74 3 3.33267 2.35844 14.4029
75 3 5.5268 2.15801 10.0754
76 3 8.85138 7.30677 15.6197
77 6 6.95782 0.182424 13.5157
78 6 7.27226 9.30296 12.2989
79 6 5.16066 5.17954 16.6426
80 6 9.23493 4.39095 9.24383
81 4 4.88268 7.41227 10.9752
82 4 9.49716 1.91456 15.2862
83 4 2.75523 2.92638 11.3564
84 4 2.57968 6.5173 14.4219
85 4 0.779266 6.93419 10.8525
86 4 4.31803 2.57683 14.6442
87 4 6.48771 1.66397 9.79352
88 4 7.95471 7.79969 15.5687
89 1 8.70654 10.2156 3.69316
90 1 5.04459 18.9978 4.67161
91 1 7.12787 15.1137 0.414799
92 1 6.65564 14.0567 8.0346
93 2 7.77661 18.4953 3.10459
94 2 5.91734 11.2622 4.94507
95 2 8.11642 13.4458 0.914899
96 2 5.50301 15.6572 7.32014
97 2 6.42678 18.1876 3.34346
98 2 7.30999 11.3641 4.84268
99 2 0.390533 13.0646 0.601938
100 2 4.34047 16.2583 7.7913
101 2 7.17103 16.6229 1.73798
102 2 6.72095 12.6779 6.59278
103 2 8.60319 11.6323 2.37284
104 2 5.03363 17.5577 6.04105
105 5 1.1738 10.5295 5.01867
106 5 3.62557 18.9838 3.13508
107 5 1.45466 15.3608 7.55004
108 5 3.24215 13.9474 0.870847
109 5 3.08579 10.0301 5.78755
110 5 1.54775 19.1907 2.6536
111 5 8.4929 14.911 7.06151
112 5 5.22709 14.3543 1.38566
113 3 8.11966 17.564 2.06034
114 3 5.69301 11.7984 6.2689
115 3 7.74547 12.6344 1.996
116 3 5.90294 16.5269 6.28248
117 3 6.24552 16.9678 2.65378
118 3 7.77309 12.2476 5.78775
119 3 0.544201 12.0084 1.47533
120 3 3.9487 17.198 6.87038
121 6 2.29607 10.096 4.85811
122 6 2.42692 19.3699 3.4473
123 6 0.361188 15.074 7.80493
124 6 4.3603 14.3697 0.571596
125 4 0.14025 17.3069 2.00634
126 4 4.77778 12.2838 6.47705
127 4 6.64067 12.6502 2.23183
128 4 6.83049 16.6502 5.85021
129 4 5.22539 16.6012 2.8108
130 4 8.68141 12.9888 5.52188
131 4 1.37629 11.2629 1.3057
132 4 3.27514 18.0468 7.17879
133 1 4.45127 10.1975 12.3054
134 1 0.797987 18.9608 13.4357
135 1 2.86156 15.0499 9.08925
136 1 2.38533 14.0956 16.6348
137 2 3.42127 18.443 11.7593
138 2 1.87442 10.704 14.0134
139 2 3.91177 13.529 9.63613
140 2 1.40791 15.6315 16.0868
141 2 2.04573 18.1293 12.1006
142 2 3.172 11.0972 13.6369
143 2 5.20934 13.1259 9.22631
144 2 9.25302 16.039 16.5
145 2 2.97278 16.5579 10.4305
146 2 2.39872 12.6758 15.2532
147 2 4.75316 11.8817 11.1244
148 2 0.754891 17.6005 14.8461
149 5 6.00553 10.3317 13.8489
150 5 8.50845 18.9261 11.8587
151 5 6.31928 15.4755 16.268
152 5 8.21186 13.9466 9.43836
153 5 8.03031 10.0544 14.2861
154 5 6.41856 19.1086 11.4014
155 5 4.40769 15.0659 15.7532
156 5 1.15271 14.3223 9.99702
157 3 3.9291 17.4309 10.9068
158 3 1.53693 11.6152 15.0174
159 3 3.72809 12.722 10.7365
160 3 1.67036 16.6566 15.055
161 3 1.90889 17.0667 11.2252
162 3 3.41715 12.1679 14.4361
163 3 5.51508 12.0667 10.0122
164 3 8.8906 17.1625 15.7685
165 6 7.05625 9.84165 13.6542
166 6 7.33904 19.1207 12.1607
167 6 5.30849 14.8175 16.5043
168 6 9.21464 14.5119 9.30763
169 4 4.92978 17.5486 10.5302
170 4 0.496146 11.5448 15.4247
171 4 3.10972 13.1994 11.5754
172 4 2.68258 16.8401 14.7915
173 4 1.12594 16.3514 11.377
174 4 4.18805 12.9761 14.2184
175 4 6.41176 11.5825 9.85017
176 4 7.82274 17.5842 15.8995
177 7 7.46435 13.3852 14.4532
178 8 7.08187 13.2284 15.2841
179 8 6.74044 13.5614 13.8402
180 7 6.94577 15.658 12.5669
181 8 6.90815 16.5558 12.797
182 8 7.90257 15.6256 12.3178
183 7 5.28941 4.81415 12.933
184 8 4.37142 4.8045 13.2819
185 8 5.45977 5.71562 12.6331
186 7 7.35812 4.86892 11.7657
187 8 7.08106 5.22087 12.6441
188 8 8.66072 3.548 11.8669
189 7 2.83921 4.94326 4.34009
190 8 2.53874 5.82002 4.62315
191 8 2.48429 4.35986 3.64338
192 7 4.63589 2.77853 4.01699
193 8 4.81678 2.62938 3.07624
194 8 5.24997 3.54301 4.05479
195 9 2.97496 9.75697 9.64868
196 10 3.02594 9.25497 8.61045
197 10 2.43002 10.2989 10.5709
198 9 9.05929 11.7418 10.5603
199 10 8.4758 11.6372 11.5604
200 10 0.715987 11.6602 9.65978
201 9 7.20608 6.98211 9.8196
202 10 7.49458 6.51844 8.86872
203 10 6.94541 7.4534 10.7685
204 9 1.75618 10.7363 7.75677
205 10 1.062 9.83964 7.48212
206 10 2.65396 11.3052 8.25361
207 9 6.43743 9.17949 7.42297
208 10 7.31428 8.91726 6.63876
209 10 5.82097 8.91123 8.42568
210 9 9.19125 7.90091 6.9888
211 10 0.807348 7.55888 6.1162
212 10 8.51266 7.984 7.90826
ITEM: TIMESTEP
75
ITEM: NUMBER OF ATOMS
212
ITEM: BOX BOUNDS xy xz yz pp pp pp
-7.2947276350084245e-02 9.6274487333861583e+00 0.0000000000000000e+00
-1.5865610056488144e-01 1.9545655200564891e+01 6.4070125703605740e-01
-1.3963582989103607e-01 1.7202450929891064e+01 0.0000000000000000e+00
ITEM: ATOMS id type x y z
1 1 8.78843 0.366202 3.63166
2 1 4.96444 9.20539 4.71867
3 1 7.07591 5.33548 0.322337
4 1 6.65179 4.21745 8.05029
5 2 7.7898 8.64942 3.09479
6 2 6.23668 0.863637 5.40045
7 2 8.13 3.65648 0.976482
8 2 5.49859 5.80244 7.25892
9 2 6.51262 8.19564 3.54374
10 2 7.37769 1.3363 4.86479
11 2 0.418237 3.3349 0.624086
12 2 4.27939 6.30445 7.79966
13 2 7.16882 6.70105 1.87785
14 2 6.5883 2.70165 6.71518
15 2 8.77113 1.79654 2.29379
16 2 4.74939 7.54371 5.79135
17 5 1.10401 0.638838 5.22165
18 5 3.64523 8.97459 3.19947
19 5 1.48928 5.55973 7.57439
20 5 3.16888 4.06107 0.995724
21 5 3.13985 0.16568 5.7035
22 5 1.58465 9.41156 2.72499
23 5 8.63338 4.89535 7.05795
24 5 5.17185 4.50984 1.3734
25 3 8.1133 7.67444 2.15608
26 3 5.71936 1.7316 6.45437
27 3 7.84114 2.74008 2.00911
28 3 5.77649 6.70368 6.22382
29 3 6.23515 7.05819 2.87003
30 3 7.62011 2.38062 5.72882
31 3 0.718328 2.25923 1.42176
32 3 3.92273 7.20714 6.87893
33 6 2.16445 0.222203 4.85139
34 6 2.53607 9.32293 3.50963
35 6 0.477777 5.05065 7.93834
36 6 4.24848 4.42223 0.583012
37 4 0.121777 7.40547 1.89594
38 4 4.69651 1.80737 6.86305
39 4 6.87177 2.45367 2.34962
40 4 6.78756 6.71754 5.8609
41 4 5.21865 6.70365 2.76119
42 4 8.60058 2.74614 6.05342
43 4 1.67335 1.79405 1.31019
44 4 2.91022 7.61932 6.81187
45 1 4.56179 0.392611 12.3559
46 1 0.838278 9.15964 13.336
47 1 2.96716 5.20937 9.0116
48 1 2.432 4.22149 16.6815
49 2 3.58579 8.18457 12.1611
50 2 1.72123 0.940472 13.8261
51 2 4.07221 3.76143 9.74401
52 2 1.42819 5.9316 16.1044
53 2 2.12885 8.17574 12.0132
54 2 3.0747 1.12339 13.7387
55 2 5.2722 3.35906 9.27816
56 2 9.2196 6.33662 16.515
57 2 3.03463 6.64731 10.5942
58 2 2.39264 2.79834 15.3188
59 2 4.49744 1.71223 10.8157
60 2 0.732867 7.63048 14.6393
61 5 5.78966 0.477714 13.8393
62 5 8.48892 9.19573 12.0862
63 5 6.29518 5.61201 16.2726
64 5 8.21125 3.81999 9.50572
65 5 7.83138 0.197919 14.3118
66 5 6.37951 9.67544 11.4497
67 5 4.25862 5.02881 15.7708
68 5 1.04897 4.53479 10.0771
69 3 4.06233 7.00338 11.5017
70 3 1.45684 1.88055 14.9091
71 3 3.57833 2.70145 10.6034
72 3 1.81758 6.90712 15.1284
73 3 1.81586 7.06465 11.2209
74 3 3.33111 2.35473 14.4052
75 3 5.52643 2.15583 10.0757
76 3 8.85418 7.30613 15.621
77 6 6.95789 0.178729 13.5146
78 6 7.27276 9.30473 12.3013
79 6 5.15824 5.1773 16.6491
80 6 9.23891 4.38883 9.2436
81 4 4.8907 7.40424 10.9887
82 4 9.49712 1.91701 15.2836
83 4 2.75941 2.92186 11.3558
84 4 2.57852 6.51322 14.4263
85 4 0.779849 6.94131 10.8411
86 4 4.31997 2.57343 14.6521
87 4 6.4816 1.65685 9.79343
88 4 7.95278 7.80032 15.5694
89 1 8.70763 10.2155 3.69206
90 1 5.04476 19.0007 4.66981
91 1 7.12848 15.1145 0.41261
92 1 6.6567 14.0579 8.03483
93 2 7.7766 18.4978 3.10265
94 2 5.91965 11.2658 4.94005
95 2 8.11728 13.4461 0.913561
96 2 5.50098 15.6571 7.32027
97 2 6.42851 18.1897 3.34014
98 2 7.30873 11.3667 4.84097
99 2 0.388309 13.0646 0.600116
100 2 4.3398 16.2597 7.79108
101 2 7.17237 16.6234 1.73632
102 2 6.7226 12.6813 6.5928
103 2 8.60341 11.6304 2.37183
104 2 5.03421 17.5618 6.03805
105 5 1.17411 10.532 5.01512
106 5 3.62413 18.9891 3.13191
107 5 1.45303 15.3625 7.54871
108 5 3.24238 13.9496 0.869303
109 5 3.08456 10.0299 5.78561
110 5 1.548 19.1933 2.65246
111 5 8.49538 14.9121 7.06231
112 5 5.22703 14.3565 1.38391
113 3 8.1206 17.5668 2.05851
114 3 5.69389 11.8035 6.2658
115 3 7.74596 12.6359 1.9935
116 3 5.90153 16.53 6.27911
117 3 6.24746 16.972 2.65227
118 3 7.77438 12.249 5.787
119 3 0.542288 12.0082 1.47366
120 3 3.94861 17.2011 6.8693
121 6 2.29699 10.0958 4.85439
122 6 2.42567 19.3749 3.44739
123 6 0.358729 15.0766 7.80612
124 6 4.3608 14.372 0.56796
125 4 0.138212 17.3081 2.00973
126 4 4.77896 12.2935 6.4761
127 4 6.64164 12.6534 2.22221
128 4 6.83319 16.6544 5.84592
129 4 5.22783 16.6067 2.80779
130 4 8.67718 12.9856 5.51986
131 4 1.37138 11.2643 1.30154
132 4 3.28021 18.0494 7.18235
133 1 4.45088 10.197 12.3066
134 1 0.796156 18.9632 13.4373
135 1 2.86024 15.0501 9.0896
136 1 2.38469 14.0971 16.6368
137 2 3.4207 18.4443 11.7593
138 2 1.87474 10.7033 14.0162
139 2 3.91222 13.5328 9.6364
140 2 1.40546 15.632 16.0901
141 2 2.04571 18.1309 12.0999
142 2 3.17151 11.0965 13.6385
143 2 5.21036 13.1273 9.22508
144 2 9.25468 16.0399 16.5025
145 2 2.97169 16.559 10.4325
146 2 2.3987 12.6785 15.2556
147 2 4.75541 11.8829 11.1282
148 2 0.75405 17.6046 14.8479
149 5 6.00578 10.3313 13.8513
150 5 8.50825 18.9308 11.8592
151 5 6.31988 15.4787 16.2711
152 5 8.21494 13.9486 9.4387
153 5 8.0317 10.0551 14.2868
154 5 6.42042 19.1096 11.403
155 5 4.40796 15.0686 15.7557
156 5 1.15142 14.3252 9.99582
157 3 3.92554 17.4335 10.9104
158 3 1.5366 11.6145 15.0191
159 3 3.73014 12.7247 10.7403
160 3 1.66933 16.6592 15.0558
161 3 1.90934 17.0693 11.2246
162 3 3.41707 12.1687 14.4378
163 3 5.51629 12.0669 10.0116
164 3 8.89063 17.1645 15.7724
165 6 7.05715 9.83905 13.6569
166 6 7.33941 19.1234 12.1632
167 6 5.30936 14.8175 16.5077
168 6 9.21742 14.5168 9.3079
169 4 4.92892 17.5536 10.5382
170 4 9.55319 11.5411 15.4194
171 4 3.11477 13.2065 11.5754
172 4 2.68357 16.8478 14.7926
173 4 1.12554 16.3531 11.3758
174 4 4.18402 12.9745 14.2161
175 4 6.41704 11.5824 9.84922
176 4 7.82651 17.5848 15.9064
177 7 7.46669 13.3853 14.455
178 8 7.08816 13.2324 15.2891
179 8 6.74413 13.573 13.8438
180 7 6.94672 15.6594 12.5683
181 8 6.90502 16.5583 12.7991
182 8 7.9027 15.6277 12.315
183 7 5.28822 4.81235 12.9336
184 8 4.37222 4.8007 13.2912
185 8 5.45177 5.71125 12.6238
186 7 7.36433 4.85446 11.7745
187 8 7.07194 5.20965 12.6429
188 8 8.64508 3.52967 11.8797
189 7 2.83691 4.94442 4.33752
190 8 2.52987 5.81814 4.62536
191 8 2.49009 4.35738 3.63873
192 7 4.63549 2.77715 4.0129
193 8 4.82036 2.6246 3.0723
194 8 5.24799 3.54522 4.05201
195 9 2.96927 9.7604 9.64695
196 10 3.02305 9.26259 8.6052
197 10 2.42792 10.2955 10.5676
198 9 9.06127 11.7417 10.5603
199 10 8.4777 11.6445 11.5619
200 10 0.713842 11.6557 9.65832
201 9 7.20629 6.98434 9.81508
202 10 7.49686 6.51964 8.86529
203 10 6.9424 7.45504 10.7681
204 9 1.75598 10.7371 7.75476
205 10 1.06041 9.84125 7.48423
206 10 2.65479 11.3082 8.2493
207 9 6.4432 9.17876 7.42529
208 10 7.31613 8.91606 6.6431
209 10 5.82354 8.91644 8.4302
210 9 9.19407 7.8996 6.98906
211 10 0.803393 7.56163 6.114
212 10 8.5192 7.98416 7.90865
ITEM: TIMESTEP
76
ITEM: NUMBER OF ATOMS
212
ITEM: BOX BOUNDS xy xz yz pp pp pp
-7.4235361592457139e-02 9.6289190053040183e+00 0.0000000000000000e+00
-1.6145761135425474e-01 1.9548456711354262e+01 6.4088344371154382e-01
-1.4210148537248379e-01 1.7204916585372516e+01 0.0000000000000000e+00
ITEM: ATOMS id type x y z
1 1 8.79051 0.363317 3.62986
2 1 4.96361 9.20622 4.71734
3 1 7.07586 5.33433 0.319395
4 1 6.65299 4.21595 8.05083
5 2 7.79102 8.64934 3.09443
6 2 6.23924 0.858689 5.40027
7 2 8.13091 3.65573 0.974045
8 2 5.49565 5.79982 7.25658
9 2 6.51338 8.19581 3.54319
10 2 7.37702 1.33256 4.86482
11 2 0.417551 3.33352 0.62244
12 2 4.27764 6.30493 7.79643
13 2 7.17061 6.69786 1.87667
14 2 6.58847 2.69981 6.71602
15 2 8.77188 1.79364 2.29206
16 2 4.74767 7.54025 5.78826
17 5 1.10384 0.636584 5.22145
18 5 3.64407 8.97487 3.19728
19 5 1.48984 5.5587 7.57513
20 5 3.16905 4.06042 0.994686
21 5 3.13784 0.163057 5.70168
22 5 1.58607 9.41154 2.72454
23 5 8.63648 4.8912 7.05718
24 5 5.17031 4.50915 1.37081
25 3 8.11412 7.67294 2.15456
26 3 5.72364 1.72799 6.45423
27 3 7.84483 2.73652 2.0074
28 3 5.77063 6.70142 6.22034
29 3 6.23719 7.05683 2.86997
30 3 7.62147 2.38048 5.72973
31 3 0.71727 2.25717 1.42037
32 3 3.92273 7.20328 6.87502
33 6 2.16494 0.219154 4.84804
34 6 2.53499 9.32359 3.50998
35 6 0.475146 5.04617 7.94002
36 6 4.24894 4.4214 0.58092
37 4 0.117866 7.40596 1.89987
38 4 4.70101 1.80338 6.86095
39 4 6.87454 2.44566 2.34553
40 4 6.78307 6.70872 5.84648
41 4 5.2187 6.70226 2.76404
42 4 8.60278 2.74547 6.05299
43 4 1.67419 1.79027 1.30755
44 4 2.91136 7.60567 6.81384
45 1 4.5623 0.38974 12.3572
46 1 0.837082 9.15972 13.3366
47 1 2.96709 5.20686 9.01127
48 1 2.43176 4.2202 16.6842
49 2 3.58445 8.17536 12.1673
50 2 1.72146 0.939043 13.8282
51 2 4.07452 3.75961 9.74487
52 2 1.42608 5.93136 16.1064
53 2 2.12985 8.17381 12.0151
54 2 3.07274 1.12083 13.7414
55 2 5.27117 3.35735 9.27957
56 2 9.22152 6.33605 16.5168
57 2 3.03959 6.64299 10.5998
58 2 2.39136 2.7952 15.3189
59 2 4.49759 1.70878 10.8151
60 2 0.730803 7.63092 14.6399
61 5 5.78948 0.473281 13.8408
62 5 8.48771 9.1979 12.0887
63 5 6.29393 5.61211 16.2748
64 5 8.21531 3.81482 9.5053
65 5 7.83022 0.195866 14.3131
66 5 6.38189 9.68127 11.4548
67 5 4.25912 5.02725 15.7736
68 5 1.04766 4.53438 10.078
69 3 4.05632 6.99627 11.5074
70 3 1.45606 1.87868 14.91
71 3 3.58026 2.699 10.6032
72 3 1.81595 6.90706 15.1305
73 3 1.81469 7.06362 11.2213
74 3 3.32952 2.35097 14.4075
75 3 5.52611 2.1538 10.0759
76 3 8.85706 7.30551 15.6221
77 6 6.95792 0.175032 13.5134
78 6 7.27324 9.30659 12.3037
79 6 5.15581 5.1751 16.6554
80 6 9.24294 4.3867 9.24345
81 4 4.89858 7.39585 11.0021
82 4 9.49707 1.91963 15.2811
83 4 2.76394 2.91716 11.3549
84 4 2.57722 6.50944 14.4307
85 4 0.78077 6.94847 10.8295
86 4 4.32244 2.57013 14.6599
87 4 6.47509 1.64949 9.79365
88 4 7.95015 7.80109 15.5703
89 1 8.70872 10.2154 3.69097
90 1 5.04493 19.0035 4.66803
91 1 7.12909 15.1153 0.410421
92 1 6.65776 14.0591 8.03507
93 2 7.77656 18.5002 3.10065
94 2 5.92199 11.2694 4.93519
95 2 8.11819 13.4465 0.912273
96 2 5.49898 15.657 7.32034
97 2 6.43029 18.1917 3.3368
98 2 7.30749 11.3692 4.83929
99 2 0.386007 13.0647 0.59833
100 2 4.33908 16.2611 7.79086
101 2 7.17374 16.6239 1.7347
102 2 6.72424 12.6847 6.59279
103 2 8.60364 11.6285 2.37075
104 2 5.03474 17.5658 6.03509
105 5 1.17442 10.5344 5.01158
106 5 3.6226 18.9944 3.12877
107 5 1.45147 15.3641 7.54735
108 5 3.2426 13.9518 0.867747
109 5 3.08337 10.0297 5.78362
110 5 1.5482 19.1959 2.65133
111 5 8.49783 14.9131 7.06309
112 5 5.22701 14.3588 1.38217
113 3 8.12156 17.5695 2.05675
114 3 5.69484 11.8087 6.26258
115 3 7.74638 12.6374 1.99098
116 3 5.90005 16.533 6.2758
117 3 6.24934 16.9764 2.65083
118 3 7.77567 12.2504 5.78622
119 3 0.540435 12.008 1.47201
120 3 3.94859 17.2042 6.86822
121 6 2.29789 10.0956 4.85068
122 6 2.42461 19.3799 3.44741
123 6 0.356212 15.0791 7.80745
124 6 4.36122 14.3742 0.564381
125 4 0.135891 17.3093 2.01296
126 4 4.77963 12.3028 6.47513
127 4 6.64315 12.6563 2.21272
128 4 6.83658 16.6582 5.84159
129 4 5.2304 16.6119 2.80436
130 4 8.67205 12.9815 5.51812
131 4 1.36619 11.2661 1.29737
132 4 3.28544 18.0514 7.18592
133 1 4.4505 10.1965 12.3078
134 1 0.794318 18.9657 13.4389
135 1 2.85892 15.0503 9.08993
136 1 2.38407 14.0986 16.6388
137 2 3.42008 18.4456 11.7593
138 2 1.87511 10.7026 14.019
139 2 3.91277 13.5365 9.6367
140 2 1.40305 15.6327 16.0933
141 2 2.04583 18.1324 12.0991
142 2 3.17097 11.0957 13.6401
143 2 5.21134 13.1287 9.22387
144 2 9.25625 16.0408 16.5049
145 2 2.97059 16.5601 10.4345
146 2 2.39868 12.6812 15.2579
147 2 4.7576 11.8842 11.132
148 2 0.753183 17.6087 14.8498
149 5 6.00597 10.3309 13.8537
150 5 8.50804 18.9354 11.8597
151 5 6.32048 15.4818 16.2742
152 5 8.21793 13.9505 9.43908
153 5 8.03313 10.0557 14.2875
154 5 6.42225 19.1107 11.4045
155 5 4.40818 15.0712 15.7582
156 5 1.15014 14.3281 9.99462
157 3 3.92193 17.4362 10.9141
158 3 1.53622 11.6137 15.0208
159 3 3.73215 12.7274 10.7441
160 3 1.66833 16.6616 15.0566
161 3 1.90981 17.0718 11.224
162 3 3.41701 12.1697 14.4396
163 3 5.51749 12.0671 10.0109
164 3 8.89063 17.1666 15.7762
165 6 7.05802 9.83643 13.6596
166 6 7.33976 19.1262 12.1657
167 6 5.31027 14.8176 16.5109
168 6 9.22028 14.5218 9.30808
169 4 4.92807 17.5584 10.546
170 4 9.5535 11.5376 15.414
171 4 3.12005 13.2132 11.5748
172 4 2.6848 16.8554 14.7936
173 4 1.12488 16.355 11.3748
174 4 4.1798 12.9722 14.2136
175 4 6.42283 11.5821 9.84832
176 4 7.83102 17.5854 15.9131
177 7 7.46905 13.3855 14.4567
178 8 7.09408 13.2362 15.2945
179 8 6.74794 13.5847 13.8474
180 7 6.94771 15.6608 12.5697
181 8 6.90166 16.5614 12.8014
182 8 7.90229 15.6297 12.3123
183 7 5.28702 4.81054 12.9342
184 8 4.37328 4.79708 13.3005
185 8 5.44354 5.7069 12.6146
186 7 7.37058 4.83998 11.7833
187 8 7.0631 5.19816 12.6418
188 8 8.62881 3.51218 11.8925
189 7 2.83465 4.94556 4.33497
190 8 2.52067 5.81586 4.62709
191 8 2.49575 4.35558 3.63435
192 7 4.63511 2.77581 4.00879
193 8 4.82366 2.6196 3.06843
194 8 5.24564 3.54725 4.04958
195 9 2.96346 9.76385 9.64528
196 10 3.02025 9.27012 8.6
197 10 2.4259 10.292 10.5643
198 9 9.06325 11.7415 10.5605
199 10 8.4796 11.6519 11.5634
200 10 0.711682 11.6512 9.65683
201 9 7.20649 6.98654 9.81055
202 10 7.49914 6.52073 8.86174
203 10 6.93939 7.45669 10.7679
204 9 1.75583 10.738 7.75278
205 10 1.05878 9.8429 7.48634
206 10 2.65558 11.3113 8.24492
207 9 6.44901 9.17789 7.42765
208 10 7.31783 8.91498 6.64741
209 10 5.82613 8.9217 8.43464
210 9 9.19692 7.89823 6.98932
211 10 0.799438 7.5644 6.11175
212 10 8.5258 7.98435 7.90908
ITEM: TIMESTEP
77
ITEM: NUMBER OF ATOMS
212
ITEM: BOX BOUNDS xy xz yz pp pp pp
-7.5520191553296812e-02 9.6303855615135792e+00 0.0000000000000000e+00
-1.6425204209485500e-01 1.9551251142094863e+01 6.4106516996026586e-01
-1.4456090958717027e-01 1.7207376009587200e+01 0.0000000000000000e+00
ITEM: ATOMS id type x y z
1 1 8.79258 0.360444 3.62807
2 1 4.96278 9.20706 4.716
3 1 7.07582 5.33317 0.316468
4 1 6.65418 4.21446 8.05137
5 2 7.79217 8.64918 3.09408
6 2 6.24167 0.853757 5.40015
7 2 8.13187 3.65494 0.971629
8 2 5.49266 5.79727 7.25425
9 2 6.51416 8.19603 3.54261
10 2 7.37642 1.32885 4.8649
11 2 0.416806 3.33214 0.620835
12 2 4.27595 6.3053 7.79314
13 2 7.17239 6.69471 1.87555
14 2 6.58873 2.69798 6.71678
15 2 8.77268 1.79076 2.29028
16 2 4.746 7.53676 5.78528
17 5 1.10364 0.634329 5.22122
18 5 3.64294 8.97514 3.19509
19 5 1.49045 5.55766 7.57593
20 5 3.16919 4.05977 0.993613
21 5 3.13577 0.160439 5.69979
22 5 1.58751 9.41152 2.72409
23 5 8.6396 4.88707 7.05646
24 5 5.16878 4.50847 1.3682
25 3 8.11498 7.67142 2.15302
26 3 5.72796 1.72433 6.45402
27 3 7.84851 2.73298 2.00567
28 3 5.76477 6.69914 6.21688
29 3 6.23923 7.05546 2.86982
30 3 7.62275 2.38039 5.73075
31 3 0.716175 2.25511 1.41902
32 3 3.92269 7.19951 6.87102
33 6 2.16557 0.216117 4.84486
34 6 2.53386 9.32427 3.51031
35 6 0.472384 5.04167 7.9415
36 6 4.24946 4.42056 0.578939
37 4 0.113569 7.40675 1.90393
38 4 4.70561 1.79912 6.85867
39 4 6.87695 2.43794 2.34132
40 4 6.77856 6.69986 5.83175
41 4 5.21869 6.70084 2.76704
42 4 8.60508 2.74459 6.05208
43 4 1.67515 1.7863 1.30498
44 4 2.91274 7.59194 6.81609
45 1 4.5628 0.386871 12.3586
46 1 0.835881 9.1598 13.3371
47 1 2.96703 5.20437 9.01094
48 1 2.43153 4.21891 16.6868
49 2 3.58299 8.1661 12.1734
50 2 1.7217 0.937677 13.8305
51 2 4.07675 3.75774 9.74577
52 2 1.42395 5.93117 16.1084
53 2 2.13094 8.1718 12.017
54 2 3.07081 1.11836 13.7441
55 2 5.27017 3.35552 9.28104
56 2 9.2234 6.33546 16.5185
57 2 3.04449 6.63862 10.6054
58 2 2.39008 2.79204 15.3189
59 2 4.49774 1.70532 10.8145
60 2 0.728776 7.63137 14.6405
61 5 5.78933 0.468838 13.8423
62 5 8.48647 9.20005 12.0911
63 5 6.29262 5.61219 16.277
64 5 8.21935 3.80965 9.50485
65 5 7.82913 0.19382 14.3145
66 5 6.38431 9.68709 11.46
67 5 4.25965 5.02569 15.7763
68 5 1.04637 4.53398 10.0789
69 3 4.05024 6.98936 11.5131
70 3 1.45523 1.87674 14.9109
71 3 3.58222 2.69666 10.6029
72 3 1.81429 6.90691 15.1327
73 3 1.81362 7.06263 11.2217
74 3 3.32791 2.34716 14.4098
75 3 5.52583 2.15192 10.076
76 3 8.86002 7.30492 15.6233
77 6 6.9579 0.171335 13.5123
78 6 7.27369 9.30853 12.306
79 6 5.15336 5.17293 16.6616
80 6 9.24703 4.38457 9.24339
81 4 4.9062 7.38706 11.0155
82 4 9.49703 1.92239 15.2785
83 4 2.76878 2.91227 11.3535
84 4 2.5758 6.50599 14.4352
85 4 0.782045 6.95567 10.8178
86 4 4.32539 2.5669 14.6677
87 4 6.46822 1.6419 9.79416
88 4 7.94689 7.80197 15.5715
89 1 8.7098 10.2153 3.68988
90 1 5.0451 19.0064 4.66624
91 1 7.1297 15.1162 0.408235
92 1 6.65881 14.0602 8.0353
93 2 7.77649 18.5025 3.09858
94 2 5.92434 11.2729 4.9305
95 2 8.11916 13.4468 0.911035
96 2 5.49701 15.6569 7.32035
97 2 6.43211 18.1936 3.33346
98 2 7.30626 11.3717 4.83763
99 2 0.383628 13.0648 0.59658
100 2 4.33833 16.2623 7.79063
101 2 7.17512 16.6244 1.7331
102 2 6.72588 12.688 6.59276
103 2 8.60388 11.6267 2.3696
104 2 5.03522 17.5698 6.03217
105 5 1.17473 10.5369 5.00804
106 5 3.62099 18.9997 3.12567
107 5 1.44998 15.3657 7.54594
108 5 3.24284 13.954 0.866177
109 5 3.08223 10.0295 5.78158
110 5 1.54835 19.1985 2.65022
111 5 8.50025 14.9142 7.06383
112 5 5.22704 14.3611 1.38044
113 3 8.12253 17.5723 2.05505
114 3 5.69585 11.814 6.25924
115 3 7.74675 12.6389 1.98844
116 3 5.89849 16.5361 6.27254
117 3 6.25115 16.9808 2.64944
118 3 7.77695 12.2519 5.78543
119 3 0.538639 12.0076 1.47038
120 3 3.94865 17.2075 6.86713
121 6 2.29875 10.0953 4.84698
122 6 2.42373 19.3848 3.44735
123 6 0.353642 15.0816 7.80891
124 6 4.36156 14.3764 0.560862
125 4 0.133293 17.3105 2.01602
126 4 4.7798 12.312 6.47412
127 4 6.64517 12.6589 2.20336
128 4 6.84061 16.6617 5.83726
129 4 5.23309 16.6167 2.8005
130 4 8.66608 12.9767 5.51665
131 4 1.36074 11.2684 1.29318
132 4 3.29082 18.053 7.1895
133 1 4.45013 10.196 12.309
134 1 0.792471 18.9681 13.4405
135 1 2.85761 15.0505 9.09026
136 1 2.38345 14.1001 16.6407
137 2 3.41941 18.4468 11.7593
138 2 1.87553 10.7019 14.0218
139 2 3.91341 13.5402 9.63704
140 2 1.40069 15.6334 16.0963
141 2 2.0461 18.1338 12.0982
142 2 3.17037 11.095 13.6417
143 2 5.21227 13.1302 9.2227
144 2 9.25775 16.0417 16.5073
145 2 2.96946 16.5613 10.4367
146 2 2.39866 12.6838 15.2602
147 2 4.75975 11.8854 11.1358
148 2 0.75229 17.6128 14.8517
149 5 6.0061 10.3306 13.8561
150 5 8.50783 18.94 11.8603
151 5 6.32108 15.4849 16.2774
152 5 8.22085 13.9524 9.4395
153 5 8.03462 10.0563 14.2883
154 5 6.42405 19.1117 11.4061
155 5 4.40834 15.0738 15.7607
156 5 1.14886 14.331 9.99344
157 3 3.91829 17.4389 10.9177
158 3 1.5358 11.6129 15.0224
159 3 3.73412 12.7301 10.7479
160 3 1.66735 16.6639 15.0576
161 3 1.91027 17.0743 11.2234
162 3 3.41697 12.1708 14.4414
163 3 5.51868 12.0674 10.0103
164 3 8.89059 17.1686 15.7801
165 6 7.05888 9.83378 13.6623
166 6 7.3401 19.1289 12.1683
167 6 5.31123 14.8178 16.5141
168 6 9.2232 14.5268 9.30816
169 4 4.92721 17.5629 10.5535
170 4 9.5542 11.5344 15.4086
171 4 3.12555 13.2195 11.5738
172 4 2.68624 16.8631 14.7945
173 4 1.12398 16.357 11.3738
174 4 4.17544 12.9694 14.211
175 4 6.4291 11.5816 9.84748
176 4 7.83623 17.5858 15.9196
177 7 7.47143 13.3856 14.4584
178 8 7.09966 13.2399 15.3003
179 8 6.75187 13.5963 13.8513
180 7 6.94874 15.6621 12.571
181 8 6.89807 16.5652 12.8039
182 8 7.90137 15.6314 12.3097
183 7 5.28578 4.80873 12.9348
184 8 4.37461 4.79366 13.3098
185 8 5.43507 5.70259 12.6054
186 7 7.37686 4.82548 11.7921
187 8 7.05453 5.18641 12.6409
188 8 8.61189 3.49554 11.9053
189 7 2.83242 4.9467 4.33244
190 8 2.51115 5.81316 4.62831
191 8 2.50126 4.35446 3.63024
192 7 4.63477 2.7745 4.00464
193 8 4.82667 2.61442 3.06465
194 8 5.24292 3.54908 4.04748
195 9 2.95753 9.7673 9.64366
196 10 3.01754 9.27754 8.59487
197 10 2.42394 10.2885 10.561
198 9 9.06522 11.7412 10.5607
199 10 8.4815 11.6593 11.5648
200 10 0.709506 11.6467 9.65533
201 9 7.20671 6.98872 9.80602
202 10 7.50142 6.52171 8.85808
203 10 6.93636 7.45833 10.7678
204 9 1.75572 10.7389 7.75083
205 10 1.05713 9.8446 7.48845
206 10 2.65632 11.3145 8.24047
207 9 6.45487 9.1769 7.43005
208 10 7.3194 8.91402 6.6517
209 10 5.82874 8.92701 8.43901
210 9 9.19982 7.89678 6.98959
211 10 0.795486 7.56718 6.10945
212 10 8.53245 7.98456 7.90956
ITEM: TIMESTEP
78
ITEM: NUMBER OF ATOMS
212
ITEM: BOX BOUNDS xy xz yz pp pp pp
-7.6801660828218488e-02 9.6318482817020712e+00 0.0000000000000000e+00
-1.6703916353825399e-01 1.9554038263538263e+01 6.4124642087383565e-01
-1.4701390076979948e-01 1.7209829000769830e+01 0.0000000000000000e+00
ITEM: ATOMS id type x y z
1 1 8.79465 0.357584 3.62628
2 1 4.96196 9.2079 4.71466
3 1 7.07578 5.33202 0.313554
4 1 6.65538 4.21298 8.05192
5 2 7.79326 8.64894 3.09375
6 2 6.24397 0.848841 5.40009
7 2 8.13289 3.65411 0.969235
8 2 5.48961 5.79477 7.25192
9 2 6.51496 8.19628 3.54201
10 2 7.37588 1.32517 4.86504
11 2 0.416003 3.33076 0.619272
12 2 4.27432 6.30558 7.78982
13 2 7.17415 6.69159 1.87451
14 2 6.58908 2.69616 6.71747
15 2 8.77353 1.78791 2.28844
16 2 4.74438 7.53325 5.7824
17 5 1.10342 0.632074 5.22096
18 5 3.64183 8.97541 3.1929
19 5 1.4911 5.5566 7.57677
20 5 3.16932 4.05914 0.992505
21 5 3.13365 0.157824 5.69781
22 5 1.58894 9.41148 2.72366
23 5 8.64274 4.88293 7.05579
24 5 5.16727 4.5078 1.3656
25 3 8.11586 7.6699 2.15147
26 3 5.7323 1.72064 6.45372
27 3 7.85219 2.72945 2.00392
28 3 5.75892 6.69681 6.21345
29 3 6.24129 7.05407 2.86957
30 3 7.62394 2.38035 5.73188
31 3 0.715045 2.25305 1.41769
32 3 3.92262 7.19583 6.86694
33 6 2.16634 0.213095 4.84185
34 6 2.53268 9.32498 3.51064
35 6 0.469503 5.03715 7.94278
36 6 4.25005 4.41971 0.57707
37 4 0.10893 7.40783 1.9081
38 4 4.71031 1.7946 6.85621
39 4 6.87902 2.43051 2.33697
40 4 6.77396 6.69096 5.81675
41 4 5.21864 6.69938 2.77021
42 4 8.60746 2.74349 6.05069
43 4 1.6762 1.78214 1.3025
44 4 2.91431 7.57817 6.8186
45 1 4.5633 0.384002 12.3599
46 1 0.834676 9.15987 13.3377
47 1 2.96697 5.20189 9.01062
48 1 2.43129 4.21764 16.6895
49 2 3.58141 8.15679 12.1794
50 2 1.72196 0.936373 13.8329
51 2 4.07888 3.75581 9.74671
52 2 1.42182 5.93103 16.1103
53 2 2.13211 8.16971 12.0189
54 2 3.06891 1.11599 13.7468
55 2 5.26921 3.35358 9.28257
56 2 9.22526 6.33486 16.5202
57 2 3.04931 6.63422 10.6111
58 2 2.38881 2.78885 15.3188
59 2 4.49788 1.70187 10.8139
60 2 0.726787 7.63181 14.6412
61 5 5.78923 0.464384 13.8438
62 5 8.48521 9.20217 12.0934
63 5 6.29125 5.61224 16.2792
64 5 8.22337 3.80446 9.50436
65 5 7.8281 0.191782 14.3159
66 5 6.38678 9.69291 11.4652
67 5 4.2602 5.02414 15.7791
68 5 1.04512 4.53358 10.0798
69 3 4.04409 6.98265 11.5187
70 3 1.45436 1.87472 14.9117
71 3 3.5842 2.69441 10.6026
72 3 1.81259 6.90666 15.1348
73 3 1.81265 7.06169 11.2221
74 3 3.32629 2.34332 14.4121
75 3 5.52559 2.15018 10.076
76 3 8.86305 7.30434 15.6243
77 6 6.95783 0.16764 13.5111
78 6 7.27412 9.31056 12.3084
79 6 5.15092 5.17081 16.6675
80 6 9.25116 4.38242 9.24343
81 4 4.91345 7.37784 11.0289
82 4 9.49701 1.92532 15.2759
83 4 2.77391 2.90722 11.3519
84 4 2.57424 6.50285 14.4398
85 4 0.783685 6.96291 10.806
86 4 4.32876 2.56375 14.6755
87 4 6.46101 1.63406 9.79494
88 4 7.94305 7.80293 15.5729
89 1 8.71089 10.2152 3.68879
90 1 5.04527 19.0092 4.66446
91 1 7.13031 15.117 0.406051
92 1 6.65986 14.0614 8.03553
93 2 7.77639 18.5047 3.09644
94 2 5.92671 11.2764 4.92598
95 2 8.12018 13.4472 0.909843
96 2 5.49508 15.657 7.32029
97 2 6.43398 18.1955 3.33011
98 2 7.30506 11.3742 4.83599
99 2 0.381172 13.0649 0.594868
100 2 4.33754 16.2635 7.7904
101 2 7.17653 16.6248 1.73153
102 2 6.72752 12.6913 6.59271
103 2 8.60412 11.625 2.36837
104 2 5.03564 17.5738 6.02929
105 5 1.17504 10.5393 5.00452
106 5 3.61928 19.0051 3.12261
107 5 1.44856 15.3674 7.54449
108 5 3.24308 13.9562 0.864593
109 5 3.08112 10.0293 5.77948
110 5 1.54846 19.2011 2.64913
111 5 8.50264 14.9152 7.06454
112 5 5.22711 14.3634 1.37872
113 3 8.12351 17.5752 2.05341
114 3 5.69691 11.8194 6.25577
115 3 7.74707 12.6404 1.98589
116 3 5.89687 16.5392 6.26934
117 3 6.2529 16.9854 2.6481
118 3 7.77823 12.2535 5.78462
119 3 0.536897 12.0073 1.46877
120 3 3.94878 17.2107 6.86604
121 6 2.29958 10.0951 4.84331
122 6 2.42303 19.3896 3.44721
123 6 0.351024 15.084 7.81051
124 6 4.36182 14.3785 0.557409
125 4 0.13043 17.3117 2.01891
126 4 4.77951 12.3208 6.47307
127 4 6.64767 12.6612 2.19416
128 4 6.84522 16.6649 5.83294
129 4 5.23589 16.6211 2.79624
130 4 8.65935 12.9712 5.51542
131 4 1.35508 11.271 1.28898
132 4 3.29632 18.0542 7.19309
133 1 4.44978 10.1955 12.3102
134 1 0.790617 18.9706 13.4421
135 1 2.8563 15.0507 9.09058
136 1 2.38285 14.1016 16.6427
137 2 3.41869 18.448 11.7594
138 2 1.87599 10.7013 14.0246
139 2 3.91415 13.5439 9.63742
140 2 1.39837 15.6342 16.0992
141 2 2.0465 18.1353 12.0973
142 2 3.16971 11.0942 13.6433
143 2 5.21316 13.1316 9.22155
144 2 9.25916 16.0426 16.5097
145 2 2.96832 16.5625 10.4388
146 2 2.39865 12.6864 15.2625
147 2 4.76184 11.8866 11.1394
148 2 0.751368 17.6169 14.8535
149 5 6.00618 10.3304 13.8586
150 5 8.50761 18.9446 11.8608
151 5 6.32167 15.4879 16.2806
152 5 8.2237 13.9542 9.43995
153 5 8.03615 10.057 14.289
154 5 6.42581 19.1128 11.4076
155 5 4.40844 15.0763 15.7633
156 5 1.14758 14.3339 9.99226
157 3 3.9146 17.4417 10.9213
158 3 1.53534 11.6121 15.024
159 3 3.73605 12.7329 10.7518
160 3 1.6664 16.6661 15.0587
161 3 1.91073 17.0767 11.2228
162 3 3.41693 12.172 14.4433
163 3 5.51986 12.0676 10.0097
164 3 8.89052 17.1706 15.784
165 6 7.05972 9.83111 13.6649
166 6 7.34042 19.1317 12.1709
167 6 5.31224 14.818 16.5172
168 6 9.22619 14.5319 9.30816
169 4 4.92634 17.5671 10.5608
170 4 9.55527 11.5315 15.4032
171 4 3.13125 13.2254 11.5724
172 4 2.68785 16.8708 14.7952
173 4 1.12283 16.3591 11.373
174 4 4.17097 12.9659 14.2083
175 4 6.43579 11.5808 9.84671
176 4 7.84208 17.5862 15.926
177 7 7.47382 13.3858 14.46
178 8 7.1049 13.2435 15.3066
179 8 6.7559 13.608 13.8552
180 7 6.94982 15.6635 12.5724
181 8 6.89427 16.5696 12.8066
182 8 7.89993 15.6329 12.3072
183 7 5.28453 4.80691 12.9354
184 8 4.37625 4.79042 13.3191
185 8 5.42638 5.69831 12.5964
186 7 7.38318 4.81098 11.8009
187 8 7.04624 5.17438 12.6401
188 8 8.59431 3.4798 11.918
189 7 2.83023 4.94782 4.32994
190 8 2.50131 5.81005 4.62903
191 8 2.5066 4.354 3.62642
192 7 4.63445 2.77322 4.00045
193 8 4.82939 2.60905 3.06099
194 8 5.23981 3.55069 4.04572
195 9 2.9515 9.77074 9.64209
196 10 3.01492 9.28486 8.58979
197 10 2.42205 10.285 10.5576
198 9 9.06719 11.741 10.5609
199 10 8.48339 11.6668 11.5662
200 10 0.707314 11.6422 9.6538
201 9 7.20691 6.99089 9.80152
202 10 7.50369 6.52259 8.85431
203 10 6.93334 7.45995 10.7678
204 9 1.75566 10.7397 7.74892
205 10 1.05544 9.84635 7.49056
206 10 2.65702 11.3178 8.23595
207 9 6.46075 9.17577 7.43252
208 10 7.32084 8.91319 6.65595
209 10 5.83137 8.93238 8.44331
210 9 9.20275 7.89528 6.98987
211 10 0.791541 7.56997 6.1071
212 10 8.53915 7.98478 7.91009
ITEM: TIMESTEP
79
ITEM: NUMBER OF ATOMS
212
ITEM: BOX BOUNDS xy xz yz pp pp pp
-7.8079696229324647e-02 9.6333070823299050e+00 0.0000000000000000e+00
-1.6981881650501052e-01 1.9556817916505018e+01 6.4142718610056282e-01
-1.4946031882394450e-01 1.7212275418823975e+01 0.0000000000000000e+00
ITEM: ATOMS id type x y z
1 1 8.79671 0.354735 3.6245
2 1 4.96113 9.20874 4.71332
3 1 7.07575 5.33087 0.310654
4 1 6.65657 4.2115 8.05246
5 2 7.79429 8.64863 3.09344
6 2 6.24615 0.843943 5.4001
7 2 8.13396 3.65325 0.966865
8 2 5.4865 5.79234 7.24958
9 2 6.51579 8.19658 3.54139
10 2 7.37541 1.32152 4.86524
11 2 0.41514 3.3294 0.61775
12 2 4.27275 6.30575 7.78645
13 2 7.1759 6.68851 1.87353
14 2 6.58953 2.69435 6.71809
15 2 8.77444 1.78508 2.28656
16 2 4.74279 7.52973 5.77962
17 5 1.10316 0.629817 5.22068
18 5 3.64073 8.97568 3.19072
19 5 1.49178 5.55554 7.57765
20 5 3.16942 4.05851 0.991363
21 5 3.13149 0.155213 5.69576
22 5 1.59038 9.41144 2.72323
23 5 8.6459 4.8788 7.05518
24 5 5.16579 4.50712 1.363
25 3 8.11677 7.66837 2.1499
26 3 5.73668 1.7169 6.45335
27 3 7.85585 2.72594 2.00217
28 3 5.75309 6.69444 6.21005
29 3 6.24336 7.05266 2.86923
30 3 7.62505 2.38034 5.73311
31 3 0.713881 2.25099 1.41639
32 3 3.92252 7.19224 6.86278
33 6 2.16722 0.21009 4.83901
34 6 2.53145 9.32571 3.51096
35 6 0.466514 5.03264 7.94385
36 6 4.2507 4.41885 0.575313
37 4 0.103998 7.40918 1.91238
38 4 4.7151 1.78981 6.85358
39 4 6.88077 2.42338 2.33249
40 4 6.76923 6.68201 5.8015
41 4 5.21857 6.6979 2.77353
42 4 8.60993 2.74217 6.04883
43 4 1.67731 1.77781 1.3001
44 4 2.91602 7.5644 6.82134
45 1 4.56379 0.381134 12.3612
46 1 0.833467 9.15995 13.3382
47 1 2.96691 5.19942 9.01031
48 1 2.43105 4.21637 16.6922
49 2 3.57972 8.14746 12.1854
50 2 1.72223 0.935129 13.8354
51 2 4.08091 3.75383 9.74768
52 2 1.41969 5.93093 16.1122
53 2 2.13335 8.16754 12.0209
54 2 3.06704 1.11371 13.7495
55 2 5.2683 3.35152 9.28416
56 2 9.22709 6.33425 16.5218
57 2 3.05404 6.62977 10.6168
58 2 2.38755 2.78564 15.3187
59 2 4.49802 1.6984 10.8134
60 2 0.724838 7.63226 14.642
61 5 5.78917 0.459919 13.8453
62 5 8.48394 9.20428 12.0957
63 5 6.2898 5.61225 16.2814
64 5 8.22737 3.79928 9.50383
65 5 7.82712 0.189751 14.3173
66 5 6.38927 9.69872 11.4705
67 5 4.26078 5.0226 15.782
68 5 1.04389 4.53319 10.0807
69 3 4.03791 6.97614 11.5241
70 3 1.45346 1.87263 14.9124
71 3 3.58621 2.69225 10.6023
72 3 1.81087 6.90632 15.137
73 3 1.81179 7.06078 11.2226
74 3 3.32467 2.33944 14.4144
75 3 5.52538 2.14858 10.0758
76 3 8.86615 7.3038 15.6253
77 6 6.95771 0.163951 13.51
78 6 7.27452 9.31266 12.3107
79 6 5.14848 5.16874 16.6732
80 6 9.25534 4.38026 9.24356
81 4 4.92023 7.36816 11.0424
82 4 9.49701 1.92838 15.2734
83 4 2.77929 2.90202 11.3498
84 4 2.57254 6.50005 14.4445
85 4 0.785705 6.97019 10.7942
86 4 4.33247 2.56064 14.6833
87 4 6.45352 1.62598 9.79596
88 4 7.9387 7.80392 15.5745
89 1 8.71198 10.2152 3.6877
90 1 5.04543 19.012 4.66268
91 1 7.13092 15.1178 0.403869
92 1 6.66091 14.0626 8.03576
93 2 7.77627 18.5069 3.09424
94 2 5.92909 11.2797 4.92163
95 2 8.12125 13.4475 0.908699
96 2 5.49319 15.6571 7.32017
97 2 6.43589 18.1974 3.32675
98 2 7.30389 11.3767 4.83437
99 2 0.37864 13.065 0.593192
100 2 4.33672 16.2646 7.79016
101 2 7.17796 16.6252 1.73
102 2 6.72917 12.6947 6.59263
103 2 8.60436 11.6232 2.36706
104 2 5.03601 17.5778 6.02645
105 5 1.17536 10.5418 5.001
106 5 3.6175 19.0105 3.11958
107 5 1.4472 15.3691 7.54301
108 5 3.24333 13.9584 0.862994
109 5 3.08006 10.029 5.77733
110 5 1.54852 19.2038 2.64805
111 5 8.505 14.9162 7.06522
112 5 5.22723 14.3658 1.37701
113 3 8.1245 17.5781 2.05184
114 3 5.69803 11.8249 6.25219
115 3 7.74734 12.642 1.98333
116 3 5.89519 16.5422 6.2662
117 3 6.25458 16.99 2.64681
118 3 7.77948 12.2551 5.78378
119 3 0.535204 12.0068 1.46718
120 3 3.949 17.2141 6.86495
121 6 2.30037 10.0948 4.83966
122 6 2.42253 19.3943 3.44698
123 6 0.348366 15.0864 7.81224
124 6 4.36201 14.3806 0.554026
125 4 0.127314 17.3128 2.02162
126 4 4.77878 12.3294 6.47196
127 4 6.6506 12.6632 2.18514
128 4 6.85034 16.6677 5.82867
129 4 5.23878 16.6252 2.79158
130 4 8.65197 12.9651 5.51443
131 4 1.34924 11.274 1.28475
132 4 3.30193 18.0549 7.19668
133 1 4.44945 10.195 12.3114
134 1 0.788755 18.973 13.4437
135 1 2.85499 15.051 9.0909
136 1 2.38225 14.1031 16.6446
137 2 3.41792 18.4492 11.7595
138 2 1.8765 10.7007 14.0274
139 2 3.915 13.5476 9.63783
140 2 1.3961 15.6351 16.102
141 2 2.04704 18.1367 12.0964
142 2 3.169 11.0934 13.6449
143 2 5.214 13.1331 9.22043
144 2 9.26048 16.0436 16.5121
145 2 2.96716 16.5638 10.4411
146 2 2.39865 12.6888 15.2647
147 2 4.76388 11.8878 11.143
148 2 0.750416 17.621 14.8554
149 5 6.00621 10.3301 13.8611
150 5 8.50739 18.9492 11.8613
151 5 6.32226 15.4909 16.2838
152 5 8.22648 13.956 9.44045
153 5 8.03773 10.0576 14.2899
154 5 6.42754 19.1138 11.4091
155 5 4.40848 15.0789 15.7658
156 5 1.14631 14.3368 9.99109
157 3 3.91089 17.4446 10.9249
158 3 1.53485 11.6113 15.0256
159 3 3.73795 12.7358 10.7558
160 3 1.66547 16.6682 15.0598
161 3 1.91119 17.0791 11.2221
162 3 3.4169 12.1733 14.4452
163 3 5.52103 12.0679 10.0091
164 3 8.89043 17.1726 15.7878
165 6 7.06054 9.82842 13.6676
166 6 7.34074 19.1346 12.1735
167 6 5.31329 14.8184 16.5202
168 6 9.22923 14.537 9.30806
169 4 4.92542 17.571 10.5678
170 4 9.55671 11.5289 15.3978
171 4 3.13711 13.2309 11.5706
172 4 2.68959 16.8784 14.7959
173 4 1.12146 16.3613 11.3723
174 4 4.16642 12.962 14.2053
175 4 6.44285 11.5799 9.84601
176 4 7.84852 17.5866 15.9322
177 7 7.47622 13.3859 14.4616
178 8 7.10982 13.2471 15.3132
179 8 6.76003 13.6196 13.8594
180 7 6.95093 15.6648 12.5737
181 8 6.89028 16.5744 12.8095
182 8 7.89801 15.6342 12.3048
183 7 5.28324 4.80509 12.9359
184 8 4.37819 4.78738 13.3283
185 8 5.41746 5.69404 12.5874
186 7 7.38954 4.79645 11.8096
187 8 7.03824 5.16207 12.6396
188 8 8.57604 3.46497 11.9308
189 7 2.82807 4.94893 4.32745
190 8 2.49116 5.80653 4.62925
191 8 2.51178 4.35422 3.62286
192 7 4.63416 2.77198 3.99624
193 8 4.83184 2.60351 3.05747
194 8 5.23631 3.55208 4.04426
195 9 2.94537 9.77416 9.64054
196 10 3.01239 9.29208 8.58478
197 10 2.42023 10.2814 10.5542
198 9 9.06916 11.7407 10.5613
199 10 8.48528 11.6742 11.5676
200 10 0.705104 11.6377 9.65226
201 9 7.20712 6.99304 9.79706
202 10 7.50596 6.52336 8.85044
203 10 6.93032 7.46155 10.7678
204 9 1.75565 10.7406 7.74704
205 10 1.05373 9.84813 7.49267
206 10 2.65767 11.3212 8.23136
207 9 6.46666 9.17452 7.43504
208 10 7.32216 8.91247 6.66017
209 10 5.83403 8.9378 8.44753
210 9 9.20571 7.89371 6.99016
211 10 0.787606 7.57277 6.10469
212 10 8.5459 7.98503 7.91067
ITEM: TIMESTEP
80
ITEM: NUMBER OF ATOMS
212
ITEM: BOX BOUNDS xy xz yz pp pp pp
-7.9354255531097095e-02 9.6347619151991868e+00 0.0000000000000000e+00
-1.7259090915707276e-01 1.9559590009157084e+01 6.4160745966807331e-01
-1.5190008292143276e-01 1.7214715182921463e+01 0.0000000000000000e+00
ITEM: ATOMS id type x y z
1 1 8.79876 0.351899 3.62272
2 1 4.9603 9.20959 4.71197
3 1 7.07571 5.32973 0.307769
4 1 6.65777 4.21002 8.05301
5 2 7.79526 8.64825 3.09314
6 2 6.24819 0.839063 5.40016
7 2 8.13509 3.65234 0.964519
8 2 5.48333 5.78998 7.24724
9 2 6.51665 8.19692 3.54074
10 2 7.37502 1.31791 4.86551
11 2 0.414217 3.32804 0.616269
12 2 4.27124 6.30581 7.78304
13 2 7.17763 6.68546 1.87262
14 2 6.59007 2.69256 6.71864
15 2 8.77541 1.78227 2.28462
16 2 4.74125 7.52619 5.77694
17 5 1.10288 0.627558 5.22036
18 5 3.63965 8.97594 3.18855
19 5 1.4925 5.55447 7.57859
20 5 3.1695 4.05789 0.990185
21 5 3.12928 0.152604 5.69362
22 5 1.59182 9.41139 2.72281
23 5 8.64909 4.87467 7.05462
24 5 5.16434 4.50646 1.36039
25 3 8.1177 7.66683 2.14833
26 3 5.74109 1.71311 6.4529
27 3 7.85949 2.72246 2.00039
28 3 5.74729 6.69203 6.20667
29 3 6.24544 7.05124 2.8688
30 3 7.62607 2.38036 5.73443
31 3 0.712688 2.24892 1.41511
32 3 3.92239 7.18873 6.85854
33 6 2.16823 0.207107 4.83636
34 6 2.53018 9.32646 3.51126
35 6 0.46343 5.02812 7.94471
36 6 4.2514 4.41798 0.573669
37 4 0.098824 7.41077 1.91673
38 4 4.71995 1.78475 6.85078
39 4 6.88222 2.41656 2.32787
40 4 6.76431 6.67304 5.78604
41 4 5.21849 6.69638 2.777
42 4 8.61248 2.74064 6.04651
43 4 1.67846 1.77333 1.29778
44 4 2.91779 7.55067 6.82428
45 1 4.56427 0.378268 12.3625
46 1 0.832255 9.16002 13.3388
47 1 2.96685 5.19697 9.01001
48 1 2.43082 4.21511 16.6949
49 2 3.57792 8.13809 12.1914
50 2 1.72251 0.933944 13.838
51 2 4.08284 3.7518 9.74869
52 2 1.41755 5.93088 16.114
53 2 2.13466 8.16529 12.0229
54 2 3.0652 1.11152 13.7521
55 2 5.26744 3.34933 9.28579
56 2 9.22888 6.33362 16.5234
57 2 3.05867 6.62529 10.6226
58 2 2.38629 2.78241 15.3185
59 2 4.49815 1.69494 10.8129
60 2 0.722932 7.6327 14.6428
61 5 5.78915 0.455442 13.8467
62 5 8.48264 9.20637 12.0979
63 5 6.28829 5.61224 16.2838
64 5 8.23135 3.79409 9.50328
65 5 7.82621 0.187727 14.3188
66 5 6.39181 9.70452 11.4758
67 5 4.26138 5.02107 15.7849
68 5 1.0427 4.53279 10.0816
69 3 4.03171 6.96984 11.5295
70 3 1.45251 1.87047 14.9131
71 3 3.58825 2.69019 10.602
72 3 1.80911 6.90588 15.1392
73 3 1.81103 7.05992 11.223
74 3 3.32305 2.33553 14.4167
75 3 5.52521 2.14713 10.0756
76 3 8.8693 7.30328 15.6263
77 6 6.95754 0.16027 13.5088
78 6 7.2749 9.31484 12.313
79 6 5.14605 5.16673 16.6787
80 6 9.25955 4.37809 9.24378
81 4 4.92642 7.35799 11.056
82 4 9.49704 1.93159 15.2708
83 4 2.78488 2.89668 11.3475
84 4 2.57072 6.49757 14.4492
85 4 0.788116 6.9775 10.7823
86 4 4.33645 2.55756 14.691
87 4 6.44576 1.61767 9.7972
88 4 7.93394 7.80493 15.5764
89 1 8.71306 10.2151 3.68662
90 1 5.0456 19.0148 4.66091
91 1 7.13154 15.1187 0.40169
92 1 6.66195 14.0637 8.03599
93 2 7.77613 18.509 3.09197
94 2 5.93146 11.283 4.91746
95 2 8.12238 13.4477 0.907599
96 2 5.49134 15.6573 7.31998
97 2 6.43784 18.1992 3.3234
98 2 7.30276 11.3791 4.83278
99 2 0.376035 13.0651 0.591554
100 2 4.33585 16.2656 7.78991
101 2 7.17942 16.6256 1.72849
102 2 6.73081 12.698 6.59252
103 2 8.60461 11.6215 2.36568
104 2 5.03632 17.5817 6.02365
105 5 1.17569 10.5443 4.99749
106 5 3.61562 19.016 3.1166
107 5 1.44591 15.3708 7.54149
108 5 3.24359 13.9606 0.861379
109 5 3.07904 10.0288 5.77512
110 5 1.54853 19.2064 2.64699
111 5 8.50733 14.9173 7.06586
112 5 5.22739 14.3681 1.37531
113 3 8.1255 17.581 2.05033
114 3 5.69921 11.8304 6.24848
115 3 7.74757 12.6435 1.98075
116 3 5.89346 16.5453 6.26312
117 3 6.25619 16.9946 2.64557
118 3 7.78071 12.2568 5.78294
119 3 0.533556 12.0063 1.46561
120 3 3.9493 17.2175 6.86385
121 6 2.30112 10.0946 4.83604
122 6 2.4222 19.3989 3.44667
123 6 0.345672 15.0887 7.81409
124 6 4.36213 14.3826 0.550716
125 4 0.123961 17.3139 2.02416
126 4 4.77765 12.3376 6.47077
127 4 6.65393 12.6648 2.17629
128 4 6.85589 16.6702 5.82447
129 4 5.24175 16.629 2.78653
130 4 8.64402 12.9584 5.51364
131 4 1.34326 11.2773 1.2805
132 4 3.3076 18.0553 7.20028
133 1 4.44913 10.1945 12.3126
134 1 0.786886 18.9754 13.4453
135 1 2.85369 15.0512 9.0912
136 1 2.38166 14.1046 16.6466
137 2 3.41709 18.4503 11.7596
138 2 1.87706 10.7001 14.0303
139 2 3.91594 13.5513 9.6383
140 2 1.39388 15.6362 16.1047
141 2 2.04772 18.1381 12.0954
142 2 3.16824 11.0926 13.6465
143 2 5.21479 13.1346 9.21934
144 2 9.26172 16.0445 16.5145
145 2 2.96599 16.5651 10.4434
146 2 2.39864 12.6911 15.2668
147 2 4.76587 11.889 11.1466
148 2 0.749432 17.6251 14.8574
149 5 6.0062 10.3299 13.8636
150 5 8.50716 18.9538 11.8618
151 5 6.32285 15.4939 16.2871
152 5 8.22919 13.9578 9.44098
153 5 8.03936 10.0583 14.2907
154 5 6.42924 19.1148 11.4106
155 5 4.40847 15.0813 15.7683
156 5 1.14505 14.3397 9.98993
157 3 3.90715 17.4474 10.9285
158 3 1.53433 11.6105 15.0271
159 3 3.73982 12.7387 10.7597
160 3 1.66457 16.6701 15.0611
161 3 1.91164 17.0813 11.2215
162 3 3.41688 12.1746 14.4471
163 3 5.5222 12.0681 10.0086
164 3 8.89032 17.1745 15.7916
165 6 7.06133 9.82571 13.6702
166 6 7.34106 19.1374 12.1762
167 6 5.31439 14.8188 16.523
168 6 9.23232 14.5422 9.30787
169 4 4.92445 17.5746 10.5746
170 4 9.55849 11.5267 15.3924
171 4 3.14311 13.2361 11.5685
172 4 2.69144 16.886 14.7965
173 4 1.11988 16.3637 11.3716
174 4 4.16185 12.9576 14.2023
175 4 6.45022 11.5788 9.84539
176 4 7.85547 17.587 15.9383
177 7 7.47864 13.3861 14.4631
178 8 7.11445 13.2505 15.32
179 8 6.76426 13.6313 13.8637
180 7 6.95207 15.6661 12.5749
181 8 6.8861 16.5796 12.8125
182 8 7.89564 15.6354 12.3026
183 7 5.28193 4.80326 12.9365
184 8 4.38047 4.78452 13.3376
185 8 5.40833 5.6898 12.5785
186 7 7.39594 4.78191 11.8183
187 8 7.03051 5.14946 12.6394
188 8 8.55705 3.45111 11.9435
189 7 2.82596 4.95004 4.32499
190 8 2.4807 5.8026 4.62896
191 8 2.51677 4.35508 3.61956
192 7 4.6339 2.77078 3.99198
193 8 4.83401 2.59781 3.05409
194 8 5.23242 3.55322 4.0431
195 9 2.93915 9.77755 9.63899
196 10 3.00994 9.2992 8.57983
197 10 2.41846 10.2779 10.5509
198 9 9.07112 11.7403 10.5616
199 10 8.48717 11.6818 11.569
200 10 0.702876 11.6333 9.6507
201 9 7.20731 6.9952 9.79265
202 10 7.50823 6.52404 8.84646
203 10 6.92731 7.46314 10.768
204 9 1.7557 10.7415 7.7452
205 10 1.05198 9.84996 7.49478
206 10 2.65827 11.3246 8.2267
207 9 6.47257 9.17315 7.43764
208 10 7.32336 8.91187 6.66435
209 10 5.83671 8.94327 8.45167
210 9 9.20871 7.89207 6.99046
211 10 0.783685 7.57559 6.10222
212 10 8.5527 7.9853 7.91132
ITEM: TIMESTEP
81
ITEM: NUMBER OF ATOMS
212
ITEM: BOX BOUNDS xy xz yz pp pp pp
-8.0625325973207929e-02 9.6362127657447711e+00 0.0000000000000000e+00
-1.7535541374146391e-01 1.9562354513741475e+01 6.4178723977154739e-01
-1.5433316863641444e-01 1.7217148268636446e+01 0.0000000000000000e+00
ITEM: ATOMS id type x y z
1 1 8.8008 0.349076 3.62095
2 1 4.95948 9.21043 4.71063
3 1 7.07568 5.32858 0.304898
4 1 6.65896 4.20855 8.05356
5 2 7.79617 8.64778 3.09286
6 2 6.25011 0.834201 5.40028
7 2 8.13627 3.65139 0.962199
8 2 5.4801 5.78768 7.24491
9 2 6.51753 8.19729 3.54006
10 2 7.3747 1.31435 4.86583
11 2 0.413235 3.32669 0.614829
12 2 4.26978 6.30577 7.7796
13 2 7.17935 6.68245 1.87178
14 2 6.59071 2.69079 6.71913
15 2 8.77643 1.77948 2.28264
16 2 4.73973 7.52264 5.77435
17 5 1.10257 0.625295 5.22002
18 5 3.63858 8.97619 3.18638
19 5 1.49323 5.55338 7.57958
20 5 3.16956 4.05728 0.988972
21 5 3.12703 0.149997 5.6914
22 5 1.59326 9.41133 2.7224
23 5 8.65228 4.87054 7.05412
24 5 5.16292 4.5058 1.35779
25 3 8.11865 7.66529 2.14674
26 3 5.74552 1.70929 6.45237
27 3 7.86311 2.719 1.9986
28 3 5.74153 6.68958 6.20332
29 3 6.24752 7.04981 2.86827
30 3 7.62701 2.38041 5.73585
31 3 0.711467 2.24686 1.41386
32 3 3.92223 7.1853 6.85422
33 6 2.16935 0.204148 4.83389
34 6 2.52888 9.32721 3.51155
35 6 0.460263 5.0236 7.94536
36 6 4.25214 4.41709 0.572137
37 4 0.0934637 7.4126 1.92113
38 4 4.72486 1.77944 6.84783
39 4 6.88339 2.41005 2.32311
40 4 6.75913 6.66402 5.77042
41 4 5.21844 6.69484 2.78062
42 4 8.6151 2.73891 6.04373
43 4 1.6796 1.76872 1.29555
44 4 2.91958 7.53702 6.82739
45 1 4.56475 0.375402 12.3638
46 1 0.831038 9.16009 13.3393
47 1 2.96679 5.19454 9.00971
48 1 2.43059 4.21386 16.6976
49 2 3.57601 8.12869 12.1974
50 2 1.72279 0.932814 13.8407
51 2 4.08467 3.74971 9.74974
52 2 1.4154 5.93088 16.1157
53 2 2.13604 8.16296 12.0249
54 2 3.0634 1.10941 13.7548
55 2 5.26663 3.34704 9.28748
56 2 9.23064 6.33297 16.5249
57 2 3.06319 6.62077 10.6283
58 2 2.38503 2.77915 15.3183
59 2 4.49829 1.69148 10.8124
60 2 0.721071 7.63315 14.6437
61 5 5.78917 0.450954 13.8481
62 5 8.48133 9.20844 12.1001
63 5 6.2867 5.61218 16.2861
64 5 8.23531 3.78891 9.50268
65 5 7.82535 0.185711 14.3203
66 5 6.39437 9.71031 11.4811
67 5 4.262 5.01954 15.7878
68 5 1.04155 4.53241 10.0825
69 3 4.02549 6.96374 11.5349
70 3 1.45151 1.86824 14.9138
71 3 3.59032 2.68823 10.6016
72 3 1.80731 6.90535 15.1414
73 3 1.81038 7.05909 11.2235
74 3 3.32144 2.33159 14.419
75 3 5.52506 2.14581 10.0752
76 3 8.8725 7.3028 15.6272
77 6 6.95733 0.156598 13.5077
78 6 7.27525 9.3171 12.3153
79 6 5.14363 5.16477 16.6839
80 6 9.26378 4.37589 9.24409
81 4 4.93193 7.3473 11.0698
82 4 9.49711 1.93494 15.2683
83 4 2.79065 2.89123 11.3449
84 4 2.56877 6.49543 14.4539
85 4 0.790929 6.98486 10.7703
86 4 4.34065 2.55448 14.6986
87 4 6.43779 1.60914 9.79864
88 4 7.92882 7.80589 15.5785
89 1 8.71414 10.215 3.68553
90 1 5.04577 19.0176 4.65913
91 1 7.13215 15.1195 0.399513
92 1 6.66299 14.0649 8.03622
93 2 7.77596 18.511 3.08964
94 2 5.93384 11.2862 4.91346
95 2 8.12356 13.448 0.906543
96 2 5.48953 15.6576 7.31971
97 2 6.43983 18.201 3.32004
98 2 7.30167 11.3815 4.8312
99 2 0.373357 13.0652 0.589953
100 2 4.33495 16.2665 7.78965
101 2 7.1809 16.626 1.72703
102 2 6.73246 12.7012 6.59239
103 2 8.60486 11.6198 2.36421
104 2 5.03657 17.5856 6.0209
105 5 1.17603 10.5469 4.99398
106 5 3.61366 19.0214 3.11365
107 5 1.44469 15.3725 7.53994
108 5 3.24385 13.9629 0.859748
109 5 3.07807 10.0285 5.77286
110 5 1.54849 19.2091 2.64596
111 5 8.50962 14.9183 7.06647
112 5 5.2276 14.3705 1.37362
113 3 8.12651 17.584 2.04888
114 3 5.70043 11.8361 6.24465
115 3 7.74776 12.645 1.97817
116 3 5.89168 16.5483 6.2601
117 3 6.25775 16.9994 2.64436
118 3 7.78189 12.2586 5.78208
119 3 0.53195 12.0058 1.46406
120 3 3.94969 17.2209 6.86275
121 6 2.30183 10.0943 4.83246
122 6 2.42206 19.4034 3.44626
123 6 0.34295 15.0909 7.81607
124 6 4.36217 14.3846 0.547483
125 4 0.120389 17.315 2.02653
126 4 4.77615 12.3455 6.46949
127 4 6.6576 12.6662 2.16766
128 4 6.86181 16.6723 5.82038
129 4 5.24477 16.6324 2.78112
130 4 8.63562 12.9513 5.51302
131 4 1.33718 11.2808 1.27622
132 4 3.31332 18.0554 7.20389
133 1 4.44882 10.194 12.3139
134 1 0.785009 18.9779 13.4468
135 1 2.85239 15.0515 9.0915
136 1 2.38108 14.1061 16.6485
137 2 3.41621 18.4514 11.7597
138 2 1.87766 10.6996 14.0331
139 2 3.91699 13.5549 9.6388
140 2 1.39172 15.6374 16.1072
141 2 2.04854 18.1394 12.0944
142 2 3.16742 11.0918 13.6481
143 2 5.21553 13.1361 9.21829
144 2 9.26287 16.0455 16.5169
145 2 2.9648 16.5664 10.4457
146 2 2.39863 12.6934 15.2689
147 2 4.76781 11.8901 11.15
148 2 0.748415 17.6292 14.8593
149 5 6.00613 10.3297 13.8661
150 5 8.50692 18.9584 11.8624
151 5 6.32343 15.4968 16.2904
152 5 8.23184 13.9595 9.44155
153 5 8.04104 10.0589 14.2916
154 5 6.4309 19.1158 11.412
155 5 4.40841 15.0838 15.7708
156 5 1.1438 14.3426 9.98878
157 3 3.90339 17.4504 10.932
158 3 1.53379 11.6097 15.0287
159 3 3.74167 12.7416 10.7637
160 3 1.66371 16.6718 15.0625
161 3 1.91208 17.0835 11.2208
162 3 3.41685 12.1761 14.4491
163 3 5.52337 12.0684 10.0081
164 3 8.89022 17.1765 15.7954
165 6 7.06209 9.82299 13.6728
166 6 7.34136 19.1403 12.1789
167 6 5.31554 14.8193 16.5257
168 6 9.23545 14.5474 9.3076
169 4 4.9234 17.5778 10.5812
170 4 9.56061 11.5248 15.387
171 4 3.14922 13.2409 11.5661
172 4 2.69336 16.8935 14.7971
173 4 1.1181 16.3663 11.3711
174 4 4.15729 12.9527 14.1991
175 4 6.45783 11.5775 9.84486
176 4 7.86286 17.5874 15.9442
177 7 7.48107 13.3863 14.4647
178 8 7.11881 13.254 15.3271
179 8 6.76857 13.643 13.8681
180 7 6.95325 15.6674 12.5762
181 8 6.88177 16.585 12.8156
182 8 7.89284 15.6364 12.3004
183 7 5.28059 4.80142 12.9371
184 8 4.38309 4.78185 13.3467
185 8 5.39899 5.68555 12.5697
186 7 7.40239 4.76735 11.827
187 8 7.02306 5.13654 12.6395
188 8 8.53732 3.43825 11.9563
189 7 2.82388 4.95113 4.32256
190 8 2.46992 5.79828 4.62818
191 8 2.52156 4.35657 3.61649
192 7 4.63367 2.76961 3.9877
193 8 4.83591 2.59197 3.05087
194 8 5.22814 3.55412 4.04222
195 9 2.93286 9.78091 9.63743
196 10 3.00758 9.30621 8.57496
197 10 2.41674 10.2744 10.5475
198 9 9.07309 11.7399 10.5621
199 10 8.48906 11.6893 11.5704
200 10 0.700627 11.6288 9.64913
201 9 7.20748 6.99737 9.7883
202 10 7.51048 6.52461 8.84238
203 10 6.92432 7.46469 10.7682
204 9 1.7558 10.7424 7.74339
205 10 1.0502 9.85184 7.49689
206 10 2.65881 11.3282 8.22197
207 9 6.47849 9.17166 7.44033
208 10 7.32444 8.91137 6.66848
209 10 5.83942 8.9488 8.45573
210 9 9.21175 7.89038 6.99076
211 10 0.77978 7.57841 6.09969
212 10 8.55954 7.98559 7.91202
ITEM: TIMESTEP
82
ITEM: NUMBER OF ATOMS
212
ITEM: BOX BOUNDS xy xz yz pp pp pp
-8.1892922846829030e-02 9.6376596514206128e+00 0.0000000000000000e+00
-1.7811236351559501e-01 1.9565111463515606e+01 6.4196652857376713e-01
-1.5675960523928190e-01 1.7219574705239314e+01 0.0000000000000000e+00
ITEM: ATOMS id type x y z
1 1 8.80284 0.346264 3.61919
2 1 4.95865 9.21129 4.70928
3 1 7.07565 5.32744 0.302042
4 1 6.66016 4.20709 8.05411
5 2 7.79702 8.64724 3.09259
6 2 6.25189 0.829359 5.40047
7 2 8.13752 3.6504 0.959906
8 2 5.47683 5.78545 7.24256
9 2 6.51844 8.1977 3.53936
10 2 7.37446 1.31083 4.86622
11 2 0.412192 3.32535 0.61343
12 2 4.26839 6.30561 7.77612
13 2 7.18106 6.67948 1.87101
14 2 6.59144 2.68903 6.71954
15 2 8.77753 1.77671 2.2806
16 2 4.73826 7.51909 5.77186
17 5 1.10224 0.623027 5.21964
18 5 3.63753 8.97645 3.18421
19 5 1.49399 5.55228 7.58062
20 5 3.16961 4.05668 0.987724
21 5 3.12475 0.147392 5.68911
22 5 1.59469 9.41127 2.722
23 5 8.65549 4.86641 7.05367
24 5 5.16153 4.50515 1.3552
25 3 8.11961 7.66376 2.14516
26 3 5.74997 1.70541 6.45177
27 3 7.86669 2.71557 1.99679
28 3 5.73583 6.68709 6.2
29 3 6.24961 7.04836 2.86764
30 3 7.62786 2.38049 5.73736
31 3 0.710221 2.24478 1.41264
32 3 3.92204 7.18196 6.84984
33 6 2.17058 0.201216 4.8316
34 6 2.52755 9.32798 3.51181
35 6 0.457028 5.0191 7.9458
36 6 4.25292 4.41618 0.570716
37 4 0.0879752 7.41462 1.92557
38 4 4.72982 1.77387 6.84473
39 4 6.88431 2.40386 2.31819
40 4 6.75365 6.65498 5.75466
41 4 5.21843 6.69326 2.78438
42 4 8.61779 2.73698 6.04051
43 4 1.68071 1.76399 1.29341
44 4 2.92131 7.52349 6.83064
45 1 4.56523 0.372538 12.3651
46 1 0.829818 9.16016 13.3398
47 1 2.96673 5.19212 9.00941
48 1 2.43036 4.21262 16.7002
49 2 3.57399 8.11928 12.2033
50 2 1.72307 0.931739 13.8435
51 2 4.0864 3.74758 9.75083
52 2 1.41326 5.93093 16.1174
53 2 2.13749 8.16054 12.0269
54 2 3.06165 1.1074 13.7574
55 2 5.26588 3.34462 9.28921
56 2 9.23237 6.33232 16.5265
57 2 3.06759 6.61621 10.6341
58 2 2.38378 2.77587 15.318
59 2 4.49841 1.68802 10.812
60 2 0.719257 7.63359 14.6447
61 5 5.78923 0.446453 13.8494
62 5 8.48001 9.2105 12.1022
63 5 6.28504 5.6121 16.2885
64 5 8.23926 3.78372 9.50206
65 5 7.82455 0.183701 14.3218
66 5 6.39697 9.71609 11.4865
67 5 4.26265 5.01802 15.7908
68 5 1.04043 4.53203 10.0834
69 3 4.01929 6.95784 11.5401
70 3 1.45047 1.86595 14.9144
71 3 3.59242 2.68635 10.6012
72 3 1.80548 6.90474 15.1436
73 3 1.80984 7.0583 11.2239
74 3 3.31984 2.32762 14.4214
75 3 5.52494 2.14463 10.0747
76 3 8.87573 7.30235 15.6281
77 6 6.95706 0.152938 13.5066
78 6 7.27559 9.31944 12.3175
79 6 5.14124 5.16287 16.6889
80 6 9.26804 4.37368 9.2445
81 4 4.93667 7.33607 11.0837
82 4 9.49721 1.93841 15.2657
83 4 2.79655 2.88567 11.342
84 4 2.56672 6.49361 14.4587
85 4 0.794155 6.99224 10.7583
86 4 4.34497 2.5514 14.7061
87 4 6.42964 1.60037 9.80025
88 4 7.92345 7.80679 15.5808
89 1 8.71523 10.215 3.68445
90 1 5.04594 19.0204 4.65737
91 1 7.13277 15.1203 0.397338
92 1 6.66403 14.066 8.03644
93 2 7.77579 18.513 3.08723
94 2 5.9362 11.2894 4.90964
95 2 8.12479 13.4483 0.90553
96 2 5.48776 15.6579 7.31937
97 2 6.44186 18.2027 3.31669
98 2 7.30062 11.3839 4.82966
99 2 0.370608 13.0653 0.58839
100 2 4.33401 16.2674 7.78939
101 2 7.1824 16.6263 1.7256
102 2 6.73411 12.7045 6.59223
103 2 8.60511 11.6182 2.36267
104 2 5.03676 17.5895 6.01818
105 5 1.17638 10.5494 4.99049
106 5 3.61162 19.0269 3.11075
107 5 1.44352 15.3742 7.53836
108 5 3.24413 13.9651 0.8581
109 5 3.07714 10.0281 5.77055
110 5 1.54841 19.2118 2.64494
111 5 8.51187 14.9193 7.06705
112 5 5.22785 14.3728 1.37193
113 3 8.12752 17.587 2.0475
114 3 5.7017 11.8418 6.2407
115 3 7.74792 12.6466 1.97557
116 3 5.88986 16.5513 6.25715
117 3 6.25924 17.0042 2.64319
118 3 7.78302 12.2604 5.78121
119 3 0.530379 12.0052 1.46253
120 3 3.95017 17.2244 6.86165
121 6 2.30249 10.0941 4.82891
122 6 2.4221 19.4079 3.44575
123 6 0.340205 15.0932 7.81817
124 6 4.36215 14.3865 0.54433
125 4 0.116618 17.316 2.02872
126 4 4.77432 12.353 6.46811
127 4 6.66157 12.6672 2.15924
128 4 6.86801 16.6741 5.81641
129 4 5.24784 16.6355 2.77534
130 4 8.62688 12.9438 5.51256
131 4 1.33105 11.2846 1.27191
132 4 3.31906 18.0551 7.20751
133 1 4.44853 10.1935 12.3151
134 1 0.783126 18.9803 13.4483
135 1 2.8511 15.0517 9.0918
136 1 2.38051 14.1076 16.6505
137 2 3.41527 18.4525 11.7599
138 2 1.87831 10.6991 14.036
139 2 3.91814 13.5585 9.63935
140 2 1.38961 15.6387 16.1097
141 2 2.04948 18.1408 12.0933
142 2 3.16655 11.091 13.6497
143 2 5.21623 13.1377 9.21726
144 2 9.26392 16.0465 16.5193
145 2 2.9636 16.5678 10.4481
146 2 2.39862 12.6955 15.271
147 2 4.7697 11.8913 11.1534
148 2 0.747363 17.6333 14.8613
149 5 6.00602 10.3295 13.8686
150 5 8.50669 18.9629 11.8629
151 5 6.324 15.4997 16.2937
152 5 8.23442 13.9612 9.44216
153 5 8.04276 10.0596 14.2925
154 5 6.43253 19.1168 11.4134
155 5 4.40829 15.0862 15.7733
156 5 1.14256 14.3455 9.98765
157 3 3.89962 17.4533 10.9355
158 3 1.53322 11.6088 15.0302
159 3 3.74348 12.7446 10.7677
160 3 1.66287 16.6735 15.0639
161 3 1.9125 17.0856 11.2201
162 3 3.41682 12.1777 14.4511
163 3 5.52455 12.0687 10.0076
164 3 8.89012 17.1784 15.7992
165 6 7.06282 9.82025 13.6754
166 6 7.34165 19.1432 12.1816
167 6 5.31673 14.8199 16.5284
168 6 9.23861 14.5527 9.30724
169 4 4.92225 17.5807 10.5875
170 4 9.56304 11.5232 15.3817
171 4 3.1554 13.2453 11.5635
172 4 2.69529 16.9009 14.7977
173 4 1.11613 16.369 11.3707
174 4 4.1528 12.9475 14.1957
175 4 6.46563 11.5762 9.84441
176 4 7.87062 17.5879 15.95
177 7 7.48351 13.3864 14.4662
178 8 7.12293 13.2574 15.3342
179 8 6.77296 13.6547 13.8727
180 7 6.95445 15.6686 12.5774
181 8 6.8773 16.5906 12.8189
182 8 7.88967 15.6372 12.2983
183 7 5.27922 4.79958 12.9378
184 8 4.38606 4.77938 13.3558
185 8 5.38943 5.6813 12.5609
186 7 7.40888 4.75276 11.8357
187 8 7.0159 5.1233 12.6399
188 8 8.51681 3.42643 11.969
189 7 2.82183 4.95221 4.32015
190 8 2.45884 5.79358 4.6269
191 8 2.52614 4.35866 3.61365
192 7 4.63347 2.76847 3.98338
193 8 4.83755 2.58599 3.04783
194 8 5.22347 3.55478 4.04161
195 9 2.92649 9.78422 9.63584
196 10 3.00532 9.31312 8.57017
197 10 2.41506 10.2709 10.5442
198 9 9.07505 11.7395 10.5625
199 10 8.49095 11.697 11.5717
200 10 0.698356 11.6244 9.64754
201 9 7.20764 6.99954 9.78403
202 10 7.51274 6.52508 8.83821
203 10 6.92136 7.46621 10.7684
204 9 1.75595 10.7433 7.74161
205 10 1.04839 9.85375 7.49898
206 10 2.6593 11.3318 8.21716
207 9 6.4844 9.17005 7.44311
208 10 7.32542 8.91098 6.67256
209 10 5.84215 8.95437 8.45971
210 9 9.21482 7.88864 6.99106
211 10 0.775895 7.58123 6.09709
212 10 8.56642 7.98591 7.91279
ITEM: TIMESTEP
83
ITEM: NUMBER OF ATOMS
212
ITEM: BOX BOUNDS xy xz yz pp pp pp
-8.3157087648415562e-02 9.6391026195924194e+00 0.0000000000000000e+00
-1.8086184873185651e-01 1.9567860948731870e+01 6.4214533194398793e-01
-1.5917947216263961e-01 1.7221994572162671e+01 0.0000000000000000e+00
ITEM: ATOMS id type x y z
1 1 8.80487 0.343465 3.61743
2 1 4.95783 9.21214 4.70792
3 1 7.07563 5.3263 0.2992
4 1 6.66135 4.20562 8.05466
5 2 7.79781 8.64661 3.09233
6 2 6.25354 0.824536 5.40071
7 2 8.13882 3.64935 0.957641
8 2 5.47349 5.78329 7.24022
9 2 6.51938 8.19815 3.53863
10 2 7.3743 1.30736 4.86666
11 2 0.41109 3.32402 0.612072
12 2 4.26707 6.30535 7.77261
13 2 7.18275 6.67655 1.8703
14 2 6.59228 2.68729 6.71988
15 2 8.77868 1.77396 2.27851
16 2 4.73681 7.51552 5.76946
17 5 1.1019 0.620753 5.21923
18 5 3.63649 8.9767 3.18206
19 5 1.49475 5.55115 7.58171
20 5 3.16963 4.05609 0.98644
21 5 3.12243 0.144788 5.68674
22 5 1.59611 9.4112 2.7216
23 5 8.65871 4.86228 7.05326
24 5 5.16017 4.5045 1.35261
25 3 8.12057 7.66223 2.14357
26 3 5.75445 1.70149 6.45108
27 3 7.87024 2.71217 1.99497
28 3 5.73018 6.68455 6.19669
29 3 6.25169 7.0469 2.86693
30 3 7.62862 2.38059 5.73895
31 3 0.708954 2.2427 1.41144
32 3 3.92183 7.1787 6.84539
33 6 2.1719 0.198313 4.8295
34 6 2.52619 9.32876 3.51204
35 6 0.453737 5.01462 7.94602
36 6 4.25374 4.41526 0.569405
37 4 0.0824181 7.41683 1.93002
38 4 4.7348 1.76804 6.84149
39 4 6.885 2.398 2.31312
40 4 6.74782 6.6459 5.73881
41 4 5.21849 6.69166 2.78827
42 4 8.62055 2.73486 6.03687
43 4 1.68175 1.75917 1.29136
44 4 2.92293 7.51013 6.83401
45 1 4.5657 0.369674 12.3664
46 1 0.828594 9.16022 13.3404
47 1 2.96667 5.18971 9.00913
48 1 2.43013 4.21139 16.7029
49 2 3.57186 8.10985 12.2091
50 2 1.72335 0.930716 13.8464
51 2 4.08802 3.74539 9.75195
52 2 1.41111 5.93102 16.119
53 2 2.13899 8.15804 12.0289
54 2 3.05993 1.10547 13.76
55 2 5.26518 3.34209 9.29098
56 2 9.23407 6.33165 16.5279
57 2 3.07186 6.61161 10.6398
58 2 2.38253 2.77258 15.3177
59 2 4.49854 1.68457 10.8117
60 2 0.717491 7.63403 14.6457
61 5 5.78933 0.44194 13.8508
62 5 8.47868 9.21253 12.1042
63 5 6.2833 5.61197 16.291
64 5 8.24319 3.77853 9.50139
65 5 7.82381 0.181697 14.3233
66 5 6.3996 9.72186 11.4918
67 5 4.26331 5.01651 15.7939
68 5 1.03934 4.53165 10.0843
69 3 4.0131 6.95213 11.5453
70 3 1.44939 1.86358 14.915
71 3 3.59456 2.68455 10.6008
72 3 1.80361 6.90403 15.1458
73 3 1.80943 7.05754 11.2244
74 3 3.31828 2.32362 14.4238
75 3 5.52484 2.14357 10.0742
76 3 8.87899 7.30194 15.6289
77 6 6.95675 0.149293 13.5055
78 6 7.27589 9.32184 12.3198
79 6 5.13888 5.16103 16.6937
80 6 9.27231 4.37143 9.245
81 4 4.94057 7.32428 11.0978
82 4 9.49737 1.942 15.2631
83 4 2.80253 2.88003 11.339
84 4 2.56455 6.49213 14.4635
85 4 0.797801 6.99967 10.7463
86 4 4.34934 2.54828 14.7135
87 4 6.42136 1.59139 9.80202
88 4 7.91791 7.80757 15.5833
89 1 8.71631 10.2149 3.68337
90 1 5.04611 19.0232 4.6556
91 1 7.13338 15.1211 0.395166
92 1 6.66506 14.0672 8.03667
93 2 7.7756 18.5149 3.08477
94 2 5.93855 11.2924 4.90599
95 2 8.12607 13.4485 0.904557
96 2 5.48604 15.6584 7.31894
97 2 6.44391 18.2044 3.31335
98 2 7.29962 11.3863 4.82813
99 2 0.367791 13.0655 0.586864
100 2 4.33303 16.2682 7.78911
101 2 7.18393 16.6267 1.7242
102 2 6.73577 12.7077 6.59204
103 2 8.60536 11.6166 2.36104
104 2 5.03689 17.5933 6.01552
105 5 1.17673 10.5519 4.987
106 5 3.60951 19.0324 3.10788
107 5 1.44242 15.3759 7.53675
108 5 3.2444 13.9674 0.856435
109 5 3.07625 10.0278 5.76818
110 5 1.54827 19.2145 2.64395
111 5 8.51409 14.9203 7.0676
112 5 5.22814 14.3752 1.37025
113 3 8.12853 17.59 2.04617
114 3 5.70302 11.8476 6.23663
115 3 7.74805 12.6481 1.97297
116 3 5.88801 16.5543 6.25425
117 3 6.26067 17.0091 2.64204
118 3 7.78409 12.2622 5.78033
119 3 0.528839 12.0046 1.46102
120 3 3.95074 17.2279 6.86055
121 6 2.30309 10.0939 4.8254
122 6 2.42232 19.4122 3.44515
123 6 0.337445 15.0953 7.82038
124 6 4.36205 14.3884 0.541261
125 4 0.112672 17.317 2.03073
126 4 4.77221 12.3602 6.46661
127 4 6.66578 12.6679 2.15105
128 4 6.8744 16.6756 5.81261
129 4 5.25094 16.6383 2.76922
130 4 8.61791 12.9361 5.51221
131 4 1.32491 11.2885 1.26757
132 4 3.32478 18.0547 7.21114
133 1 4.44826 10.193 12.3164
134 1 0.781235 18.9828 13.4499
135 1 2.84981 15.052 9.09208
136 1 2.37995 14.109 16.6524
137 2 3.41428 18.4536 11.7601
138 2 1.87899 10.6986 14.0389
139 2 3.91939 13.562 9.63996
140 2 1.38756 15.6401 16.112
141 2 2.05055 18.1421 12.0922
142 2 3.16564 11.0902 13.6513
143 2 5.21688 13.1392 9.21628
144 2 9.26489 16.0475 16.5217
145 2 2.96238 16.5692 10.4506
146 2 2.3986 12.6976 15.273
147 2 4.77154 11.8924 11.1567
148 2 0.746276 17.6374 14.8633
149 5 6.00587 10.3294 13.8712
150 5 8.50644 18.9675 11.8634
151 5 6.32456 15.5025 16.297
152 5 8.23694 13.9629 9.44279
153 5 8.04453 10.0603 14.2935
154 5 6.43412 19.1178 11.4148
155 5 4.40812 15.0886 15.7758
156 5 1.14133 14.3484 9.98653
157 3 3.89584 17.4564 10.939
158 3 1.53262 11.608 15.0318
159 3 3.74528 12.7476 10.7717
160 3 1.66207 16.675 15.0655
161 3 1.91291 17.0877 11.2194
162 3 3.41678 12.1794 14.4531
163 3 5.52573 12.069 10.0071
164 3 8.89003 17.1803 15.8029
165 6 7.06351 9.8175 13.6781
166 6 7.34194 19.1461 12.1844
167 6 5.31797 14.8206 16.5309
168 6 9.2418 14.558 9.30681
169 4 4.92099 17.5832 10.5936
170 4 9.56575 11.522 15.3764
171 4 3.16161 13.2495 11.5607
172 4 2.69721 16.9082 14.7982
173 4 1.11399 16.3719 11.3703
174 4 4.14841 12.9421 14.1921
175 4 6.47353 11.5749 9.84407
176 4 7.87866 17.5885 15.9556
177 7 7.48596 13.3866 14.4677
178 8 7.12684 13.2608 15.3414
179 8 6.77742 13.6665 13.8775
180 7 6.95568 15.6699 12.5787
181 8 6.87272 16.5962 12.8221
182 8 7.88618 15.6378 12.2964
183 7 5.27781 4.79774 12.9384
184 8 4.38938 4.77708 13.3649
185 8 5.37967 5.67703 12.5522
186 7 7.41542 4.73816 11.8444
187 8 7.00902 5.10971 12.6408
188 8 8.4955 3.41571 11.9818
189 7 2.81983 4.95329 4.31776
190 8 2.44745 5.78853 4.62513
191 8 2.53048 4.36132 3.61098
192 7 4.6333 2.76737 3.97903
193 8 4.83894 2.57989 3.04496
194 8 5.21844 3.55521 4.04126
195 9 2.92008 9.78747 9.63419
196 10 3.00314 9.31993 8.56545
197 10 2.41342 10.2675 10.541
198 9 9.07701 11.739 10.5631
199 10 8.49284 11.7046 11.573
200 10 0.696062 11.62 9.64595
201 9 7.20778 7.00173 9.77985
202 10 7.51498 6.52546 8.83395
203 10 6.91842 7.46769 10.7687
204 9 1.75616 10.7442 7.73987
205 10 1.04655 9.85571 7.50108
206 10 2.65974 11.3355 8.21229
207 9 6.49028 9.16834 7.44599
208 10 7.3263 8.9107 6.67658
209 10 5.84492 8.96 8.4636
210 9 9.21794 7.88683 6.99137
211 10 0.772032 7.58406 6.09442
212 10 8.57334 7.98624 7.91363
ITEM: TIMESTEP
84
ITEM: NUMBER OF ATOMS
212
ITEM: BOX BOUNDS xy xz yz pp pp pp
-8.4417886742051529e-02 9.6405417460108076e+00 0.0000000000000000e+00
-1.8360401372828328e-01 1.9570603113728296e+01 6.4232365926874047e-01
-1.6159289644075514e-01 1.7224407996440789e+01 0.0000000000000000e+00
ITEM: ATOMS id type x y z
1 1 8.8069 0.340679 3.61568
2 1 4.95701 9.213 4.70657
3 1 7.0756 5.32516 0.296371
4 1 6.66254 4.20416 8.05522
5 2 7.79854 8.6459 3.09208
6 2 6.25506 0.819734 5.40102
7 2 8.14018 3.64826 0.955406
8 2 5.47011 5.7812 7.23786
9 2 6.52034 8.19863 3.53787
10 2 7.37422 1.30394 4.86717
11 2 0.409927 3.32269 0.610753
12 2 4.2658 6.30496 7.76907
13 2 7.18442 6.67366 1.86967
14 2 6.59321 2.68557 6.72016
15 2 8.7799 1.77123 2.27638
16 2 4.73539 7.51196 5.76715
17 5 1.10153 0.618472 5.21878
18 5 3.63546 8.97695 3.17992
19 5 1.49552 5.55001 7.58286
20 5 3.16964 4.05551 0.98512
21 5 3.12008 0.142184 5.6843
22 5 1.59752 9.41112 2.7212
23 5 8.66194 4.85815 7.05291
24 5 5.15886 4.50386 1.35002
25 3 8.12154 7.6607 2.14199
26 3 5.75895 1.69752 6.45033
27 3 7.87375 2.70881 1.99312
28 3 5.7246 6.68196 6.1934
29 3 6.25378 7.04543 2.86613
30 3 7.6293 2.3807 5.74062
31 3 0.707667 2.24062 1.41026
32 3 3.92159 7.17552 6.84088
33 6 2.1733 0.195442 4.82758
34 6 2.52481 9.32954 3.51225
35 6 0.450404 5.01015 7.94603
36 6 4.25459 4.41432 0.568201
37 4 0.0768532 7.41918 1.93446
38 4 4.7398 1.76197 6.83814
39 4 6.88548 2.39246 2.30789
40 4 6.74158 6.6368 5.72291
41 4 5.21864 6.69002 2.79228
42 4 8.62336 2.73256 6.03281
43 4 1.68268 1.75427 1.28942
44 4 2.92439 7.49696 6.83746
45 1 4.56616 0.366812 12.3677
46 1 0.827367 9.16029 13.3409
47 1 2.96661 5.18732 9.00885
48 1 2.4299 4.21016 16.7056
49 2 3.56962 8.10041 12.215
50 2 1.72363 0.929742 13.8494
51 2 4.08953 3.74316 9.75311
52 2 1.40897 5.93115 16.1206
53 2 2.14055 8.15546 12.031
54 2 3.05826 1.10363 13.7626
55 2 5.26454 3.33945 9.29279
56 2 9.23573 6.33097 16.5293
57 2 3.07599 6.60698 10.6456
58 2 2.38128 2.76927 15.3173
59 2 4.49866 1.68112 10.8113
60 2 0.715777 7.63446 14.6467
61 5 5.78947 0.437414 13.8521
62 5 8.47734 9.21455 12.1062
63 5 6.28148 5.61181 16.2935
64 5 8.24712 3.77335 9.5007
65 5 7.82312 0.179699 14.3249
66 5 6.40225 9.72762 11.4972
67 5 4.26399 5.01499 15.797
68 5 1.0383 4.53128 10.0852
69 3 4.00694 6.94663 11.5504
70 3 1.44826 1.86116 14.9155
71 3 3.59674 2.68284 10.6003
72 3 1.8017 6.90323 15.148
73 3 1.80913 7.05681 11.2249
74 3 3.31675 2.3196 14.4262
75 3 5.52475 2.14264 10.0735
76 3 8.88226 7.30157 15.6297
77 6 6.9564 0.145664 13.5045
78 6 7.27618 9.32432 12.322
79 6 5.13655 5.15926 16.6982
80 6 9.27658 4.36916 9.24559
81 4 4.94357 7.31191 11.1121
82 4 9.49759 1.94571 15.2605
83 4 2.80855 2.87433 11.3358
84 4 2.5623 6.49097 14.4683
85 4 0.801877 7.00713 10.7343
86 4 4.35369 2.54511 14.7207
87 4 6.41297 1.58219 9.8039
88 4 7.91229 7.80819 15.5861
89 1 8.71739 10.2149 3.6823
90 1 5.04627 19.026 4.65384
91 1 7.134 15.1219 0.392997
92 1 6.66609 14.0683 8.03689
93 2 7.7754 18.5167 3.08223
94 2 5.94089 11.2955 4.90253
95 2 8.1274 13.4487 0.903624
96 2 5.48436 15.6589 7.31843
97 2 6.446 18.206 3.31002
98 2 7.29868 11.3886 4.82662
99 2 0.364906 13.0656 0.585376
100 2 4.33201 16.2689 7.78882
101 2 7.18548 16.6271 1.72285
102 2 6.73743 12.711 6.59182
103 2 8.60562 11.6151 2.35932
104 2 5.03696 17.5972 6.0129
105 5 1.17711 10.5545 4.98353
106 5 3.60731 19.038 3.10506
107 5 1.44136 15.3776 7.5351
108 5 3.24469 13.9697 0.854751
109 5 3.07541 10.0274 5.76576
110 5 1.54809 19.2172 2.64297
111 5 8.51627 14.9213 7.06811
112 5 5.22847 14.3777 1.36857
113 3 8.12954 17.593 2.04489
114 3 5.70438 11.8535 6.23244
115 3 7.74817 12.6497 1.97036
116 3 5.88613 16.5573 6.25142
117 3 6.26205 17.014 2.64092
118 3 7.78509 12.2641 5.77945
119 3 0.527326 12.004 1.45953
120 3 3.9514 17.2314 6.85945
121 6 2.30364 10.0937 4.82193
122 6 2.42271 19.4165 3.44444
123 6 0.334676 15.0975 7.82269
124 6 4.36188 14.3902 0.538278
125 4 0.108573 17.318 2.03257
126 4 4.76984 12.3669 6.46499
127 4 6.67017 12.6683 2.14311
128 4 6.8809 16.6766 5.809
129 4 5.25405 16.6407 2.76278
130 4 8.60884 12.9282 5.51196
131 4 1.31882 11.2925 1.26318
132 4 3.33045 18.054 7.21479
133 1 4.448 10.1925 12.3177
134 1 0.779337 18.9852 13.4514
135 1 2.84853 15.0523 9.09236
136 1 2.3794 14.1105 16.6544
137 2 3.41324 18.4546 11.7603
138 2 1.87972 10.6982 14.0418
139 2 3.92074 13.5655 9.64061
140 2 1.38557 15.6416 16.1142
141 2 2.05175 18.1433 12.091
142 2 3.16468 11.0894 13.6529
143 2 5.21747 13.1408 9.21532
144 2 9.26577 16.0485 16.524
145 2 2.96116 16.5707 10.4531
146 2 2.39858 12.6995 15.275
147 2 4.77333 11.8936 11.1599
148 2 0.745152 17.6415 14.8654
149 5 6.00568 10.3293 13.8737
150 5 8.5062 18.9721 11.864
151 5 6.32512 15.5053 16.3004
152 5 8.2394 13.9645 9.44347
153 5 8.04634 10.0609 14.2944
154 5 6.43567 19.1188 11.4162
155 5 4.40791 15.091 15.7783
156 5 1.14012 14.3513 9.98542
157 3 3.89206 17.4594 10.9424
158 3 1.53202 11.6073 15.0333
159 3 3.74707 12.7507 10.7756
160 3 1.66129 16.6764 15.0672
161 3 1.91329 17.0896 11.2187
162 3 3.41673 12.1811 14.4552
163 3 5.52692 12.0692 10.0067
164 3 8.88997 17.1822 15.8066
165 6 7.06418 9.81474 13.6807
166 6 7.34222 19.149 12.1871
167 6 5.31925 14.8213 16.5333
168 6 9.24501 14.5633 9.30629
169 4 4.91961 17.5854 10.5994
170 4 9.56871 11.5211 15.3713
171 4 3.16782 13.2534 11.5579
172 4 2.69908 16.9154 14.7987
173 4 1.1117 16.3751 11.37
174 4 4.14417 12.9363 14.1884
175 4 6.48149 11.5735 9.84384
176 4 7.8869 17.5892 15.9612
177 7 7.48842 13.3867 14.4691
178 8 7.13058 13.2642 15.3485
179 8 6.78194 13.6782 13.8825
180 7 6.95692 15.6712 12.5799
181 8 6.86805 16.6019 12.8254
182 8 7.88243 15.6384 12.2944
183 7 5.27638 4.79589 12.939
184 8 4.39305 4.77498 13.3738
185 8 5.3697 5.67272 12.5436
186 7 7.42201 4.72353 11.853
187 8 7.00245 5.09575 12.642
188 8 8.47334 3.40615 11.9947
189 7 2.81787 4.95435 4.3154
190 8 2.43574 5.78315 4.6229
191 8 2.53456 4.36451 3.60847
192 7 4.63315 2.76629 3.97465
193 8 4.84008 2.57369 3.04227
194 8 5.21304 3.55541 4.04114
195 9 2.91361 9.79066 9.63248
196 10 3.00105 9.32663 8.56081
197 10 2.41181 10.264 10.5378
198 9 9.07897 11.7385 10.5637
199 10 8.49473 11.7123 11.5743
200 10 0.693744 11.6157 9.64435
201 9 7.20789 7.00395 9.77576
202 10 7.51721 6.52575 8.8296
203 10 6.91551 7.46914 10.769
204 9 1.75642 10.7452 7.73817
205 10 1.04467 9.8577 7.50316
206 10 2.66012 11.3393 8.20734
207 9 6.49614 9.16651 7.44899
208 10 7.32708 8.91052 6.68053
209 10 5.84771 8.96567 8.46741
210 9 9.22108 7.88498 6.99168
211 10 0.768195 7.58689 6.09168
212 10 8.5803 7.9866 7.91455
ITEM: TIMESTEP
85
ITEM: NUMBER OF ATOMS
212
ITEM: BOX BOUNDS xy xz yz pp pp pp
-8.5675409646302825e-02 9.6419771328558426e+00 0.0000000000000000e+00
-1.8633905320257504e-01 1.9573338153202588e+01 6.4250152320952403e-01
-1.6400004943025692e-01 1.7226815149430294e+01 0.0000000000000000e+00
ITEM: ATOMS id type x y z
1 1 8.80892 0.337904 3.61393
2 1 4.95619 9.21386 4.70521
3 1 7.07558 5.32402 0.293557
4 1 6.66374 4.20271 8.05577
5 2 7.79922 8.64512 3.09184
6 2 6.25646 0.814951 5.40139
7 2 8.1416 3.64712 0.953201
8 2 5.46668 5.77917 7.2355
9 2 6.52133 8.19914 3.53709
10 2 7.37422 1.30058 4.86775
11 2 0.408706 3.32137 0.609475
12 2 4.2646 6.30447 7.76551
13 2 7.18609 6.6708 1.86911
14 2 6.59424 2.68386 6.72037
15 2 8.78119 1.76851 2.27419
16 2 4.73399 7.50839 5.76491
17 5 1.10115 0.616182 5.2183
18 5 3.63444 8.97719 3.17779
19 5 1.49629 5.54884 7.58406
20 5 3.16964 4.05494 0.983765
21 5 3.1177 0.139579 5.68179
22 5 1.59893 9.41105 2.72081
23 5 8.66517 4.85402 7.05261
24 5 5.15758 4.50323 1.34745
25 3 8.1225 7.65919 2.14041
26 3 5.76347 1.69351 6.44949
27 3 7.87722 2.70548 1.99126
28 3 5.71911 6.67932 6.19013
29 3 6.25586 7.04396 2.86523
30 3 7.6299 2.38081 5.74237
31 3 0.706365 2.23853 1.40911
32 3 3.92132 7.17241 6.83631
33 6 2.17479 0.192605 4.82585
34 6 2.52342 9.33032 3.51243
35 6 0.447042 5.00572 7.94583
36 6 4.25546 4.41335 0.567104
37 4 0.0713414 7.42167 1.93888
38 4 4.7448 1.75566 6.83466
39 4 6.8858 2.38726 2.30251
40 4 6.73489 6.62768 5.707
41 4 5.21889 6.68835 2.79642
42 4 8.62623 2.7301 6.02835
43 4 1.68347 1.74931 1.28756
44 4 2.92562 7.48404 6.84095
45 1 4.56662 0.363949 12.369
46 1 0.826136 9.16035 13.3414
47 1 2.96655 5.18495 9.00858
48 1 2.42967 4.20894 16.7083
49 2 3.56728 8.09096 12.2208
50 2 1.7239 0.928814 13.8525
51 2 4.09094 3.74089 9.75431
52 2 1.40683 5.93132 16.1221
53 2 2.14216 8.15279 12.0331
54 2 3.05664 1.10187 13.7651
55 2 5.26397 3.33669 9.29464
56 2 9.23735 6.33028 16.5307
57 2 3.07998 6.60231 10.6514
58 2 2.38003 2.76595 15.3169
59 2 4.49878 1.67768 10.811
60 2 0.714116 7.63489 14.6479
61 5 5.78966 0.432875 13.8533
62 5 8.476 9.21656 12.1081
63 5 6.27958 5.61161 16.2961
64 5 8.25103 3.76817 9.49997
65 5 7.82248 0.177706 14.3264
66 5 6.40493 9.73336 11.5026
67 5 4.26469 5.01349 15.8001
68 5 1.0373 4.53092 10.0861
69 3 4.00083 6.94132 11.5554
70 3 1.44708 1.85867 14.916
71 3 3.59896 2.68121 10.5998
72 3 1.79975 6.90235 15.1502
73 3 1.80895 7.05611 11.2254
74 3 3.31526 2.31557 14.4287
75 3 5.52469 2.14183 10.0728
76 3 8.88553 7.30125 15.6304
77 6 6.956 0.142054 13.5035
78 6 7.27644 9.32686 12.3243
79 6 5.13426 5.15756 16.7025
80 6 9.28086 4.36686 9.24627
81 4 4.94563 7.29897 11.1267
82 4 9.49786 1.94952 15.2578
83 4 2.81457 2.86859 11.3324
84 4 2.55996 6.49012 14.4731
85 4 0.806388 7.01462 10.7224
86 4 4.35793 2.54187 14.7278
87 4 6.40453 1.57278 9.80587
88 4 7.90667 7.80863 15.5891
89 1 8.71847 10.2149 3.68122
90 1 5.04644 19.0288 4.65208
91 1 7.13462 15.1227 0.390829
92 1 6.66711 14.0695 8.03712
93 2 7.77519 18.5185 3.07963
94 2 5.9432 11.2984 4.89925
95 2 8.12877 13.4489 0.902728
96 2 5.48273 15.6595 7.31784
97 2 6.44811 18.2077 3.30669
98 2 7.2978 11.3909 4.82514
99 2 0.361957 13.0658 0.583926
100 2 4.33095 16.2696 7.78852
101 2 7.18706 16.6275 1.72154
102 2 6.73909 12.7142 6.59156
103 2 8.60587 11.6136 2.35752
104 2 5.03696 17.601 6.01033
105 5 1.1775 10.5571 4.98005
106 5 3.60505 19.0436 3.10227
107 5 1.44036 15.3794 7.53344
108 5 3.24498 13.972 0.853049
109 5 3.07461 10.027 5.76328
110 5 1.54787 19.2199 2.64202
111 5 8.5184 14.9223 7.06859
112 5 5.22884 14.3801 1.36689
113 3 8.13055 17.5961 2.04367
114 3 5.70577 11.8595 6.22814
115 3 7.74827 12.6512 1.96774
116 3 5.88424 16.5603 6.24865
117 3 6.26337 17.019 2.63982
118 3 7.78601 12.2659 5.77856
119 3 0.525833 12.0033 1.45807
120 3 3.95216 17.235 6.85835
121 6 2.30413 10.0935 4.81851
122 6 2.42327 19.4206 3.44362
123 6 0.331903 15.0996 7.82511
124 6 4.36165 14.3919 0.535384
125 4 0.104347 17.3189 2.03423
126 4 4.76727 12.3732 6.46321
127 4 6.67469 12.6684 2.13542
128 4 6.88743 16.6774 5.80561
129 4 5.25715 16.6428 2.75602
130 4 8.59977 12.9203 5.51175
131 4 1.31282 11.2966 1.25875
132 4 3.33605 18.0532 7.21847
133 1 4.44776 10.192 12.319
134 1 0.777432 18.9876 13.4529
135 1 2.84725 15.0526 9.09263
136 1 2.37886 14.1119 16.6563
137 2 3.41215 18.4557 11.7606
138 2 1.88049 10.6977 14.0446
139 2 3.92219 13.5689 9.64132
140 2 1.38364 15.6432 16.1162
141 2 2.05307 18.1446 12.0899
142 2 3.16366 11.0887 13.6546
143 2 5.21802 13.1423 9.21441
144 2 9.26656 16.0495 16.5264
145 2 2.95993 16.5722 10.4556
146 2 2.39855 12.7014 15.2769
147 2 4.77508 11.8947 11.163
148 2 0.74399 17.6455 14.8675
149 5 6.00545 10.3292 13.8763
150 5 8.50595 18.9766 11.8645
151 5 6.32567 15.5081 16.3038
152 5 8.24181 13.966 9.44418
153 5 8.0482 10.0616 14.2954
154 5 6.43719 19.1198 11.4175
155 5 4.40765 15.0933 15.7808
156 5 1.13893 14.3541 9.98432
157 3 3.88828 17.4625 10.9458
158 3 1.5314 11.6065 15.0347
159 3 3.74884 12.7538 10.7796
160 3 1.66056 16.6777 15.0689
161 3 1.91364 17.0915 11.2179
162 3 3.41666 12.1829 14.4573
163 3 5.52813 12.0695 10.0062
164 3 8.88995 17.184 15.8103
165 6 7.0648 9.81197 13.6833
166 6 7.3425 19.1519 12.1898
167 6 5.32056 14.8222 16.5355
168 6 9.24823 14.5687 9.3057
169 4 4.91807 17.5873 10.6051
170 4 9.5719 11.5206 15.3663
171 4 3.17398 13.257 11.555
172 4 2.70085 16.9224 14.7993
173 4 1.10925 16.3784 11.3698
174 4 4.14013 12.9305 14.1845
175 4 6.48941 11.5722 9.84372
176 4 7.89526 17.5901 15.9667
177 7 7.49088 13.3868 14.4706
178 8 7.13417 13.2676 15.3555
179 8 6.78652 13.69 13.8876
180 7 6.95817 15.6725 12.5811
181 8 6.86331 16.6073 12.8287
182 8 7.87849 15.6388 12.2926
183 7 5.27491 4.79404 12.9396
184 8 4.39706 4.77305 13.3827
185 8 5.35954 5.66835 12.5351
186 7 7.42866 4.70887 11.8615
187 8 6.99617 5.08139 12.6436
188 8 8.45031 3.39779 12.0075
189 7 2.81596 4.95541 4.31308
190 8 2.42372 5.77746 4.6202
191 8 2.53837 4.36819 3.60607
192 7 4.63302 2.76525 3.97024
193 8 4.84099 2.56739 3.03977
194 8 5.20731 3.5554 4.04124
195 9 2.90712 9.79376 9.63067
196 10 2.99905 9.33323 8.55626
197 10 2.41022 10.2606 10.5346
198 9 9.08093 11.738 10.5643
199 10 8.49663 11.72 11.5755
200 10 0.691399 11.6113 9.64274
201 9 7.20798 7.00618 9.77178
202 10 7.51943 6.52594 8.82517
203 10 6.91264 7.47054 10.7694
204 9 1.75674 10.7461 7.73651
205 10 1.04276 9.85974 7.50524
206 10 2.66044 11.3431 8.20232
207 9 6.50195 9.16459 7.45211
208 10 7.32778 8.91043 6.68442
209 10 5.85054 8.97139 8.47114
210 9 9.22427 7.88307 6.992
211 10 0.764386 7.58972 6.08886
212 10 8.58729 7.98698 7.91553
ITEM: TIMESTEP
86
ITEM: NUMBER OF ATOMS
212
ITEM: BOX BOUNDS xy xz yz pp pp pp
-8.6929767746241282e-02 9.6434089072668900e+00 0.0000000000000000e+00
-1.8906720941080835e-01 1.9576066309410820e+01 6.4267893952063404e-01
-1.6640114434468245e-01 1.7229216244344720e+01 0.0000000000000000e+00
ITEM: ATOMS id type x y z
1 1 8.81093 0.335141 3.61219
2 1 4.95537 9.21473 4.70385
3 1 7.07557 5.32288 0.290757
4 1 6.66493 4.20126 8.05633
5 2 7.79983 8.64425 3.09161
6 2 6.25772 0.81019 5.40182
7 2 8.14308 3.64592 0.951027
8 2 5.46319 5.7772 7.23313
9 2 6.52234 8.19967 3.53628
10 2 7.37431 1.29728 4.86838
11 2 0.407425 3.32006 0.608236
12 2 4.26346 6.30385 7.76192
13 2 7.18774 6.66799 1.86861
14 2 6.59537 2.68217 6.72051
15 2 8.78255 1.7658 2.27195
16 2 4.73261 7.50482 5.76276
17 5 1.10076 0.613883 5.21778
18 5 3.63344 8.97744 3.17567
19 5 1.49706 5.54765 7.58531
20 5 3.16962 4.05437 0.982374
21 5 3.1153 0.136973 5.67921
22 5 1.60031 9.41097 2.72042
23 5 8.6684 4.84989 7.05235
24 5 5.15634 4.5026 1.3449
25 3 8.12345 7.6577 2.13884
26 3 5.768 1.68945 6.44858
27 3 7.88063 2.70219 1.98937
28 3 5.7137 6.67663 6.18688
29 3 6.25793 7.04247 2.86425
30 3 7.6304 2.38093 5.74418
31 3 0.70505 2.23642 1.40797
32 3 3.92103 7.16938 6.83169
33 6 2.17635 0.189804 4.8243
34 6 2.52202 9.33109 3.51258
35 6 0.443666 5.00132 7.94542
36 6 4.25635 4.41236 0.56611
37 4 0.0659431 7.42426 1.94325
38 4 4.74979 1.74911 6.83108
39 4 6.88598 2.38239 2.29696
40 4 6.7277 6.61853 5.69112
41 4 5.21927 6.68664 2.80066
42 4 8.62914 2.72747 6.02351
43 4 1.68409 1.74432 1.28581
44 4 2.92658 7.47139 6.84448
45 1 4.56707 0.361087 12.3703
46 1 0.824902 9.16041 13.342
47 1 2.9665 5.18259 9.00831
48 1 2.42945 4.20773 16.711
49 2 3.56484 8.08152 12.2266
50 2 1.72415 0.927929 13.8557
51 2 4.09223 3.73857 9.75555
52 2 1.4047 5.93153 16.1236
53 2 2.14381 8.15004 12.0352
54 2 3.05506 1.10019 13.7677
55 2 5.26346 3.33382 9.29652
56 2 9.23894 6.32958 16.5321
57 2 3.08381 6.59761 10.6571
58 2 2.37879 2.76261 15.3164
59 2 4.4989 1.67425 10.8108
60 2 0.712509 7.63531 14.649
61 5 5.78988 0.428322 13.8546
62 5 8.47465 9.21855 12.1099
63 5 6.2776 5.61137 16.2987
64 5 8.25494 3.76299 9.4992
65 5 7.82191 0.175719 14.328
66 5 6.40763 9.7391 11.5081
67 5 4.2654 5.01199 15.8033
68 5 1.03634 4.53057 10.0871
69 3 3.99478 6.93619 11.5604
70 3 1.44585 1.85612 14.9164
71 3 3.60122 2.67966 10.5992
72 3 1.79776 6.90138 15.1524
73 3 1.8089 7.05544 11.2259
74 3 3.31383 2.31151 14.4311
75 3 5.52463 2.14114 10.072
76 3 8.88881 7.30098 15.6311
77 6 6.95556 0.138463 13.5026
78 6 7.27668 9.32947 12.3265
79 6 5.13201 5.15594 16.7065
80 6 9.28512 4.36452 9.24704
81 4 4.94673 7.28544 11.1415
82 4 9.4982 1.95343 15.2551
83 4 2.82053 2.86282 11.329
84 4 2.55756 6.48959 14.4779
85 4 0.811339 7.02214 10.7105
86 4 4.36201 2.53855 14.7346
87 4 6.39606 1.56317 9.80791
88 4 7.90115 7.80884 15.5922
89 1 8.71955 10.2148 3.68015
90 1 5.0466 19.0316 4.65032
91 1 7.13524 15.1236 0.388664
92 1 6.66814 14.0706 8.03734
93 2 7.77498 18.5202 3.07697
94 2 5.94548 11.3013 4.89614
95 2 8.13019 13.4491 0.901869
96 2 5.48114 15.6602 7.31716
97 2 6.45025 18.2093 3.30339
98 2 7.29698 11.3931 4.82367
99 2 0.358946 13.0659 0.582514
100 2 4.32985 16.2702 7.7882
101 2 7.18866 16.6278 1.72027
102 2 6.74076 12.7174 6.59127
103 2 8.60612 11.6122 2.35564
104 2 5.0369 17.6047 6.00781
105 5 1.1779 10.5597 4.97659
106 5 3.60271 19.0492 3.09953
107 5 1.43941 15.3811 7.53174
108 5 3.24528 13.9743 0.851327
109 5 3.07385 10.0266 5.76075
110 5 1.54759 19.2226 2.6411
111 5 8.5205 14.9233 7.06904
112 5 5.22925 14.3825 1.36521
113 3 8.13156 17.5992 2.04251
114 3 5.70719 11.8656 6.22372
115 3 7.74836 12.6527 1.96512
116 3 5.88234 16.5632 6.24595
117 3 6.26463 17.024 2.63873
118 3 7.78684 12.2678 5.77767
119 3 0.524357 12.0026 1.45662
120 3 3.95302 17.2386 6.85725
121 6 2.30457 10.0933 4.81514
122 6 2.42399 19.4247 3.44269
123 6 0.329136 15.1017 7.82762
124 6 4.36136 14.3936 0.53258
125 4 0.100021 17.3198 2.03572
126 4 4.76454 12.3791 6.46128
127 4 6.67926 12.6681 2.128
128 4 6.89389 16.6777 5.80247
129 4 5.26024 16.6446 2.74898
130 4 8.59084 12.9124 5.51158
131 4 1.30696 11.3007 1.25428
132 4 3.34155 18.0523 7.22217
133 1 4.44753 10.1915 12.3203
134 1 0.775519 18.9901 13.4543
135 1 2.84597 15.0529 9.09289
136 1 2.37832 14.1134 16.6583
137 2 3.41101 18.4567 11.7609
138 2 1.8813 10.6974 14.0475
139 2 3.92375 13.5723 9.64208
140 2 1.38177 15.645 16.1181
141 2 2.0545 18.1458 12.0886
142 2 3.16261 11.0879 13.6562
143 2 5.21853 13.1439 9.21353
144 2 9.26725 16.0506 16.5288
145 2 2.95869 16.5737 10.4582
146 2 2.39852 12.7032 15.2787
147 2 4.77677 11.8958 11.166
148 2 0.74279 17.6495 14.8696
149 5 6.00518 10.3291 13.8789
150 5 8.5057 18.9812 11.8651
151 5 6.32621 15.5108 16.3072
152 5 8.24417 13.9676 9.44491
153 5 8.0501 10.0623 14.2964
154 5 6.43867 19.1208 11.4188
155 5 4.40734 15.0955 15.7834
156 5 1.13776 14.357 9.98324
157 3 3.8845 17.4656 10.9492
158 3 1.53078 11.6057 15.0362
159 3 3.7506 12.7569 10.7835
160 3 1.65986 16.6788 15.0708
161 3 1.91397 17.0933 11.2172
162 3 3.41657 12.1847 14.4594
163 3 5.52935 12.0698 10.0059
164 3 8.88997 17.1858 15.814
165 6 7.06539 9.8092 13.6859
166 6 7.34277 19.1549 12.1926
167 6 5.32192 14.8231 16.5377
168 6 9.25145 14.574 9.30504
169 4 4.91639 17.5888 10.6105
170 4 9.57527 11.5205 15.3613
171 4 3.18005 13.2604 11.5522
172 4 2.70249 16.9292 14.7999
173 4 1.10667 16.3819 11.3697
174 4 4.13634 12.9245 14.1804
175 4 6.49725 11.5709 9.84373
176 4 7.90366 17.5912 15.972
177 7 7.49335 13.387 14.4721
178 8 7.13764 13.2711 15.3623
179 8 6.79114 13.7018 13.8929
180 7 6.95942 15.6738 12.5823
181 8 6.85853 16.6125 12.8319
182 8 7.87443 15.6391 12.2907
183 7 5.27341 4.79219 12.9403
184 8 4.40141 4.7713 13.3915
185 8 5.34919 5.6639 12.5266
186 7 7.43535 4.69419 11.8701
187 8 6.99021 5.0666 12.6456
188 8 8.42636 3.3907 12.0204
189 7 2.81409 4.95647 4.31078
190 8 2.41137 5.7715 4.61706
191 8 2.54189 4.37231 3.60373
192 7 4.63292 2.76422 3.9658
193 8 4.84168 2.56101 3.03744
194 8 5.20126 3.55521 4.04155
195 9 2.9006 9.79677 9.62876
196 10 2.99714 9.33972 8.5518
197 10 2.40864 10.2572 10.5315
198 9 9.08289 11.7374 10.565
199 10 8.49853 11.7277 11.5768
200 10 0.689028 11.607 9.64113
201 9 7.20804 7.00844 9.7679
202 10 7.52163 6.52605 8.82067
203 10 6.90981 7.47189 10.7697
204 9 1.75712 10.7471 7.73488
205 10 1.04081 9.86182 7.5073
206 10 2.6607 11.3471 8.19723
207 9 6.50771 9.16257 7.45536
208 10 7.3284 8.91044 6.68822
209 10 5.8534 8.97715 8.47477
210 9 9.22749 7.88112 6.99232
211 10 0.760607 7.59255 6.08597
212 10 8.59431 7.98738 7.9166
ITEM: TIMESTEP
87
ITEM: NUMBER OF ATOMS
212
ITEM: BOX BOUNDS xy xz yz pp pp pp
-8.8181093141184164e-02 9.6448372200273873e+00 0.0000000000000000e+00
-1.9178876966134872e-01 1.9578787869661362e+01 6.4285592688618787e-01
-1.6879643404882572e-01 1.7231611534048863e+01 0.0000000000000000e+00
ITEM: ATOMS id type x y z
1 1 8.81293 0.33239 3.61045
2 1 4.95455 9.2156 4.70249
3 1 7.07555 5.32174 0.28797
4 1 6.66612 4.19981 8.05689
5 2 7.8004 8.6433 3.09138
6 2 6.25886 0.805449 5.40231
7 2 8.14462 3.64467 0.948886
8 2 5.45967 5.77531 7.23076
9 2 6.52338 8.20024 3.53544
10 2 7.37448 1.29403 4.86909
11 2 0.406087 3.31875 0.607035
12 2 4.26238 6.30312 7.7583
13 2 7.18937 6.66522 1.86818
14 2 6.5966 2.6805 6.72059
15 2 8.78398 1.76311 2.26967
16 2 4.73125 7.50126 5.76068
17 5 1.10036 0.611573 5.21722
18 5 3.63244 8.97768 3.17356
19 5 1.49781 5.54643 7.58662
20 5 3.16958 4.05382 0.980947
21 5 3.11288 0.134364 5.67657
22 5 1.60168 9.41089 2.72003
23 5 8.67163 4.84575 7.05213
24 5 5.15515 4.50198 1.34235
25 3 8.12439 7.65622 2.13728
26 3 5.77255 1.68534 6.4476
27 3 7.88399 2.69894 1.98746
28 3 5.7084 6.67389 6.18364
29 3 6.26 7.04098 2.86319
30 3 7.63083 2.38105 5.74605
31 3 0.703726 2.23431 1.40686
32 3 3.92072 7.16642 6.82703
33 6 2.17797 0.187042 4.82293
34 6 2.52061 9.33186 3.51269
35 6 0.44029 4.99696 7.9448
36 6 4.25724 4.41135 0.565215
37 4 0.0607171 7.42693 1.94755
38 4 4.75475 1.74233 6.82741
39 4 6.88604 2.37787 2.29124
40 4 6.71999 6.60936 5.6753
41 4 5.21979 6.68489 2.805
42 4 8.63209 2.72471 6.0183
43 4 1.68452 1.7393 1.28416
44 4 2.92722 7.45904 6.84799
45 1 4.56751 0.358226 12.3716
46 1 0.823664 9.16047 13.3425
47 1 2.96644 5.18024 9.00805
48 1 2.42922 4.20652 16.7137
49 2 3.56229 8.07208 12.2324
50 2 1.7244 0.927086 13.8589
51 2 4.09341 3.7362 9.75682
52 2 1.40257 5.93177 16.125
53 2 2.14551 8.1472 12.0373
54 2 3.05354 1.09859 13.7702
55 2 5.26302 3.33085 9.29842
56 2 9.24049 6.32888 16.5334
57 2 3.08748 6.59287 10.6628
58 2 2.37755 2.75925 15.3159
59 2 4.49902 1.67083 10.8105
60 2 0.710959 7.63572 14.6503
61 5 5.79014 0.423755 13.8558
62 5 8.4733 9.22052 12.1116
63 5 6.27554 5.61109 16.3014
64 5 8.25884 3.75782 9.4984
65 5 7.82138 0.173735 14.3296
66 5 6.41035 9.74483 11.5135
67 5 4.26612 5.01048 15.8065
68 5 1.03543 4.53022 10.088
69 3 3.98879 6.93126 11.5653
70 3 1.44458 1.85351 14.9168
71 3 3.60353 2.67818 10.5987
72 3 1.79573 6.90034 15.1546
73 3 1.80898 7.0548 11.2264
74 3 3.31245 2.30744 14.4336
75 3 5.52458 2.14055 10.0711
76 3 8.89206 7.30076 15.6318
77 6 6.95508 0.134894 13.5017
78 6 7.27691 9.33214 12.3287
79 6 5.12982 5.15438 16.7103
80 6 9.28938 4.36215 9.24789
81 4 4.94687 7.27132 11.1565
82 4 9.49861 1.95742 15.2524
83 4 2.82638 2.85704 11.3254
84 4 2.5551 6.48937 14.4826
85 4 0.816735 7.02968 10.6986
86 4 4.36585 2.53512 14.7412
87 4 6.38761 1.55338 9.80998
88 4 7.89582 7.80879 15.5956
89 1 8.72063 10.2148 3.67907
90 1 5.04677 19.0344 4.64857
91 1 7.13586 15.1244 0.386501
92 1 6.66915 14.0718 8.03756
93 2 7.77477 18.5218 3.07425
94 2 5.94774 11.3041 4.89322
95 2 8.13166 13.4493 0.901044
96 2 5.4796 15.661 7.31639
97 2 6.4524 18.2108 3.3001
98 2 7.29624 11.3953 4.82223
99 2 0.355874 13.0661 0.581138
100 2 4.32871 16.2707 7.78786
101 2 7.19029 16.6282 1.71905
102 2 6.74244 12.7205 6.59095
103 2 8.60636 11.6108 2.35367
104 2 5.03678 17.6085 6.00533
105 5 1.17832 10.5623 4.97313
106 5 3.60031 19.0548 3.09682
107 5 1.4385 15.3829 7.53003
108 5 3.24559 13.9766 0.849586
109 5 3.07314 10.0261 5.75816
110 5 1.54728 19.2254 2.6402
111 5 8.52255 14.9242 7.06946
112 5 5.22969 14.385 1.36354
113 3 8.13256 17.6023 2.04139
114 3 5.70865 11.8717 6.21919
115 3 7.74846 12.6542 1.9625
116 3 5.88043 16.5661 6.2433
117 3 6.26584 17.0291 2.63764
118 3 7.78756 12.2697 5.77679
119 3 0.522891 12.0019 1.4552
120 3 3.95398 17.2422 6.85615
121 6 2.30493 10.0932 4.81183
122 6 2.42487 19.4287 3.44166
123 6 0.326378 15.1038 7.83022
124 6 4.36101 14.3953 0.529869
125 4 0.0956218 17.3207 2.03704
126 4 4.76168 12.3846 6.45918
127 4 6.68384 12.6675 2.12085
128 4 6.9002 16.6778 5.7996
129 4 5.2633 16.6461 2.74167
130 4 8.58215 12.9046 5.51139
131 4 1.30128 11.3047 1.24975
132 4 3.34692 18.0513 7.2259
133 1 4.44732 10.191 12.3216
134 1 0.7736 18.9925 13.4558
135 1 2.8447 15.0532 9.09315
136 1 2.3778 14.1148 16.6602
137 2 3.40982 18.4578 11.7613
138 2 1.88214 10.697 14.0504
139 2 3.9254 13.5757 9.6429
140 2 1.37995 15.6468 16.1199
141 2 2.05605 18.147 12.0874
142 2 3.16151 11.0871 13.6578
143 2 5.21898 13.1455 9.21269
144 2 9.26785 16.0517 16.5312
145 2 2.95745 16.5753 10.4609
146 2 2.39847 12.7048 15.2805
147 2 4.77842 11.8969 11.169
148 2 0.741552 17.6535 14.8718
149 5 6.00488 10.329 13.8815
150 5 8.50545 18.9857 11.8656
151 5 6.32675 15.5135 16.3107
152 5 8.24647 13.9691 9.44569
153 5 8.05205 10.063 14.2975
154 5 6.44011 19.1218 11.4201
155 5 4.40699 15.0978 15.7859
156 5 1.13662 14.3599 9.98218
157 3 3.88074 17.4687 10.9525
158 3 1.53016 11.6049 15.0377
159 3 3.75237 12.7601 10.7874
160 3 1.65919 16.6799 15.0727
161 3 1.91426 17.0951 11.2164
162 3 3.41645 12.1866 14.4616
163 3 5.5306 12.0701 10.0055
164 3 8.89004 17.1876 15.8176
165 6 7.06594 9.80642 13.6885
166 6 7.34303 19.1579 12.1954
167 6 5.3233 14.8242 16.5397
168 6 9.25466 14.5794 9.30432
169 4 4.91453 17.5899 10.6157
170 4 9.5788 11.5207 15.3566
171 4 3.186 13.2636 11.5495
172 4 2.70396 16.9358 14.8005
173 4 1.10398 16.3856 11.3697
174 4 4.13283 12.9184 14.1761
175 4 6.50492 11.5697 9.84386
176 4 7.91202 17.5925 15.9774
177 7 7.49582 13.3871 14.4735
178 8 7.14101 13.2746 15.3688
179 8 6.79581 13.7137 13.8983
180 7 6.96067 15.6751 12.5835
181 8 6.85374 16.6174 12.8351
182 8 7.87031 15.6392 12.2889
183 7 5.27189 4.79034 12.941
184 8 4.40607 4.76973 13.4003
185 8 5.33865 5.65935 12.5182
186 7 7.44211 4.67948 11.8785
187 8 6.98457 5.05135 12.6479
188 8 8.40145 3.38494 12.0334
189 7 2.81226 4.95751 4.30851
190 8 2.39871 5.76529 4.61349
191 8 2.5451 4.37682 3.60141
192 7 4.63284 2.76323 3.96134
193 8 4.84215 2.55456 3.03529
194 8 5.19493 3.55486 4.04204
195 9 2.89408 9.79968 9.62672
196 10 2.99532 9.3461 8.54743
197 10 2.40708 10.2539 10.5286
198 9 9.08486 11.7368 10.5657
199 10 8.50043 11.7355 11.5779
200 10 0.686626 11.6027 9.63953
201 9 7.20806 7.01072 9.76414
202 10 7.52381 6.52608 8.81611
203 10 6.90703 7.47319 10.77
204 9 1.75755 10.7482 7.73329
205 10 1.03884 9.86393 7.50935
206 10 2.6609 11.3511 8.19206
207 9 6.5134 9.16046 7.45876
208 10 7.32895 8.91053 6.69195
209 10 5.85629 8.98296 8.47832
210 9 9.23075 7.87912 6.99264
211 10 0.756861 7.59537 6.083
212 10 8.60137 7.98781 7.91775
ITEM: TIMESTEP
88
ITEM: NUMBER OF ATOMS
212
ITEM: BOX BOUNDS xy xz yz pp pp pp
-8.9429537451766627e-02 9.6462622442031787e+00 0.0000000000000000e+00
-1.9450406372029150e-01 1.9581503163720306e+01 6.4303250675139612e-01
-1.7118620877522339e-01 1.7234001308775262e+01 0.0000000000000000e+00
ITEM: ATOMS id type x y z
1 1 8.81493 0.329649 3.60872
2 1 4.95374 9.21647 4.70112
3 1 7.07555 5.32061 0.285196
4 1 6.66732 4.19837 8.05745
5 2 7.8009 8.64227 3.09115
6 2 6.25987 0.800729 5.40285
7 2 8.14622 3.64336 0.946778
8 2 5.4561 5.77347 7.22837
9 2 6.52444 8.20082 3.53456
10 2 7.37474 1.29085 4.86986
11 2 0.404691 3.31745 0.605872
12 2 4.26137 6.30227 7.75466
13 2 7.191 6.66248 1.86782
14 2 6.59792 2.67885 6.72061
15 2 8.78548 1.76042 2.26734
16 2 4.72991 7.49771 5.75867
17 5 1.09996 0.60925 5.21662
18 5 3.63145 8.97793 3.17146
19 5 1.49855 5.54518 7.58798
20 5 3.16953 4.05327 0.979484
21 5 3.11045 0.131753 5.67387
22 5 1.60303 9.4108 2.71964
23 5 8.67485 4.8416 7.05196
24 5 5.15401 4.50137 1.33982
25 3 8.12531 7.65476 2.13574
26 3 5.7771 1.68118 6.44654
27 3 7.88729 2.69574 1.98552
28 3 5.70319 6.6711 6.18041
29 3 6.26206 7.03949 2.86204
30 3 7.63118 2.38115 5.74798
31 3 0.702394 2.23219 1.40577
32 3 3.92038 7.16353 6.82233
33 6 2.17963 0.184319 4.82174
34 6 2.51921 9.33262 3.51276
35 6 0.436928 4.99264 7.94398
36 6 4.25815 4.41031 0.564417
37 4 0.0557201 7.42965 1.95176
38 4 4.75968 1.73533 6.82366
39 4 6.88602 2.37369 2.28537
40 4 6.71171 6.60017 5.65959
41 4 5.22048 6.6831 2.80944
42 4 8.63507 2.72182 6.01275
43 4 1.68471 1.73429 1.28261
44 4 2.92751 7.44703 6.85147
45 1 4.56795 0.355363 12.3729
46 1 0.822423 9.16053 13.343
47 1 2.96639 5.17791 9.0078
48 1 2.429 4.20533 16.7163
49 2 3.55965 8.06265 12.2381
50 2 1.72463 0.926279 13.8623
51 2 4.09448 3.7338 9.75813
52 2 1.40045 5.93205 16.1264
53 2 2.14724 8.14428 12.0394
54 2 3.05207 1.09707 13.7727
55 2 5.26265 3.32777 9.30036
56 2 9.242 6.32816 16.5346
57 2 3.09097 6.5881 10.6685
58 2 2.3763 2.75589 15.3154
59 2 4.49914 1.66742 10.8103
60 2 0.709467 7.63613 14.6516
61 5 5.79044 0.419174 13.8569
62 5 8.47195 9.22248 12.1133
63 5 6.27339 5.61077 16.3041
64 5 8.26273 3.75266 9.49757
65 5 7.8209 0.171756 14.3311
66 5 6.4131 9.75054 11.5189
67 5 4.26685 5.00898 15.8098
68 5 1.03456 4.52988 10.0889
69 3 3.98287 6.9265 11.5701
70 3 1.44325 1.85085 14.9172
71 3 3.60588 2.67676 10.598
72 3 1.79365 6.89922 15.1568
73 3 1.80918 7.05418 11.2268
74 3 3.31113 2.30336 14.4361
75 3 5.52454 2.14006 10.0701
76 3 8.89529 7.30059 15.6324
77 6 6.95457 0.131349 13.5009
78 6 7.27711 9.33488 12.331
79 6 5.12768 5.15291 16.7138
80 6 9.2936 4.35973 9.24883
81 4 4.94607 7.25661 11.1718
82 4 9.49908 1.96149 15.2496
83 4 2.83209 2.85128 11.3219
84 4 2.55261 6.48943 14.4873
85 4 0.822577 7.03726 10.6869
86 4 4.36938 2.53158 14.7475
87 4 6.3792 1.54341 9.81206
88 4 7.89075 7.80844 15.5992
89 1 8.72171 10.2148 3.678
90 1 5.04693 19.0371 4.64682
91 1 7.13648 15.1252 0.384339
92 1 6.67017 14.0729 8.03778
93 2 7.77456 18.5234 3.07146
94 2 5.94996 11.3068 4.89048
95 2 8.13317 13.4495 0.900252
96 2 5.47811 15.6619 7.31553
97 2 6.45458 18.2124 3.29683
98 2 7.29556 11.3975 4.82081
99 2 0.352745 13.0663 0.5798
100 2 4.32754 16.2712 7.78751
101 2 7.19194 16.6286 1.71787
102 2 6.74412 12.7237 6.5906
103 2 8.60661 11.6095 2.3516
104 2 5.0366 17.6122 6.0029
105 5 1.17876 10.5649 4.96968
106 5 3.59785 19.0604 3.09415
107 5 1.43763 15.3846 7.52829
108 5 3.24589 13.9789 0.847825
109 5 3.07247 10.0257 5.75552
110 5 1.54691 19.2281 2.63932
111 5 8.52456 14.9252 7.06985
112 5 5.23017 14.3875 1.36186
113 3 8.13354 17.6054 2.04032
114 3 5.71012 11.8779 6.21455
115 3 7.74856 12.6557 1.95988
116 3 5.87854 16.5689 6.24072
117 3 6.26701 17.0342 2.63655
118 3 7.78818 12.2716 5.7759
119 3 0.521432 12.0011 1.4538
120 3 3.95504 17.2458 6.85506
121 6 2.30523 10.093 4.80858
122 6 2.4259 19.4326 3.44051
123 6 0.323639 15.1058 7.8329
124 6 4.3606 14.3969 0.527251
125 4 0.0911772 17.3216 2.03819
126 4 4.75875 12.3895 6.45689
127 4 6.68837 12.6667 2.114
128 4 6.90628 16.6774 5.79704
129 4 5.26631 16.6474 2.7341
130 4 8.57383 12.8971 5.51116
131 4 1.29584 11.3087 1.24515
132 4 3.35212 18.0504 7.22966
133 1 4.44712 10.1905 12.323
134 1 0.771674 18.9949 13.4573
135 1 2.84344 15.0535 9.0934
136 1 2.37728 14.1162 16.6622
137 2 3.40858 18.4588 11.7616
138 2 1.88302 10.6967 14.0534
139 2 3.92716 13.579 9.64378
140 2 1.37821 15.6488 16.1216
141 2 2.05771 18.1482 12.0861
142 2 3.16037 11.0864 13.6595
143 2 5.21939 13.1471 9.21188
144 2 9.26837 16.0528 16.5335
145 2 2.9562 16.5769 10.4636
146 2 2.39841 12.7064 15.2823
147 2 4.78002 11.898 11.1718
148 2 0.740274 17.6575 14.874
149 5 6.00455 10.329 13.8842
150 5 8.5052 18.9902 11.8662
151 5 6.32728 15.5161 16.3142
152 5 8.24874 13.9706 9.44649
153 5 8.05403 10.0636 14.2986
154 5 6.44151 19.1227 11.4214
155 5 4.40659 15.1 15.7884
156 5 1.13549 14.3628 9.98113
157 3 3.87699 17.4718 10.9557
158 3 1.52954 11.6042 15.0391
159 3 3.75413 12.7633 10.7913
160 3 1.65856 16.6809 15.0748
161 3 1.91451 17.0968 11.2157
162 3 3.41631 12.1885 14.4637
163 3 5.53187 12.0704 10.0052
164 3 8.89017 17.1894 15.8211
165 6 7.06644 9.80365 13.6911
166 6 7.34329 19.1608 12.1981
167 6 5.32472 14.8253 16.5416
168 6 9.25787 14.5848 9.30353
169 4 4.91249 17.5907 10.6207
170 4 9.58244 11.5213 15.352
171 4 3.19179 13.2667 11.547
172 4 2.70523 16.9422 14.8012
173 4 1.10118 16.3895 11.3697
174 4 4.12964 12.9124 14.1716
175 4 6.51237 11.5687 9.84412
176 4 7.92026 17.5941 15.9826
177 7 7.4983 13.3872 14.475
178 8 7.14433 13.2782 15.3749
179 8 6.80051 13.7255 13.9039
180 7 6.96192 15.6764 12.5847
181 8 6.84896 16.6218 12.8382
182 8 7.86623 15.6393 12.2871
183 7 5.27033 4.78849 12.9416
184 8 4.41103 4.76832 13.409
185 8 5.32792 5.65469 12.51
186 7 7.44892 4.66473 11.887
187 8 6.97926 5.03562 12.6507
188 8 8.37554 3.3806 12.0463
189 7 2.81048 4.95856 4.30629
190 8 2.38571 5.75887 4.6095
191 8 2.54797 4.38167 3.59906
192 7 4.63277 2.76225 3.95685
193 8 4.84243 2.54806 3.0333
194 8 5.18834 3.55438 4.04271
195 9 2.88756 9.80249 9.62452
196 10 2.99359 9.35238 8.54316
197 10 2.40551 10.2506 10.5257
198 9 9.08683 11.7362 10.5665
199 10 8.50234 11.7433 11.5791
200 10 0.684194 11.5984 9.63792
201 9 7.20806 7.01303 9.7605
202 10 7.52598 6.52603 8.81148
203 10 6.90429 7.47444 10.7703
204 9 1.75804 10.7492 7.73173
205 10 1.03682 9.86609 7.51139
206 10 2.66105 11.3552 8.18683
207 9 6.51902 9.15827 7.4623
208 10 7.32944 8.91071 6.69558
209 10 5.85921 8.98881 8.48178
210 9 9.23404 7.87707 6.99296
211 10 0.753149 7.59819 6.07995
212 10 8.60845 7.98826 7.91899
ITEM: TIMESTEP
89
ITEM: NUMBER OF ATOMS
212
ITEM: BOX BOUNDS xy xz yz pp pp pp
-9.0675270607967207e-02 9.6476841737591243e+00 0.0000000000000000e+00
-1.9721346117549743e-01 1.9584212561175512e+01 6.4320870315114154e-01
-1.7357079380419727e-01 1.7236385893804236e+01 0.0000000000000000e+00
ITEM: ATOMS id type x y z
1 1 8.81692 0.32692 3.607
2 1 4.95292 9.21734 4.69975
3 1 7.07554 5.31947 0.282435
4 1 6.66851 4.19692 8.05801
5 2 7.80136 8.64115 3.09093
6 2 6.26075 0.79603 5.40345
7 2 8.14788 3.642 0.944704
8 2 5.45249 5.7717 7.22598
9 2 6.52552 8.20143 3.53366
10 2 7.37508 1.28773 4.87069
11 2 0.403239 3.31615 0.604746
12 2 4.26041 6.3013 7.75101
13 2 7.19261 6.65979 1.86752
14 2 6.59935 2.67722 6.72056
15 2 8.78705 1.75775 2.26496
16 2 4.72858 7.49417 5.75673
17 5 1.09955 0.606913 5.21598
18 5 3.63046 8.97818 3.16939
19 5 1.49926 5.5439 7.5894
20 5 3.16947 4.05273 0.977986
21 5 3.108 0.129138 5.6711
22 5 1.60436 9.41072 2.71925
23 5 8.67807 4.83745 7.05182
24 5 5.15292 4.50077 1.33731
25 3 8.12621 7.65332 2.13421
26 3 5.78167 1.67698 6.44541
27 3 7.89051 2.69258 1.98356
28 3 5.6981 6.66825 6.17718
29 3 6.2641 7.038 2.86082
30 3 7.63145 2.38124 5.74996
31 3 0.701057 2.23006 1.40469
32 3 3.92003 7.16071 6.8176
33 6 2.18134 0.181638 4.82073
34 6 2.51781 9.33337 3.51278
35 6 0.433592 4.98837 7.94295
36 6 4.25905 4.40924 0.563711
37 4 0.0510058 7.4324 1.95586
38 4 4.76455 1.72811 6.81984
39 4 6.88594 2.36986 2.27932
40 4 6.70284 6.59096 5.64402
41 4 5.22134 6.68126 2.81396
42 4 8.63808 2.71881 6.00688
43 4 1.68465 1.7293 1.28117
44 4 2.92741 7.43539 6.85488
45 1 4.56839 0.3525 12.3742
46 1 0.821178 9.16058 13.3436
47 1 2.96633 5.1756 9.00756
48 1 2.42877 4.20414 16.719
49 2 3.55691 8.05325 12.2438
50 2 1.72484 0.925507 13.8657
51 2 4.09544 3.73135 9.75948
52 2 1.39834 5.93236 16.1277
53 2 2.149 8.14128 12.0416
54 2 3.05066 1.09562 13.7752
55 2 5.26234 3.32459 9.30231
56 2 9.24347 6.32744 16.5358
57 2 3.09429 6.58329 10.6742
58 2 2.37506 2.75251 15.3148
59 2 4.49926 1.66403 10.8102
60 2 0.708035 7.63653 14.6529
61 5 5.79078 0.414579 13.8581
62 5 8.4706 9.22442 12.1149
63 5 6.27116 5.61041 16.3069
64 5 8.26662 3.7475 9.49671
65 5 7.82048 0.169779 14.3327
66 5 6.41586 9.75625 11.5244
67 5 4.26759 5.00748 15.8131
68 5 1.03374 4.52955 10.0899
69 3 3.97704 6.92192 11.575
70 3 1.44187 1.84813 14.9175
71 3 3.60828 2.67541 10.5974
72 3 1.79153 6.89802 15.1591
73 3 1.80952 7.05358 11.2273
74 3 3.30989 2.29928 14.4387
75 3 5.52449 2.13967 10.0691
76 3 8.89849 7.30047 15.633
77 6 6.95402 0.127828 13.5001
78 6 7.2773 9.33767 12.3332
79 6 5.1256 5.15151 16.7171
80 6 9.29781 4.35728 9.24985
81 4 4.94437 7.24134 11.1873
82 4 9.49963 1.96563 15.2468
83 4 2.8376 2.84554 11.3184
84 4 2.55011 6.48978 14.4919
85 4 0.828866 7.04485 10.6753
86 4 4.37254 2.5279 14.7535
87 4 6.37087 1.53328 9.81413
88 4 7.88603 7.80778 15.6029
89 1 8.72279 10.2148 3.67693
90 1 5.0471 19.0399 4.64507
91 1 7.13711 15.126 0.382179
92 1 6.67118 14.0741 8.03799
93 2 7.77435 18.5249 3.06861
94 2 5.95214 11.3095 4.88791
95 2 8.13472 13.4497 0.899492
96 2 5.47666 15.6628 7.31458
97 2 6.45677 18.2139 3.29358
98 2 7.29497 11.3997 4.81941
99 2 0.349561 13.0664 0.578499
100 2 4.32633 16.2716 7.78713
101 2 7.19362 16.629 1.71674
102 2 6.74581 12.7268 6.5902
103 2 8.60684 11.6083 2.34945
104 2 5.03635 17.6159 6.00052
105 5 1.17922 10.5675 4.96624
106 5 3.59533 19.0661 3.09152
107 5 1.4368 15.3864 7.52653
108 5 3.2462 13.9813 0.846043
109 5 3.07184 10.0252 5.75282
110 5 1.54651 19.2309 2.63847
111 5 8.52653 14.9261 7.07021
112 5 5.23068 14.39 1.36017
113 3 8.13452 17.6086 2.03929
114 3 5.71162 11.8843 6.20979
115 3 7.74867 12.6571 1.95726
116 3 5.87665 16.5717 6.2382
117 3 6.26812 17.0393 2.63546
118 3 7.78867 12.2735 5.77503
119 3 0.519974 12.0004 1.45243
120 3 3.95621 17.2494 6.85397
121 6 2.30546 10.0929 4.80538
122 6 2.42707 19.4364 3.43925
123 6 0.320923 15.1079 7.83565
124 6 4.36014 14.3984 0.524728
125 4 0.0867154 17.3224 2.03918
126 4 4.75578 12.394 6.45441
127 4 6.69277 12.6655 2.10743
128 4 6.91205 16.6768 5.7948
129 4 5.26926 16.6483 2.72631
130 4 8.56599 12.89 5.51086
131 4 1.29066 11.3125 1.24049
132 4 3.35715 18.0494 7.23347
133 1 4.44694 10.19 12.3244
134 1 0.76974 18.9974 13.4587
135 1 2.84218 15.0538 9.09364
136 1 2.37677 14.1176 16.6641
137 2 3.40729 18.4598 11.7621
138 2 1.88392 10.6964 14.0563
139 2 3.92901 13.5822 9.64473
140 2 1.37652 15.6509 16.1232
141 2 2.05948 18.1493 12.0848
142 2 3.15919 11.0856 13.6612
143 2 5.21975 13.1487 9.21112
144 2 9.26879 16.0539 16.5359
145 2 2.95494 16.5785 10.4663
146 2 2.39833 12.7078 15.284
147 2 4.78157 11.8991 11.1746
148 2 0.738958 17.6614 14.8763
149 5 6.00419 10.329 13.8868
150 5 8.50495 18.9948 11.8667
151 5 6.3278 15.5187 16.3177
152 5 8.25096 13.9721 9.44731
153 5 8.05606 10.0643 14.2997
154 5 6.44288 19.1237 11.4227
155 5 4.40615 15.1022 15.791
156 5 1.13439 14.3656 9.98009
157 3 3.87326 17.475 10.9589
158 3 1.52893 11.6035 15.0405
159 3 3.7559 12.7665 10.7951
160 3 1.65797 16.6817 15.0769
161 3 1.91472 17.0984 11.2149
162 3 3.41613 12.1904 14.4659
163 3 5.53317 12.0706 10.0049
164 3 8.89037 17.1911 15.8246
165 6 7.06691 9.80088 13.6938
166 6 7.34354 19.1638 12.2009
167 6 5.32617 14.8265 16.5434
168 6 9.26105 14.5902 9.30269
169 4 4.91027 17.5911 10.6255
170 4 9.58615 11.5222 15.3475
171 4 3.19737 13.2696 11.5448
172 4 2.70627 16.9483 14.8021
173 4 1.09828 16.3936 11.3697
174 4 4.12682 12.9065 14.1669
175 4 6.51953 11.5677 9.84452
176 4 7.92829 17.596 15.9879
177 7 7.50077 13.3873 14.4765
178 8 7.1476 13.2818 15.3806
179 8 6.80525 13.7374 13.9097
180 7 6.96315 15.6778 12.5859
181 8 6.84422 16.6258 12.8412
182 8 7.86226 15.6394 12.2852
183 7 5.26874 4.78664 12.9423
184 8 4.41627 4.76708 13.4176
185 8 5.31703 5.64988 12.5018
186 7 7.45579 4.64995 11.8954
187 8 6.9743 5.01936 12.6538
188 8 8.34859 3.37774 12.0593
189 7 2.80875 4.9596 4.30409
190 8 2.37237 5.75227 4.60513
191 8 2.5505 4.3868 3.59662
192 7 4.63272 2.76128 3.95234
193 8 4.84252 2.54152 3.03146
194 8 5.18152 3.5538 4.04354
195 9 2.88105 9.80517 9.62217
196 10 2.99194 9.35856 8.53898
197 10 2.40394 10.2474 10.523
198 9 9.0888 11.7356 10.5673
199 10 8.50426 11.7511 11.5802
200 10 0.68173 11.5941 9.63633
201 9 7.20803 7.01536 9.75697
202 10 7.52812 6.5259 8.80681
203 10 6.90159 7.47563 10.7705
204 9 1.75859 10.7503 7.7302
205 10 1.03477 9.86829 7.51341
206 10 2.66113 11.3594 8.18152
207 9 6.52455 9.15599 7.46601
208 10 7.32988 8.91097 6.69912
209 10 5.86217 8.9947 8.48515
210 9 9.23737 7.87498 6.99328
211 10 0.749473 7.601 6.07681
212 10 8.61556 7.98873 7.92031
ITEM: TIMESTEP
90
ITEM: NUMBER OF ATOMS
212
ITEM: BOX BOUNDS xy xz yz pp pp pp
-9.1918480164407512e-02 9.6491032227775566e+00 0.0000000000000000e+00
-1.9991736994740528e-01 1.9586916469947422e+01 6.4338454261313516e-01
-1.7595054815320132e-01 1.7238765648153240e+01 0.0000000000000000e+00
ITEM: ATOMS id type x y z
1 1 8.8189 0.324201 3.60528
2 1 4.95211 9.21822 4.69838
3 1 7.07554 5.31834 0.279687
4 1 6.6697 4.19548 8.05857
5 2 7.80176 8.63996 3.09071
6 2 6.26152 0.791352 5.40411
7 2 8.1496 3.64057 0.942665
8 2 5.44884 5.77 7.22357
9 2 6.52663 8.20206 3.53272
10 2 7.37552 1.28468 4.8716
11 2 0.401732 3.31485 0.603657
12 2 4.25952 6.30021 7.74733
13 2 7.19421 6.65714 1.86728
14 2 6.60086 2.67561 6.72046
15 2 8.7887 1.75508 2.26253
16 2 4.72727 7.49064 5.75486
17 5 1.09913 0.604562 5.2153
18 5 3.62948 8.97843 3.16732
19 5 1.49994 5.54258 7.59088
20 5 3.1694 4.0522 0.976451
21 5 3.10556 0.126518 5.66829
22 5 1.60566 9.41064 2.71886
23 5 8.68127 4.8333 7.05172
24 5 5.15189 4.50018 1.33482
25 3 8.12707 7.65191 2.1327
26 3 5.78624 1.67273 6.44422
27 3 7.89367 2.68947 1.98157
28 3 5.69313 6.66534 6.17397
29 3 6.26613 7.03651 2.85951
30 3 7.63164 2.38131 5.75197
31 3 0.699719 2.22791 1.40363
32 3 3.91965 7.15796 6.81284
33 6 2.18309 0.178999 4.81989
34 6 2.51643 9.33411 3.51277
35 6 0.430298 4.98415 7.94173
36 6 4.25995 4.40815 0.563094
37 4 0.046624 7.43517 1.95985
38 4 4.76937 1.72068 6.81596
39 4 6.88583 2.36637 2.27311
40 4 6.69335 6.58174 5.62863
41 4 5.22239 6.67937 2.81855
42 4 8.6411 2.71571 6.0007
43 4 1.68431 1.72434 1.27982
44 4 2.92688 7.42415 6.8582
45 1 4.56881 0.349636 12.3755
46 1 0.81993 9.16063 13.3441
47 1 2.96628 5.17329 9.00732
48 1 2.42855 4.20296 16.7217
49 2 3.55408 8.04386 12.2495
50 2 1.72502 0.924765 13.8692
51 2 4.09628 3.72887 9.76086
52 2 1.39624 5.9327 16.1289
53 2 2.15079 8.13819 12.0437
54 2 3.0493 1.09425 13.7776
55 2 5.26211 3.3213 9.30428
56 2 9.24491 6.32672 16.537
57 2 3.09742 6.57846 10.6799
58 2 2.37381 2.74913 15.3142
59 2 4.49938 1.66066 10.81
60 2 0.706664 7.63693 14.6543
61 5 5.79115 0.409968 13.8592
62 5 8.46926 9.22635 12.1165
63 5 6.26885 5.61001 16.3097
64 5 8.27051 3.74235 9.49581
65 5 7.8201 0.167805 14.3343
66 5 6.41863 9.76194 11.5298
67 5 4.26833 5.00598 15.8165
68 5 1.03297 4.52924 10.0908
69 3 3.97129 6.91751 11.5798
70 3 1.44045 1.84536 14.9179
71 3 3.61073 2.67412 10.5967
72 3 1.78936 6.89675 15.1613
73 3 1.80999 7.053 11.2278
74 3 3.30873 2.29518 14.4413
75 3 5.52445 2.13936 10.0681
76 3 8.90164 7.30041 15.6336
77 6 6.95344 0.124333 13.4994
78 6 7.27747 9.34052 12.3354
79 6 5.12359 5.15019 16.7202
80 6 9.30197 4.35478 9.25096
81 4 4.94182 7.2255 11.203
82 4 9.50026 1.96982 15.2439
83 4 2.84286 2.83986 11.3149
84 4 2.54761 6.49041 14.4964
85 4 0.835601 7.05247 10.6637
86 4 4.37528 2.52407 14.7593
87 4 6.36265 1.523 9.81615
88 4 7.88174 7.80676 15.6068
89 1 8.72387 10.2148 3.67586
90 1 5.04726 19.0426 4.64332
91 1 7.13773 15.1268 0.38002
92 1 6.67219 14.0752 8.03821
93 2 7.77415 18.5264 3.0657
94 2 5.95428 11.3122 4.88553
95 2 8.1363 13.4499 0.898762
96 2 5.47526 15.6639 7.31353
97 2 6.45897 18.2155 3.29036
98 2 7.29445 11.4018 4.81803
99 2 0.346325 13.0666 0.577235
100 2 4.32508 16.2719 7.78674
101 2 7.19532 16.6295 1.71566
102 2 6.7475 12.73 6.58978
103 2 8.60708 11.6071 2.34721
104 2 5.03604 17.6195 5.99819
105 5 1.1797 10.5702 4.9628
106 5 3.59276 19.0718 3.08893
107 5 1.43601 15.3881 7.52476
108 5 3.24651 13.9836 0.84424
109 5 3.07126 10.0247 5.75007
110 5 1.54606 19.2337 2.63765
111 5 8.52845 14.927 7.07055
112 5 5.23123 14.3925 1.35848
113 3 8.13548 17.6117 2.03831
114 3 5.71314 11.8907 6.20494
115 3 7.74881 12.6585 1.95464
116 3 5.87479 16.5745 6.23575
117 3 6.26919 17.0444 2.63435
118 3 7.78903 12.2753 5.77416
119 3 0.518513 11.9996 1.45107
120 3 3.95747 17.253 6.85288
121 6 2.30562 10.0929 4.80225
122 6 2.42838 19.4401 3.43788
123 6 0.318237 15.1099 7.83847
124 6 4.35963 14.3999 0.522299
125 4 0.0822642 17.3232 2.04001
126 4 4.75281 12.398 6.45172
127 4 6.69701 12.6639 2.10116
128 4 6.91743 16.6758 5.7929
129 4 5.27214 16.649 2.7183
130 4 8.55872 12.8832 5.51045
131 4 1.2858 11.3161 1.23577
132 4 3.36197 18.0486 7.23731
133 1 4.44678 10.1895 12.3257
134 1 0.7678 18.9998 13.4601
135 1 2.84092 15.0542 9.09388
136 1 2.37626 14.119 16.6661
137 2 3.40596 18.4609 11.7626
138 2 1.88486 10.6961 14.0592
139 2 3.93096 13.5854 9.64573
140 2 1.37489 15.6531 16.1246
141 2 2.06134 18.1505 12.0835
142 2 3.15798 11.0849 13.6629
143 2 5.22007 13.1504 9.2104
144 2 9.26912 16.055 16.5383
145 2 2.95369 16.5802 10.4691
146 2 2.39824 12.7092 15.2856
147 2 4.78307 11.9002 11.1772
148 2 0.737602 17.6653 14.8786
149 5 6.0038 10.329 13.8895
150 5 8.5047 18.9993 11.8673
151 5 6.32831 15.5212 16.3213
152 5 8.25315 13.9735 9.44817
153 5 8.05812 10.065 14.3008
154 5 6.44421 19.1247 11.4239
155 5 4.40568 15.1043 15.7936
156 5 1.13332 14.3685 9.97908
157 3 3.86956 17.4782 10.9621
158 3 1.52833 11.6028 15.0419
159 3 3.75768 12.7697 10.7988
160 3 1.65742 16.6825 15.0791
161 3 1.91489 17.0999 11.2142
162 3 3.41592 12.1924 14.4681
163 3 5.53451 12.0709 10.0047
164 3 8.89065 17.1928 15.8281
165 6 7.06733 9.79811 13.6964
166 6 7.34379 19.1668 12.2036
167 6 5.32764 14.8279 16.545
168 6 9.2642 14.5956 9.30179
169 4 4.90785 17.5912 10.6301
170 4 0.492273 11.5235 15.3433
171 4 3.20272 13.2725 11.5428
172 4 2.70705 16.9542 14.803
173 4 1.0953 16.398 11.3698
174 4 4.12439 12.9006 14.1621
175 4 6.52634 11.567 9.84506
176 4 7.93606 17.5982 15.9931
177 7 7.50324 13.3874 14.478
178 8 7.15085 13.2855 15.3858
179 8 6.81002 13.7493 13.9157
180 7 6.96436 15.6792 12.5871
181 8 6.83953 16.6292 12.844
182 8 7.85847 15.6393 12.2833
183 7 5.26713 4.7848 12.943
184 8 4.42175 4.766 13.4261
185 8 5.30596 5.64492 12.4938
186 7 7.46273 4.63513 11.9038
187 8 6.96969 5.00256 12.6572
188 8 8.32056 3.37645 12.0724
189 7 2.80708 4.96064 4.30194
190 8 2.35869 5.74552 4.60038
191 8 2.55266 4.39216 3.59403
192 7 4.63268 2.76033 3.9478
193 8 4.84244 2.53494 3.02977
194 8 5.17451 3.55316 4.0445
195 9 2.87456 9.80772 9.61962
196 10 2.99039 9.36462 8.53489
197 10 2.40236 10.2443 10.5203
198 9 9.09078 11.7349 10.5682
199 10 8.50618 11.759 11.5813
200 10 0.679231 11.5899 9.63474
201 9 7.20796 7.01772 9.75356
202 10 7.53024 6.5257 8.80209
203 10 6.89894 7.47676 10.7707
204 9 1.75918 10.7514 7.72872
205 10 1.03269 9.87053 7.51542
206 10 2.66116 11.3636 8.17614
207 9 6.52998 9.15364 7.46989
208 10 7.33026 8.91131 6.70256
209 10 5.86516 9.00062 8.48843
210 9 9.24074 7.87285 6.9936
211 10 0.745836 7.60381 6.07358
212 10 8.62269 7.98923 7.92172
ITEM: TIMESTEP
91
ITEM: NUMBER OF ATOMS
212
ITEM: BOX BOUNDS xy xz yz pp pp pp
-9.3159370635737204e-02 9.6505196246996636e+00 0.0000000000000000e+00
-2.0261623484353208e-01 1.9589615334843550e+01 6.4356005406391281e-01
-1.7832586330460565e-01 1.7241140963304645e+01 0.0000000000000000e+00
ITEM: ATOMS id type x y z
1 1 8.82088 0.321493 3.60356
2 1 4.9513 9.2191 4.697
3 1 7.07554 5.31721 0.276951
4 1 6.67089 4.19405 8.05914
5 2 7.80212 8.63869 3.09048
6 2 6.26217 0.786696 5.40482
7 2 8.15138 3.63909 0.940661
8 2 5.44516 5.76835 7.22115
9 2 6.52775 8.2027 3.53175
10 2 7.37603 1.28169 4.87257
11 2 0.400172 3.31356 0.602603
12 2 4.25868 6.299 7.74364
13 2 7.1958 6.65452 1.86711
14 2 6.60248 2.67402 6.7203
15 2 8.79042 1.75242 2.26005
16 2 4.72596 7.48713 5.75304
17 5 1.09872 0.602194 5.21458
18 5 3.6285 8.97867 3.16528
19 5 1.50059 5.54123 7.59241
20 5 3.16932 4.05168 0.974881
21 5 3.10311 0.123893 5.66542
22 5 1.60694 9.41055 2.71846
23 5 8.68445 4.82913 7.05165
24 5 5.15091 4.49959 1.33235
25 3 8.1279 7.65053 2.13122
26 3 5.79082 1.66843 6.44295
27 3 7.89676 2.68641 1.97956
28 3 5.68828 6.66238 6.17076
29 3 6.26815 7.03502 2.85813
30 3 7.63176 2.38135 5.75402
31 3 0.69838 2.22575 1.40259
32 3 3.91924 7.15527 6.80805
33 6 2.18485 0.176405 4.81922
34 6 2.51506 9.33483 3.51271
35 6 0.427059 4.97999 7.94032
36 6 4.26084 4.40703 0.56256
37 4 0.0426203 7.43792 1.9637
38 4 4.77411 1.71305 6.81204
39 4 6.88573 2.36323 2.26674
40 4 6.68325 6.5725 5.61345
41 4 5.22364 6.67742 2.82321
42 4 8.64412 2.71252 5.99424
43 4 1.68367 1.71942 1.27857
44 4 2.92591 7.41332 6.86139
45 1 4.56923 0.346771 12.3768
46 1 0.818679 9.16068 13.3446
47 1 2.96623 5.17101 9.00709
48 1 2.42833 4.20178 16.7244
49 2 3.55117 8.0345 12.2552
50 2 1.72519 0.92405 13.8728
51 2 4.09701 3.72635 9.76228
52 2 1.39414 5.93307 16.1302
53 2 2.1526 8.13502 12.0459
54 2 3.048 1.09294 13.78
55 2 5.26196 3.31793 9.30626
56 2 9.24631 6.32598 16.5381
57 2 3.10036 6.57359 10.6855
58 2 2.37256 2.74573 15.3135
59 2 4.49951 1.6573 10.8099
60 2 0.705356 7.63731 14.6558
61 5 5.79156 0.405342 13.8602
62 5 8.46792 9.22827 12.118
63 5 6.26645 5.60957 16.3127
64 5 8.2744 3.73721 9.49488
65 5 7.81977 0.165833 14.3359
66 5 6.42141 9.76762 11.5352
67 5 4.26908 5.00448 15.8199
68 5 1.03225 4.52893 10.0918
69 3 3.96563 6.91326 11.5845
70 3 1.43897 1.84255 14.9182
71 3 3.61323 2.67288 10.596
72 3 1.78714 6.89541 15.1635
73 3 1.81059 7.05244 11.2282
74 3 3.30765 2.29108 14.4439
75 3 5.5244 2.13913 10.067
76 3 8.90474 7.30041 15.6341
77 6 6.95283 0.120865 13.4988
78 6 7.27762 9.34342 12.3377
79 6 5.12164 5.14894 16.723
80 6 9.3061 4.35224 9.25213
81 4 4.93849 7.20912 11.2189
82 4 9.50096 1.97406 15.2409
83 4 2.84785 2.83424 11.3115
84 4 2.54513 6.49129 14.5008
85 4 0.842779 7.0601 10.6524
86 4 4.37755 2.52009 14.7648
87 4 6.35456 1.51259 9.81811
88 4 7.87794 7.80538 15.6108
89 1 8.72495 10.2148 3.67479
90 1 5.04743 19.0454 4.64157
91 1 7.13836 15.1276 0.377862
92 1 6.67319 14.0763 8.03842
93 2 7.77397 18.5278 3.06273
94 2 5.95637 11.3147 4.88333
95 2 8.13792 13.4501 0.898059
96 2 5.47391 15.6651 7.31239
97 2 6.46118 18.217 3.28717
98 2 7.29402 11.404 4.81667
99 2 0.34304 13.0668 0.576007
100 2 4.3238 16.2722 7.78631
101 2 7.19705 16.6299 1.71464
102 2 6.7492 12.7331 6.58931
103 2 8.60731 11.6059 2.34488
104 2 5.03567 17.6232 5.99591
105 5 1.1802 10.5728 4.95938
106 5 3.59014 19.0775 3.08637
107 5 1.43524 15.3899 7.52298
108 5 3.24682 13.986 0.842416
109 5 3.07072 10.0241 5.74727
110 5 1.54557 19.2365 2.63685
111 5 8.53033 14.928 7.07086
112 5 5.2318 14.395 1.35679
113 3 8.13643 17.6148 2.03736
114 3 5.71467 11.8971 6.19998
115 3 7.74896 12.6599 1.95203
116 3 5.87296 16.5773 6.23335
117 3 6.27021 17.0495 2.63322
118 3 7.78926 12.2771 5.7733
119 3 0.517044 11.9989 1.44974
120 3 3.95884 17.2566 6.85181
121 6 2.30571 10.0928 4.79918
122 6 2.42982 19.4438 3.4364
123 6 0.315588 15.1119 7.84134
124 6 4.35908 14.4013 0.519966
125 4 0.0778511 17.324 2.04068
126 4 4.74988 12.4015 6.44882
127 4 6.70101 12.6621 2.09519
128 4 6.92234 16.6745 5.79136
129 4 5.27494 16.6495 2.7101
130 4 8.55212 12.877 5.50992
131 4 1.28128 11.3195 1.23097
132 4 3.36656 18.0479 7.2412
133 1 4.44663 10.189 12.3271
134 1 0.765852 19.0022 13.4615
135 1 2.83967 15.0546 9.09411
136 1 2.37577 14.1204 16.668
137 2 3.40459 18.4619 11.7631
138 2 1.88583 10.6959 14.0621
139 2 3.93301 13.5886 9.6468
140 2 1.37333 15.6554 16.1259
141 2 2.0633 18.1516 12.0821
142 2 3.15672 11.0842 13.6646
143 2 5.22034 13.152 9.20972
144 2 9.26936 16.0562 16.5406
145 2 2.95243 16.5818 10.4719
146 2 2.39814 12.7104 15.2872
147 2 4.78453 11.9013 11.1798
148 2 0.736208 17.6692 14.8809
149 5 6.00339 10.329 13.8921
150 5 8.50444 19.0038 11.8679
151 5 6.32882 15.5238 16.3249
152 5 8.2553 13.9749 9.44905
153 5 8.06022 10.0657 14.3019
154 5 6.4455 19.1256 11.4251
155 5 4.40517 15.1064 15.7961
156 5 1.13228 14.3713 9.97808
157 3 3.86588 17.4813 10.9651
158 3 1.52775 11.6022 15.0433
159 3 3.75947 12.773 10.8025
160 3 1.6569 16.6832 15.0814
161 3 1.91501 17.1013 11.2134
162 3 3.41567 12.1944 14.4704
163 3 5.53587 12.0711 10.0045
164 3 8.89101 17.1944 15.8315
165 6 7.0677 9.79535 13.6991
166 6 7.34404 19.1698 12.2063
167 6 5.32914 14.8293 16.5466
168 6 9.26732 14.601 9.30085
169 4 4.90524 17.5909 10.6346
170 4 0.493547 11.5251 15.3393
171 4 3.20779 13.2752 11.5412
172 4 2.70754 16.9597 14.804
173 4 1.09224 16.4025 11.37
174 4 4.12238 12.895 14.157
175 4 6.53275 11.5665 9.84575
176 4 7.94349 17.6008 15.9983
177 7 7.50571 13.3875 14.4795
178 8 7.15411 13.2892 15.3905
179 8 6.81482 13.7612 13.9217
180 7 6.96555 15.6807 12.5884
181 8 6.83493 16.6321 12.8467
182 8 7.85494 15.6392 12.2812
183 7 5.26549 4.78296 12.9437
184 8 4.42745 4.76508 13.4347
185 8 5.29474 5.63977 12.4859
186 7 7.46973 4.62026 11.9122
187 8 6.96544 4.98519 12.6609
188 8 8.29141 3.3768 12.0854
189 7 2.80545 4.96167 4.29983
190 8 2.34467 5.73865 4.59527
191 8 2.55443 4.39768 3.59126
192 7 4.63265 2.75939 3.94325
193 8 4.84221 2.52835 3.02819
194 8 5.16734 3.5525 4.0456
195 9 2.86812 9.81014 9.61688
196 10 2.98892 9.37058 8.53091
197 10 2.40076 10.2412 10.5179
198 9 9.09277 11.7342 10.5691
199 10 8.50812 11.7668 11.5824
200 10 0.676697 11.5857 9.63316
201 9 7.20786 7.0201 9.75027
202 10 7.53233 6.52544 8.79734
203 10 6.89634 7.47784 10.7709
204 9 1.75983 10.7525 7.72726
205 10 1.03057 9.87281 7.51741
206 10 2.66112 11.368 8.17069
207 9 6.5353 9.15122 7.47395
208 10 7.33061 8.91172 6.70589
209 10 5.86819 9.00659 8.49163
210 9 9.24415 7.87068 6.99392
211 10 0.742237 7.6066 6.07027
212 10 8.62985 7.98975 7.92323
ITEM: TIMESTEP
92
ITEM: NUMBER OF ATOMS
212
ITEM: BOX BOUNDS xy xz yz pp pp pp
-9.4398162972018973e-02 9.6519336317266653e+00 0.0000000000000000e+00
-2.0531053641746588e-01 1.9592309636417486e+01 6.4373526875463416e-01
-1.8069716220148635e-01 1.7243512262201527e+01 0.0000000000000000e+00
ITEM: ATOMS id type x y z
1 1 8.82285 0.318794 3.60185
2 1 4.95049 9.21999 4.69562
3 1 7.07554 5.31608 0.274227
4 1 6.67209 4.19261 8.05971
5 2 7.80243 8.63733 3.09026
6 2 6.2627 0.78206 5.40558
7 2 8.15321 3.63754 0.938693
8 2 5.44145 5.76676 7.21871
9 2 6.5289 8.20335 3.53075
10 2 7.37664 1.27877 4.87362
11 2 0.398559 3.31227 0.601584
12 2 4.2579 6.29768 7.73994
13 2 7.19739 6.65194 1.867
14 2 6.60419 2.67245 6.72008
15 2 8.79221 1.74976 2.25753
16 2 4.72466 7.48364 5.75128
17 5 1.09831 0.599808 5.21381
18 5 3.62753 8.97893 3.16325
19 5 1.5012 5.53985 7.594
20 5 3.16923 4.05117 0.973276
21 5 3.10066 0.121261 5.66251
22 5 1.60818 9.41047 2.71805
23 5 8.68762 4.82496 7.0516
24 5 5.14999 4.49902 1.32991
25 3 8.1287 7.64918 2.12976
26 3 5.79541 1.66408 6.44162
27 3 7.89977 2.6834 1.97751
28 3 5.68356 6.65936 6.16756
29 3 6.27014 7.03354 2.85668
30 3 7.63181 2.38135 5.7561
31 3 0.697045 2.22357 1.40155
32 3 3.91881 7.15264 6.80326
33 6 2.18663 0.173855 4.81871
34 6 2.51371 9.33552 3.5126
35 6 0.423887 4.97589 7.93873
36 6 4.26171 4.40587 0.562105
37 4 0.0390353 7.44064 1.96739
38 4 4.77877 1.70523 6.80808
39 4 6.88564 2.36043 2.2602
40 4 6.6725 6.56325 5.59851
41 4 5.22511 6.67542 2.82791
42 4 8.64715 2.70927 5.98751
43 4 1.68272 1.71457 1.27743
44 4 2.92449 7.40294 6.86444
45 1 4.56964 0.343904 12.378
46 1 0.817424 9.16073 13.3452
47 1 2.96618 5.16873 9.00687
48 1 2.42811 4.20061 16.7271
49 2 3.54816 8.02518 12.2609
50 2 1.72533 0.923358 13.8765
51 2 4.09763 3.72379 9.76373
52 2 1.39206 5.93346 16.1313
53 2 2.15442 8.13177 12.0481
54 2 3.04677 1.09171 13.7824
55 2 5.26187 3.31446 9.30825
56 2 9.24766 6.32525 16.5392
57 2 3.1031 6.56869 10.6911
58 2 2.37131 2.74233 15.3128
59 2 4.49964 1.65397 10.8098
60 2 0.704112 7.63769 14.6573
61 5 5.79201 0.4007 13.8613
62 5 8.46659 9.23018 12.1194
63 5 6.26397 5.60909 16.3156
64 5 8.27829 3.73207 9.49392
65 5 7.81949 0.163862 14.3375
66 5 6.42421 9.77329 11.5407
67 5 4.26982 5.00298 15.8234
68 5 1.03159 4.52863 10.0927
69 3 3.96006 6.90918 11.5892
70 3 1.43744 1.8397 14.9184
71 3 3.61577 2.6717 10.5952
72 3 1.78487 6.89401 15.1658
73 3 1.81134 7.0519 11.2286
74 3 3.30666 2.28698 14.4465
75 3 5.52435 2.13897 10.0658
76 3 8.90778 7.30046 15.6347
77 6 6.9522 0.117426 13.4983
78 6 7.27777 9.34637 12.3399
79 6 5.11977 5.14778 16.7256
80 6 9.31017 4.34965 9.25338
81 4 4.93448 7.19221 11.2349
82 4 9.50173 1.97834 15.2379
83 4 2.85252 2.82869 11.3082
84 4 2.54268 6.49243 14.505
85 4 0.850396 7.06775 10.6412
86 4 4.3793 2.51594 14.7699
87 4 6.34662 1.50207 9.81996
88 4 7.8747 7.80361 15.615
89 1 8.72603 10.2148 3.67373
90 1 5.04759 19.0481 4.63983
91 1 7.13899 15.1284 0.375704
92 1 6.67419 14.0775 8.03863
93 2 7.77379 18.5292 3.0597
94 2 5.95841 11.3172 4.8813
95 2 8.13958 13.4503 0.897383
96 2 5.47261 15.6663 7.31115
97 2 6.46339 18.2185 3.28401
98 2 7.29368 11.406 4.81533
99 2 0.339709 13.0669 0.574814
100 2 4.32247 16.2725 7.78586
101 2 7.1988 16.6304 1.71367
102 2 6.75091 12.7362 6.58881
103 2 8.60753 11.6048 2.34245
104 2 5.03524 17.6268 5.99368
105 5 1.18072 10.5754 4.95595
106 5 3.58748 19.0833 3.08385
107 5 1.43451 15.3916 7.52118
108 5 3.24714 13.9883 0.84057
109 5 3.07023 10.0236 5.74441
110 5 1.54504 19.2394 2.63608
111 5 8.53217 14.9289 7.07114
112 5 5.23241 14.3975 1.35509
113 3 8.13735 17.618 2.03644
114 3 5.71621 11.9037 6.19492
115 3 7.74915 12.6613 1.94943
116 3 5.87116 16.5799 6.23102
117 3 6.27119 17.0546 2.63207
118 3 7.78935 12.2789 5.77246
119 3 0.515566 11.9982 1.44842
120 3 3.96031 17.2602 6.85074
121 6 2.30571 10.0928 4.79618
122 6 2.43138 19.4474 3.43481
123 6 0.312981 15.1139 7.84427
124 6 4.35849 14.4027 0.517729
125 4 0.0735028 17.3247 2.04119
126 4 4.74702 12.4045 6.44569
127 4 6.70475 12.66 2.08952
128 4 6.92674 16.6728 5.7902
129 4 5.27766 16.6498 2.70173
130 4 8.54629 12.8713 5.50924
131 4 1.27714 11.3227 1.22609
132 4 3.3709 18.0473 7.24513
133 1 4.44649 10.1885 12.3285
134 1 0.763898 19.0047 13.4629
135 1 2.83843 15.0549 9.09433
136 1 2.37528 14.1218 16.67
137 2 3.40318 18.463 11.7637
138 2 1.88681 10.6957 14.065
139 2 3.93515 13.5917 9.64794
140 2 1.37183 15.6578 16.1271
141 2 2.06535 18.1527 12.0807
142 2 3.15544 11.0835 13.6663
143 2 5.22057 13.1536 9.20909
144 2 9.26952 16.0574 16.543
145 2 2.95117 16.5836 10.4748
146 2 2.39802 12.7115 15.2887
147 2 4.78594 11.9024 11.1822
148 2 0.734776 17.673 14.8834
149 5 6.00295 10.3291 13.8948
150 5 8.50419 19.0083 11.8685
151 5 6.32932 15.5262 16.3285
152 5 8.25742 13.9763 9.44996
153 5 8.06235 10.0664 14.3031
154 5 6.44675 19.1266 11.4263
155 5 4.40462 15.1084 15.7987
156 5 1.13127 14.3742 9.97709
157 3 3.86223 17.4845 10.9681
158 3 1.52719 11.6015 15.0447
159 3 3.76128 12.7763 10.8061
160 3 1.65641 16.6838 15.0838
161 3 1.91508 17.1027 11.2127
162 3 3.41538 12.1964 14.4726
163 3 5.53727 12.0714 10.0043
164 3 8.89146 17.1961 15.8348
165 6 7.06803 9.7926 13.7018
166 6 7.34428 19.1728 12.209
167 6 5.33065 14.8308 16.548
168 6 9.27039 14.6064 9.29986
169 4 4.90243 17.5903 10.6388
170 4 0.494789 11.5271 15.3355
171 4 3.21255 13.2779 11.5399
172 4 2.70773 16.965 14.8052
173 4 1.08913 16.4073 11.3702
174 4 4.12082 12.8895 14.1517
175 4 6.53872 11.5662 9.84658
176 4 7.95053 17.6037 16.0035
177 7 7.50818 13.3876 14.4811
178 8 7.15737 13.293 15.3946
179 8 6.81967 13.7732 13.928
180 7 6.9667 15.6822 12.5896
181 8 6.83044 16.6343 12.8491
182 8 7.85173 15.6391 12.2791
183 7 5.26383 4.78113 12.9444
184 8 4.43334 4.76431 13.4432
185 8 5.28338 5.63442 12.4781
186 7 7.4768 4.60535 11.9205
187 8 6.96156 4.96722 12.6649
188 8 8.26111 3.37889 12.0985
189 7 2.80387 4.96271 4.29776
190 8 2.3303 5.73168 4.58983
191 8 2.55581 4.40333 3.58823
192 7 4.63263 2.75846 3.93868
193 8 4.84184 2.52176 3.02672
194 8 5.16006 3.55185 4.0468
195 9 2.86171 9.81242 9.61393
196 10 2.98754 9.37643 8.52702
197 10 2.39913 10.2382 10.5155
198 9 9.09476 11.7334 10.57
199 10 8.51006 11.7747 11.5834
200 10 0.674125 11.5815 9.6316
201 9 7.20774 7.0225 9.7471
202 10 7.53438 6.52512 8.79256
203 10 6.89379 7.47885 10.771
204 9 1.76053 10.7537 7.72584
205 10 1.02842 9.87513 7.51939
206 10 2.66103 11.3724 8.16516
207 9 6.54051 9.14874 7.4782
208 10 7.33093 8.9122 6.70911
209 10 5.87125 9.0126 8.49473
210 9 9.24759 7.86847 6.99424
211 10 0.738678 7.60939 6.06687
212 10 8.63703 7.99029 7.92483
ITEM: TIMESTEP
93
ITEM: NUMBER OF ATOMS
212
ITEM: BOX BOUNDS xy xz yz pp pp pp
-9.5635093864796517e-02 9.6533455140277411e+00 0.0000000000000000e+00
-2.0800078945960365e-01 1.9594999889459626e+01 6.4391022016293264e-01
-1.8306489791929437e-01 1.7245879997919332e+01 0.0000000000000000e+00
ITEM: ATOMS id type x y z
1 1 8.82482 0.316104 3.60015
2 1 4.94969 9.22087 4.69424
3 1 7.07555 5.31495 0.271514
4 1 6.67328 4.19118 8.06028
5 2 7.80269 8.6359 3.09002
6 2 6.26312 0.777445 5.40638
7 2 8.1551 3.63594 0.936761
8 2 5.43771 5.76524 7.21626
9 2 6.53006 8.20401 3.52971
10 2 7.37732 1.27593 4.87473
11 2 0.396895 3.31098 0.600599
12 2 4.25718 6.29623 7.73622
13 2 7.19896 6.64941 1.86696
14 2 6.60598 2.6709 6.71981
15 2 8.79407 1.74711 2.25497
16 2 4.72337 7.48017 5.74957
17 5 1.0979 0.597404 5.213
18 5 3.62656 8.97918 3.16123
19 5 1.50176 5.53842 7.59564
20 5 3.16912 4.05066 0.971635
21 5 3.09823 0.118622 5.65956
22 5 1.60939 9.41038 2.71764
23 5 8.69076 4.82078 7.05159
24 5 5.14913 4.49845 1.32749
25 3 8.12946 7.64786 2.12832
26 3 5.79999 1.65969 6.44022
27 3 7.90269 2.68044 1.97544
28 3 5.67897 6.65628 6.16436
29 3 6.27212 7.03207 2.85515
30 3 7.63179 2.38132 5.75821
31 3 0.695713 2.22139 1.40054
32 3 3.91835 7.15007 6.79845
33 6 2.18841 0.17135 4.81836
34 6 2.51239 9.3362 3.51244
35 6 0.420796 4.97185 7.93695
36 6 4.26256 4.40469 0.561723
37 4 0.0359038 7.44331 1.97092
38 4 4.78333 1.69723 6.8041
39 4 6.8856 2.35797 2.25351
40 4 6.66113 6.55398 5.58383
41 4 5.2268 6.67334 2.83266
42 4 8.65016 2.70596 5.98055
43 4 1.68143 1.7098 1.27638
44 4 2.92259 7.39301 6.86731
45 1 4.57005 0.341034 12.3793
46 1 0.816165 9.16078 13.3457
47 1 2.96613 5.16647 9.00666
48 1 2.42789 4.19944 16.7298
49 2 3.54508 8.01589 12.2666
50 2 1.72544 0.922687 13.8803
51 2 4.09815 3.7212 9.76521
52 2 1.38999 5.93387 16.1325
53 2 2.15625 8.12843 12.0503
54 2 3.04559 1.09054 13.7848
55 2 5.26186 3.3109 9.31024
56 2 9.24898 6.32451 16.5403
57 2 3.10563 6.56377 10.6966
58 2 2.37005 2.73892 15.3121
59 2 4.49977 1.65067 10.8097
60 2 0.702933 7.63806 14.6589
61 5 5.79248 0.396042 13.8623
62 5 8.46527 9.23207 12.1207
63 5 6.2614 5.60856 16.3186
64 5 8.28219 3.72695 9.49294
65 5 7.81925 0.161891 14.3391
66 5 6.42701 9.77896 11.5461
67 5 4.27057 5.00147 15.8268
68 5 1.03097 4.52834 10.0937
69 3 3.95459 6.90524 11.5939
70 3 1.43587 1.8368 14.9187
71 3 3.61838 2.67055 10.5944
72 3 1.78255 6.89254 15.168
73 3 1.81221 7.05137 11.2291
74 3 3.30576 2.28288 14.4492
75 3 5.5243 2.13886 10.0646
76 3 8.91075 7.30057 15.6352
77 6 6.95154 0.114015 13.4978
78 6 7.2779 9.34937 12.3422
79 6 5.11798 5.14669 16.728
80 6 9.3142 4.347 9.2547
81 4 4.9299 7.17481 11.2511
82 4 9.50258 1.98263 15.2348
83 4 2.85683 2.82325 11.305
84 4 2.54029 6.4938 14.5092
85 4 0.858445 7.07541 10.6301
86 4 4.3805 2.51162 14.7747
87 4 6.33885 1.49146 9.8217
88 4 7.87207 7.80144 15.6193
89 1 8.72711 10.2149 3.67266
90 1 5.04775 19.0509 4.63809
91 1 7.13962 15.1292 0.373546
92 1 6.67519 14.0786 8.03884
93 2 7.77364 18.5305 3.05661
94 2 5.9604 11.3197 4.87945
95 2 8.14126 13.4505 0.896732
96 2 5.47135 15.6677 7.30981
97 2 6.46561 18.22 3.28088
98 2 7.29342 11.4081 4.81401
99 2 0.336336 13.0671 0.573657
100 2 4.32112 16.2726 7.78539
101 2 7.20058 16.6309 1.71275
102 2 6.75262 12.7393 6.58827
103 2 8.60775 11.6038 2.33993
104 2 5.03474 17.6304 5.9915
105 5 1.18126 10.5781 4.95254
106 5 3.58479 19.089 3.08135
107 5 1.4338 15.3934 7.51937
108 5 3.24744 13.9907 0.838703
109 5 3.06977 10.023 5.7415
110 5 1.54447 19.2422 2.63534
111 5 8.53396 14.9298 7.0714
112 5 5.23305 14.4001 1.35338
113 3 8.13826 17.6211 2.03556
114 3 5.71775 11.9103 6.18976
115 3 7.74937 12.6626 1.94683
116 3 5.8694 16.5826 6.22875
117 3 6.27212 17.0597 2.63088
118 3 7.78929 12.2806 5.77163
119 3 0.514073 11.9974 1.44713
120 3 3.96189 17.2638 6.84968
121 6 2.30565 10.0929 4.79325
122 6 2.43305 19.4508 3.4331
123 6 0.310422 15.1159 7.84723
124 6 4.35786 14.404 0.515585
125 4 0.0692449 17.3255 2.04155
126 4 4.74427 12.4069 6.44233
127 4 6.70815 12.6577 2.08415
128 4 6.93055 16.6709 5.78943
129 4 5.28028 16.6499 2.69322
130 4 8.54129 12.8663 5.50839
131 4 1.2734 11.3255 1.22113
132 4 3.37498 18.047 7.2491
133 1 4.44637 10.1879 12.33
134 1 0.761936 19.0071 13.4643
135 1 2.83718 15.0553 9.09454
136 1 2.37481 14.1232 16.672
137 2 3.40173 18.4641 11.7643
138 2 1.88782 10.6954 14.0679
139 2 3.93738 13.5947 9.64915
140 2 1.37039 15.6603 16.1282
141 2 2.06749 18.1538 12.0793
142 2 3.15412 11.0829 13.6681
143 2 5.22077 13.1552 9.2085
144 2 9.26958 16.0586 16.5454
145 2 2.94991 16.5853 10.4777
146 2 2.39787 12.7126 15.2902
147 2 4.78731 11.9035 11.1846
148 2 0.733305 17.6768 14.8858
149 5 6.0025 10.3291 13.8975
150 5 8.50395 19.0128 11.8691
151 5 6.32982 15.5286 16.3321
152 5 8.25951 13.9777 9.4509
153 5 8.06452 10.0671 14.3043
154 5 6.44796 19.1275 11.4275
155 5 4.40404 15.1105 15.8013
156 5 1.13029 14.377 9.97613
157 3 3.85862 17.4877 10.971
158 3 1.52666 11.6009 15.046
159 3 3.76311 12.7796 10.8096
160 3 1.65596 16.6843 15.0862
161 3 1.91509 17.104 11.212
162 3 3.41506 12.1984 14.4749
163 3 5.53871 12.0716 10.0042
164 3 8.89201 17.1976 15.8381
165 6 7.06832 9.78987 13.7045
166 6 7.34451 19.1758 12.2117
167 6 5.33218 14.8324 16.5493
168 6 9.27342 14.6118 9.29884
169 4 4.89942 17.5893 10.6429
170 4 0.495961 11.5295 15.3319
171 4 3.21698 13.2807 11.5392
172 4 2.7076 16.9699 14.8065
173 4 1.08595 16.4123 11.3705
174 4 4.11972 12.8844 14.1463
175 4 6.54419 11.5662 9.84757
176 4 7.95713 17.6071 16.0087
177 7 7.51065 13.3877 14.4826
178 8 7.16066 13.297 15.3982
179 8 6.82454 13.7851 13.9344
180 7 6.96782 15.6837 12.5908
181 8 6.82607 16.6358 12.8515
182 8 7.84891 15.6389 12.2769
183 7 5.26215 4.77931 12.9451
184 8 4.43937 4.76369 13.4517
185 8 5.27188 5.62884 12.4704
186 7 7.48393 4.59039 11.9288
187 8 6.95807 4.94863 12.6691
188 8 8.22962 3.38279 12.1115
189 7 2.80235 4.96375 4.29573
190 8 2.31558 5.72464 4.58407
191 8 2.55678 4.40904 3.58491
192 7 4.63261 2.75752 3.9341
193 8 4.84135 2.51517 3.02533
194 8 5.15269 3.55127 4.04811
195 9 2.85536 9.81455 9.61075
196 10 2.98624 9.38218 8.52323
197 10 2.39747 10.2353 10.5134
198 9 9.09676 11.7327 10.571
199 10 8.51201 11.7827 11.5844
200 10 0.671513 11.5773 9.63006
201 9 7.20758 7.02492 9.74404
202 10 7.53641 6.52474 8.78777
203 10 6.89129 7.47981 10.7711
204 9 1.76127 10.7549 7.72445
205 10 1.02624 9.87749 7.52134
206 10 2.66087 11.3769 8.15957
207 9 6.54559 9.1462 7.48263
208 10 7.33123 8.91274 6.7122
209 10 5.87434 9.01863 8.49775
210 9 9.25107 7.86623 6.99456
211 10 0.73516 7.61217 6.06338
212 10 8.64424 7.99086 7.92652
ITEM: TIMESTEP
94
ITEM: NUMBER OF ATOMS
212
ITEM: BOX BOUNDS xy xz yz pp pp pp
-9.6870415521782327e-02 9.6547555594828420e+00 0.0000000000000000e+00
-2.1068754250710775e-01 1.9597686642507131e+01 6.4408494396104710e-01
-1.8542955323456134e-01 1.7248244653234597e+01 0.0000000000000000e+00
ITEM: ATOMS id type x y z
1 1 8.82678 0.313423 3.59845
2 1 4.94888 9.22176 4.69285
3 1 7.07557 5.31382 0.268813
4 1 6.67447 4.18975 8.06085
5 2 7.80291 8.63438 3.08979
6 2 6.26343 0.77285 5.40723
7 2 8.15705 3.63427 0.934867
8 2 5.43394 5.76376 7.21379
9 2 6.53125 8.20468 3.52864
10 2 7.37809 1.27315 4.87592
11 2 0.395183 3.30969 0.599646
12 2 4.2565 6.29467 7.73249
13 2 7.20053 6.64691 1.86696
14 2 6.60787 2.66937 6.71948
15 2 8.79601 1.74446 2.25236
16 2 4.72208 7.47673 5.74791
17 5 1.0975 0.59498 5.21214
18 5 3.62559 8.97944 3.15924
19 5 1.50227 5.53695 7.59733
20 5 3.16901 4.05016 0.969958
21 5 3.09581 0.115975 5.65656
22 5 1.61057 9.4103 2.71722
23 5 8.69388 4.81658 7.05159
24 5 5.14834 4.49789 1.3251
25 3 8.13017 7.64657 2.12691
26 3 5.80457 1.65526 6.43876
27 3 7.90553 2.67753 1.97334
28 3 5.67452 6.65314 6.16116
29 3 6.27407 7.03061 2.85356
30 3 7.63171 2.38124 5.76032
31 3 0.694387 2.21919 1.39953
32 3 3.91786 7.14756 6.79364
33 6 2.19018 0.168892 4.81816
34 6 2.51109 9.33685 3.51223
35 6 0.417799 4.96788 7.935
36 6 4.26338 4.40349 0.561409
37 4 0.033255 7.44591 1.97427
38 4 4.78781 1.68905 6.8001
39 4 6.88563 2.35585 2.24666
40 4 6.64912 6.54469 5.56944
41 4 5.22871 6.67119 2.83744
42 4 8.65314 2.70263 5.97338
43 4 1.6798 1.70511 1.27542
44 4 2.92023 7.38356 6.86998
45 1 4.57045 0.338161 12.3806
46 1 0.814903 9.16082 13.3462
47 1 2.96608 5.16422 9.00645
48 1 2.42767 4.19828 16.7325
49 2 3.54191 8.00665 12.2723
50 2 1.72552 0.922031 13.8841
51 2 4.09855 3.71858 9.76672
52 2 1.38794 5.9343 16.1336
53 2 2.15809 8.12502 12.0525
54 2 3.04448 1.08944 13.7871
55 2 5.26192 3.30725 9.31224
56 2 9.25026 6.32377 16.5413
57 2 3.10796 6.55882 10.7021
58 2 2.36878 2.73551 15.3113
59 2 4.49992 1.6474 10.8097
60 2 0.70182 7.63841 14.6605
61 5 5.79299 0.391367 13.8632
62 5 8.46396 9.23396 12.122
63 5 6.25876 5.60799 16.3217
64 5 8.28608 3.72184 9.49192
65 5 7.81906 0.15992 14.3407
66 5 6.42982 9.78461 11.5515
67 5 4.2713 4.99996 15.8304
68 5 1.03041 4.52806 10.0947
69 3 3.94922 6.90145 11.5986
70 3 1.43424 1.83387 14.919
71 3 3.62103 2.66945 10.5936
72 3 1.78018 6.89102 15.1703
73 3 1.81323 7.05085 11.2295
74 3 3.30496 2.27879 14.452
75 3 5.52423 2.13881 10.0634
76 3 8.91365 7.30074 15.6357
77 6 6.95087 0.110635 13.4975
78 6 7.27802 9.35241 12.3444
79 6 5.11627 5.14569 16.7302
80 6 9.31817 4.34431 9.25608
81 4 4.92484 7.15693 11.2675
82 4 9.5035 1.98694 15.2316
83 4 2.86075 2.81791 11.302
84 4 2.53798 6.49539 14.5132
85 4 0.866918 7.08307 10.6193
86 4 4.38113 2.50712 14.7792
87 4 6.33127 1.48079 9.82329
88 4 7.87009 7.79887 15.6237
89 1 8.72819 10.2149 3.67159
90 1 5.04792 19.0536 4.63635
91 1 7.14025 15.1301 0.371388
92 1 6.67619 14.0797 8.03904
93 2 7.7735 18.5318 3.05347
94 2 5.96234 11.3221 4.87777
95 2 8.14298 13.4507 0.896105
96 2 5.47015 15.6692 7.30838
97 2 6.46782 18.2215 3.27779
98 2 7.29326 11.4101 4.81271
99 2 0.332923 13.0673 0.572535
100 2 4.31972 16.2728 7.78488
101 2 7.20238 16.6314 1.71189
102 2 6.75434 12.7424 6.58769
103 2 8.60796 11.6029 2.33732
104 2 5.03419 17.634 5.98936
105 5 1.18182 10.5808 4.94913
106 5 3.58206 19.0948 3.07889
107 5 1.43311 15.3951 7.51755
108 5 3.24775 13.9931 0.836814
109 5 3.06936 10.0223 5.73854
110 5 1.54386 19.2451 2.63462
111 5 8.5357 14.9306 7.07164
112 5 5.23371 14.4027 1.35166
113 3 8.13914 17.6243 2.03471
114 3 5.7193 11.9171 6.1845
115 3 7.74963 12.6639 1.94424
116 3 5.86768 16.5852 6.22655
117 3 6.27302 17.0648 2.62966
118 3 7.78908 12.2823 5.77081
119 3 0.512563 11.9967 1.44585
120 3 3.96356 17.2674 6.84864
121 6 2.3055 10.0929 4.79039
122 6 2.43482 19.4543 3.43129
123 6 0.307918 15.118 7.85023
124 6 4.35721 14.4053 0.513536
125 4 0.0651017 17.3262 2.04177
126 4 4.74166 12.4089 6.43873
127 4 6.7112 12.655 2.07909
128 4 6.93373 16.6687 5.78905
129 4 5.28279 16.6498 2.68458
130 4 8.53721 12.8619 5.50734
131 4 1.27009 11.328 1.21609
132 4 3.37878 18.0468 7.25312
133 1 4.44627 10.1874 12.3314
134 1 0.759967 19.0096 13.4657
135 1 2.83595 15.0557 9.09475
136 1 2.37433 14.1245 16.6739
137 2 3.40025 18.4652 11.765
138 2 1.88885 10.6952 14.0709
139 2 3.9397 13.5977 9.65042
140 2 1.36901 15.663 16.1292
141 2 2.0697 18.1548 12.0779
142 2 3.15277 11.0823 13.6699
143 2 5.22092 13.1569 9.20795
144 2 9.26957 16.0598 16.5477
145 2 2.94865 16.5871 10.4806
146 2 2.39771 12.7135 15.2917
147 2 4.78862 11.9046 11.1869
148 2 0.731799 17.6805 14.8884
149 5 6.00203 10.3292 13.9002
150 5 8.5037 19.0174 11.8698
151 5 6.33031 15.531 16.3358
152 5 8.26158 13.9791 9.45185
153 5 8.06673 10.0678 14.3055
154 5 6.44913 19.1285 11.4287
155 5 4.40342 15.1124 15.8039
156 5 1.12934 14.3799 9.97518
157 3 3.85505 17.4909 10.9739
158 3 1.52616 11.6004 15.0474
159 3 3.76496 12.783 10.8131
160 3 1.65554 16.6848 15.0887
161 3 1.91505 17.1053 11.2113
162 3 3.41469 12.2004 14.4772
163 3 5.54019 12.0719 10.0041
164 3 8.89265 17.1992 15.8413
165 6 7.06855 9.78715 13.7073
166 6 7.34474 19.1788 12.2143
167 6 5.33372 14.8341 16.5505
168 6 9.27638 14.6172 9.29779
169 4 4.89623 17.5881 10.6468
170 4 0.497029 11.5321 15.3286
171 4 3.22105 13.2834 11.5389
172 4 2.70713 16.9745 14.808
173 4 1.08273 16.4174 11.3707
174 4 4.11911 12.8795 14.1407
175 4 6.54914 11.5664 9.8487
176 4 7.96323 17.6109 16.014
177 7 7.5131 13.3878 14.4842
178 8 7.16399 13.3009 15.4012
179 8 6.82947 13.7972 13.941
180 7 6.96889 15.6853 12.5921
181 8 6.82185 16.6367 12.8536
182 8 7.84653 15.6387 12.2745
183 7 5.26045 4.7775 12.9458
184 8 4.44552 4.7632 13.4602
185 8 5.26025 5.62304 12.4629
186 7 7.49113 4.57537 11.9371
187 8 6.95495 4.92941 12.6735
188 8 8.19693 3.3886 12.1245
189 7 2.80089 4.9648 4.29375
190 8 2.30052 5.71755 4.57801
191 8 2.55734 4.41476 3.58124
192 7 4.63259 2.75658 3.92951
193 8 4.84076 2.5086 3.02399
194 8 5.14527 3.55079 4.04949
195 9 2.84907 9.81652 9.60733
196 10 2.98503 9.38781 8.51954
197 10 2.39578 10.2324 10.5114
198 9 9.09877 11.7319 10.572
199 10 8.51398 11.7906 11.5854
200 10 0.668862 11.5732 9.62853
201 9 7.2074 7.02735 9.74109
202 10 7.53839 6.5243 8.78296
203 10 6.88882 7.4807 10.7711
204 9 1.76206 10.7562 7.72309
205 10 1.02403 9.8799 7.52328
206 10 2.66066 11.3815 8.15391
207 9 6.55054 9.14361 7.48727
208 10 7.33151 8.91335 6.71517
209 10 5.87747 9.0247 8.50068
210 9 9.25459 7.86394 6.99487
211 10 0.731684 7.61493 6.0598
212 10 8.65147 7.99145 7.92831
ITEM: TIMESTEP
95
ITEM: NUMBER OF ATOMS
212
ITEM: BOX BOUNDS xy xz yz pp pp pp
-9.8104395032797775e-02 9.6561640729589513e+00 0.0000000000000000e+00
-2.1337137646486859e-01 1.9600370476464892e+01 6.4425947792614080e-01
-1.8779163941118782e-01 1.7250606739411225e+01 0.0000000000000000e+00
ITEM: ATOMS id type x y z
1 1 8.82873 0.31075 3.59675
2 1 4.94808 9.22265 4.69146
3 1 7.07558 5.31269 0.266121
4 1 6.67566 4.18831 8.06142
5 2 7.80309 8.63279 3.08954
6 2 6.26364 0.768277 5.40813
7 2 8.15906 3.63254 0.93301
8 2 5.43016 5.76234 7.21131
9 2 6.53244 8.20535 3.52753
10 2 7.37895 1.27045 4.87718
11 2 0.393424 3.3084 0.598725
12 2 4.25588 6.293 7.72875
13 2 7.20209 6.64444 1.86703
14 2 6.60985 2.66786 6.71911
15 2 8.79802 1.74181 2.2497
16 2 4.72079 7.47331 5.74629
17 5 1.0971 0.592534 5.21124
18 5 3.62462 8.9797 3.15727
19 5 1.50273 5.53544 7.59908
20 5 3.16889 4.04966 0.968247
21 5 3.09341 0.113319 5.65354
22 5 1.61171 9.41022 2.71678
23 5 8.69697 4.81237 7.05161
24 5 5.14761 4.49734 1.32273
25 3 8.13085 7.64532 2.12554
26 3 5.80914 1.65077 6.43724
27 3 7.90829 2.67468 1.9712
28 3 5.67021 6.64994 6.15796
29 3 6.276 7.02917 2.8519
30 3 7.63157 2.38111 5.76244
31 3 0.693067 2.21697 1.39853
32 3 3.91734 7.14511 6.78883
33 6 2.19194 0.16648 4.81811
34 6 2.50984 9.33747 3.51197
35 6 0.414906 4.96399 7.93289
36 6 4.26416 4.40225 0.561156
37 4 0.0311111 7.44843 1.97744
38 4 4.79217 1.6807 6.7961
39 4 6.88574 2.35407 2.23967
40 4 6.6365 6.53538 5.55536
41 4 5.23086 6.66895 2.84224
42 4 8.65609 2.69929 5.96601
43 4 1.67783 1.70052 1.27456
44 4 2.9174 7.37461 6.87242
45 1 4.57084 0.335285 12.3818
46 1 0.813637 9.16086 13.3468
47 1 2.96603 5.16199 9.00625
48 1 2.42745 4.19713 16.7352
49 2 3.53868 7.99746 12.2779
50 2 1.72557 0.921387 13.8879
51 2 4.09884 3.71593 9.76826
52 2 1.3859 5.93475 16.1346
53 2 2.15993 8.12152 12.0548
54 2 3.04343 1.08839 13.7895
55 2 5.26206 3.30353 9.31423
56 2 9.2515 6.32303 16.5422
57 2 3.11007 6.55383 10.7075
58 2 2.36751 2.73209 15.3106
59 2 4.50007 1.64415 10.8096
60 2 0.700774 7.63876 14.6621
61 5 5.79353 0.386676 13.8641
62 5 8.46266 9.23583 12.1232
63 5 6.25603 5.60739 16.3249
64 5 8.28998 3.71673 9.49087
65 5 7.81891 0.157948 14.3423
66 5 6.43263 9.79025 11.5569
67 5 4.27203 4.99845 15.8339
68 5 1.02991 4.52779 10.0957
69 3 3.94394 6.8978 11.6033
70 3 1.43256 1.8309 14.9192
71 3 3.62373 2.66838 10.5927
72 3 1.77776 6.88944 15.1726
73 3 1.81439 7.05033 11.2298
74 3 3.30425 2.27469 14.4547
75 3 5.52416 2.1388 10.0622
76 3 8.91647 7.30096 15.6362
77 6 6.95019 0.107285 13.4972
78 6 7.27814 9.3555 12.3467
79 6 5.11464 5.14476 16.7321
80 6 9.32207 4.34157 9.25752
81 4 4.91942 7.13861 11.2839
82 4 9.50449 1.99126 15.2284
83 4 2.86425 2.81269 11.2992
84 4 2.53575 6.4972 14.517
85 4 0.875807 7.09074 10.6086
86 4 4.38116 2.50244 14.7834
87 4 6.3239 1.47008 9.82472
88 4 7.86882 7.79588 15.6282
89 1 8.72927 10.2149 3.67052
90 1 5.04808 19.0563 4.63461
91 1 7.14089 15.1309 0.369229
92 1 6.67718 14.0808 8.03925
93 2 7.77338 18.533 3.05028
94 2 5.96422 11.3244 4.87627
95 2 8.14471 13.4509 0.895498
96 2 5.46899 15.6708 7.30685
97 2 6.47004 18.2231 3.27474
98 2 7.2932 11.4121 4.81143
99 2 0.329473 13.0674 0.571447
100 2 4.3183 16.2729 7.78434
101 2 7.2042 16.632 1.71108
102 2 6.75607 12.7454 6.58707
103 2 8.60817 11.602 2.33462
104 2 5.03358 17.6375 5.98728
105 5 1.18241 10.5834 4.94572
106 5 3.57931 19.1006 3.07646
107 5 1.43243 15.3969 7.51573
108 5 3.24805 13.9955 0.834903
109 5 3.069 10.0217 5.73552
110 5 1.54322 19.248 2.63394
111 5 8.5374 14.9315 7.07185
112 5 5.2344 14.4053 1.34993
113 3 8.14 17.6274 2.03388
114 3 5.72084 11.9239 6.17915
115 3 7.74994 12.6651 1.94166
116 3 5.86601 16.5877 6.22441
117 3 6.27388 17.0698 2.62839
118 3 7.78871 12.284 5.77
119 3 0.511033 11.996 1.44459
120 3 3.96534 17.2709 6.84762
121 6 2.30528 10.0931 4.7876
122 6 2.43668 19.4576 3.42937
123 6 0.305473 15.12 7.85324
124 6 4.35653 14.4066 0.511578
125 4 0.061096 17.3269 2.04184
126 4 4.73921 12.4103 6.43489
127 4 6.71384 12.652 2.07434
128 4 6.93623 16.6662 5.78907
129 4 5.2852 16.6496 2.67583
130 4 8.53409 12.8583 5.50609
131 4 1.26723 11.3301 1.21097
132 4 3.3823 18.0469 7.25718
133 1 4.44618 10.1869 12.3329
134 1 0.75799 19.012 13.4671
135 1 2.83471 15.0561 9.09494
136 1 2.37387 14.1259 16.6759
137 2 3.39874 18.4663 11.7657
138 2 1.8899 10.6951 14.0738
139 2 3.94211 13.6006 9.65177
140 2 1.36768 15.6657 16.1301
141 2 2.07199 18.1558 12.0764
142 2 3.1514 11.0817 13.6717
143 2 5.22104 13.1585 9.20745
144 2 9.26947 16.0611 16.5501
145 2 2.9474 16.5889 10.4836
146 2 2.39752 12.7143 15.2931
147 2 4.7899 11.9057 11.189
148 2 0.730256 17.6842 14.891
149 5 6.00154 10.3293 13.903
150 5 8.50346 19.0219 11.8704
151 5 6.3308 15.5334 16.3395
152 5 8.26363 13.9805 9.45283
153 5 8.06896 10.0685 14.3067
154 5 6.45027 19.1295 11.4299
155 5 4.40277 15.1144 15.8065
156 5 1.12842 14.3827 9.97424
157 3 3.85151 17.4941 10.9767
158 3 1.5257 11.5999 15.0487
159 3 3.76684 12.7863 10.8164
160 3 1.65515 16.6852 15.0913
161 3 1.91496 17.1065 11.2106
162 3 3.41428 12.2023 14.4795
163 3 5.54171 12.0721 10.0041
164 3 8.8934 17.2007 15.8444
165 6 7.06875 9.78446 13.7101
166 6 7.34497 19.1818 12.2169
167 6 5.33526 14.8359 16.5515
168 6 9.27929 14.6225 9.29671
169 4 4.89285 17.5865 10.6506
170 4 0.49796 11.5352 15.3255
171 4 3.22474 13.2861 11.5391
172 4 2.70632 16.9788 14.8097
173 4 1.07946 16.4228 11.371
174 4 4.11898 12.875 14.1349
175 4 6.55352 11.5669 9.84998
176 4 7.9688 17.6151 16.0193
177 7 7.51556 13.3879 14.4858
178 8 7.16736 13.305 15.4036
179 8 6.83444 13.8092 13.9477
180 7 6.96992 15.6869 12.5934
181 8 6.81779 16.6369 12.8555
182 8 7.84462 15.6385 12.272
183 7 5.25874 4.77569 12.9465
184 8 4.45174 4.76286 13.4688
185 8 5.24851 5.61698 12.4556
186 7 7.4984 4.56029 11.9454
187 8 6.95223 4.90955 12.678
188 8 8.16301 3.39638 12.1374
189 7 2.79947 4.96585 4.29182
190 8 2.28512 5.71042 4.57167
191 8 2.55749 4.42046 3.5772
192 7 4.63256 2.75564 3.9249
193 8 4.84009 2.50206 3.02269
194 8 5.13784 3.55044 4.05095
195 9 2.84285 9.81834 9.60366
196 10 2.98391 9.39333 8.51594
197 10 2.39405 10.2297 10.5096
198 9 9.10079 11.7311 10.573
199 10 8.51596 11.7986 11.5863
200 10 0.666167 11.5691 9.62703
201 9 7.20718 7.0298 9.73825
202 10 7.54034 6.52382 8.77816
203 10 6.88641 7.48152 10.771
204 9 1.76288 10.7574 7.72176
205 10 1.02178 9.88235 7.52519
206 10 2.66038 11.3862 8.14818
207 9 6.55535 9.14097 7.49211
208 10 7.33177 8.91402 6.71801
209 10 5.88064 9.0308 8.50352
210 9 9.25814 7.86163 6.99518
211 10 0.728248 7.61768 6.05612
212 10 8.65872 7.99207 7.93019
ITEM: TIMESTEP
96
ITEM: NUMBER OF ATOMS
212
ITEM: BOX BOUNDS xy xz yz pp pp pp
-9.9337314249222430e-02 9.6575713761724842e+00 0.0000000000000000e+00
-2.1605290434331437e-01 1.9603052004343340e+01 6.4443386192325103e-01
-1.9015169596967851e-01 1.7252966795969719e+01 0.0000000000000000e+00
ITEM: ATOMS id type x y z
1 1 8.83068 0.308085 3.59506
2 1 4.94728 9.22354 4.69006
3 1 7.0756 5.31155 0.26344
4 1 6.67686 4.18688 8.062
5 2 7.80322 8.63113 3.08929
6 2 6.26374 0.763723 5.40906
7 2 8.16112 3.63074 0.93119
8 2 5.42636 5.76097 7.2088
9 2 6.53365 8.20603 3.52638
10 2 7.37988 1.26782 4.87852
11 2 0.39162 3.30711 0.597835
12 2 4.25531 6.29121 7.725
13 2 7.20365 6.64201 1.86715
14 2 6.61191 2.66636 6.71869
15 2 8.80009 1.73916 2.24701
16 2 4.71951 7.46992 5.74471
17 5 1.09672 0.590066 5.21029
18 5 3.62365 8.97997 3.15531
19 5 1.50313 5.53389 7.60088
20 5 3.16875 4.04917 0.966501
21 5 3.09103 0.110653 5.65048
22 5 1.61281 9.41015 2.71634
23 5 8.70002 4.80815 7.05165
24 5 5.14695 4.4968 1.3204
25 3 8.13147 7.64411 2.12419
26 3 5.81371 1.64625 6.43566
27 3 7.91095 2.67189 1.96902
28 3 5.66603 6.64668 6.15476
29 3 6.27791 7.02775 2.85018
30 3 7.63138 2.38093 5.76456
31 3 0.691756 2.21474 1.39754
32 3 3.91678 7.1427 6.78404
33 6 2.19367 0.164115 4.81819
34 6 2.50862 9.33806 3.51165
35 6 0.412131 4.96016 7.93062
36 6 4.26492 4.40098 0.560959
37 4 0.029488 7.45085 1.98041
38 4 4.79643 1.67219 6.7921
39 4 6.88596 2.35261 2.23253
40 4 6.62327 6.52604 5.54161
41 4 5.23324 6.66663 2.84705
42 4 8.65899 2.69594 5.95848
43 4 1.6755 1.69603 1.27378
44 4 2.91412 7.36616 6.87461
45 1 4.57123 0.332404 12.3831
46 1 0.812367 9.1609 13.3473
47 1 2.96598 5.15977 9.00606
48 1 2.42723 4.19598 16.7379
49 2 3.53537 7.98832 12.2836
50 2 1.72559 0.920751 13.8919
51 2 4.09903 3.71325 9.76983
52 2 1.38387 5.93521 16.1356
53 2 2.16176 8.11795 12.057
54 2 3.04244 1.0874 13.7918
55 2 5.26227 3.29973 9.31621
56 2 9.2527 6.32229 16.5432
57 2 3.11197 6.54883 10.7128
58 2 2.36624 2.72866 15.3098
59 2 4.50023 1.64094 10.8096
60 2 0.699794 7.6391 14.6639
61 5 5.7941 0.381967 13.865
62 5 8.46138 9.23769 12.1243
63 5 6.25322 5.60674 16.3281
64 5 8.29389 3.71164 9.4898
65 5 7.8188 0.155974 14.3439
66 5 6.43545 9.79588 11.5623
67 5 4.27275 4.99693 15.8375
68 5 1.02946 4.52753 10.0967
69 3 3.93876 6.89428 11.6079
70 3 1.43083 1.8279 14.9195
71 3 3.62648 2.66735 10.5918
72 3 1.77529 6.88781 15.1748
73 3 1.81568 7.04983 11.2302
74 3 3.30365 2.27061 14.4575
75 3 5.52407 2.13881 10.061
76 3 8.91921 7.30123 15.6367
77 6 6.9495 0.103967 13.4971
78 6 7.27824 9.35862 12.349
79 6 5.11309 5.1439 16.7339
80 6 9.3259 4.33877 9.25901
81 4 4.91378 7.11986 11.3003
82 4 9.50554 1.99556 15.2251
83 4 2.86731 2.80761 11.2965
84 4 2.53363 6.4992 14.5206
85 4 0.8851 7.0984 10.5982
86 4 4.38059 2.49758 14.7871
87 4 6.31674 1.45936 9.82597
88 4 7.86827 7.79249 15.6328
89 1 8.73036 10.215 3.66945
90 1 5.04824 19.0591 4.63286
91 1 7.14153 15.1317 0.367069
92 1 6.67817 14.082 8.03945
93 2 7.77329 18.5342 3.04703
94 2 5.96604 11.3267 4.87493
95 2 8.14647 13.4511 0.894912
96 2 5.46788 15.6725 7.30522
97 2 6.47224 18.2246 3.27173
98 2 7.29323 11.4141 4.81017
99 2 0.32599 13.0676 0.570392
100 2 4.31684 16.2729 7.78376
101 2 7.20605 16.6327 1.71034
102 2 6.7578 12.7485 6.58641
103 2 8.60837 11.6012 2.33182
104 2 5.03291 17.6411 5.98524
105 5 1.18302 10.5861 4.94233
106 5 3.57654 19.1064 3.07406
107 5 1.43177 15.3987 7.51391
108 5 3.24834 13.9979 0.83297
109 5 3.06867 10.021 5.73246
110 5 1.54254 19.2509 2.63328
111 5 8.53906 14.9324 7.07205
112 5 5.23512 14.4079 1.34819
113 3 8.14083 17.6305 2.03307
114 3 5.72238 11.9307 6.17372
115 3 7.75029 12.6663 1.9391
116 3 5.86439 16.5902 6.22233
117 3 6.2747 17.0748 2.62706
118 3 7.78819 12.2856 5.76921
119 3 0.509483 11.9953 1.44334
120 3 3.96721 17.2744 6.84661
121 6 2.30497 10.0932 4.78488
122 6 2.43862 19.4609 3.42735
123 6 0.303093 15.122 7.85628
124 6 4.35582 14.4078 0.509712
125 4 0.0572485 17.3276 2.04178
126 4 4.73695 12.4112 6.43081
127 4 6.71605 12.6488 2.06988
128 4 6.93802 16.6634 5.78949
129 4 5.2875 16.6492 2.66699
130 4 8.53198 12.8555 5.50462
131 4 1.26483 11.3318 1.20576
132 4 3.38552 18.0473 7.26127
133 1 4.44611 10.1864 12.3343
134 1 0.756006 19.0145 13.4684
135 1 2.83349 15.0565 9.09514
136 1 2.37341 14.1272 16.6778
137 2 3.3972 18.4674 11.7665
138 2 1.89096 10.6949 14.0767
139 2 3.9446 13.6034 9.65319
140 2 1.36642 15.6685 16.1308
141 2 2.07434 18.1569 12.0749
142 2 3.15 11.0811 13.6735
143 2 5.22112 13.1601 9.20699
144 2 9.2693 16.0624 16.5525
145 2 2.94615 16.5907 10.4866
146 2 2.39731 12.7151 15.2944
147 2 4.79113 11.9068 11.1911
148 2 0.728679 17.6879 14.8936
149 5 6.00104 10.3294 13.9057
150 5 8.50322 19.0264 11.8711
151 5 6.33129 15.5357 16.3432
152 5 8.26566 13.9819 9.45383
153 5 8.07122 10.0691 14.3079
154 5 6.45136 19.1304 11.431
155 5 4.40209 15.1163 15.8092
156 5 1.12754 14.3855 9.97333
157 3 3.84802 17.4973 10.9793
158 3 1.52527 11.5994 15.05
159 3 3.76875 12.7897 10.8197
160 3 1.65479 16.6855 15.094
161 3 1.9148 17.1076 11.2099
162 3 3.41383 12.2043 14.4817
163 3 5.54327 12.0723 10.0041
164 3 8.89425 17.2022 15.8475
165 6 7.06889 9.78178 13.7129
166 6 7.34519 19.1848 12.2195
167 6 5.33681 14.8378 16.5525
168 6 9.28212 14.6278 9.29561
169 4 4.88929 17.5846 10.6542
170 4 0.498722 11.5385 15.3227
171 4 3.22803 13.2889 11.5399
172 4 2.70516 16.9827 14.8115
173 4 1.07615 16.4283 11.3713
174 4 4.11933 12.8708 14.1289
175 4 6.55732 11.5677 9.8514
176 4 7.97382 17.6197 16.0247
177 7 7.51801 13.3879 14.4874
178 8 7.17078 13.3091 15.4054
179 8 6.83948 13.8212 13.9545
180 7 6.97091 15.6885 12.5947
181 8 6.81391 16.6365 12.8572
182 8 7.84322 15.6382 12.2693
183 7 5.25701 4.77389 12.9472
184 8 4.458 4.76264 13.4774
185 8 5.23668 5.61066 12.4484
186 7 7.50574 4.54514 11.9536
187 8 6.94989 4.88905 12.6827
188 8 8.12788 3.4062 12.1502
189 7 2.79811 4.9669 4.28993
190 8 2.2694 5.70326 4.56506
191 8 2.55722 4.4261 3.57276
192 7 4.63253 2.75468 3.92029
193 8 4.83936 2.49555 3.0214
194 8 5.13042 3.55028 4.05245
195 9 2.8367 9.82 9.59975
196 10 2.98288 9.39874 8.51245
197 10 2.39228 10.227 10.5079
198 9 9.10283 11.7303 10.574
199 10 8.51795 11.8065 11.5872
200 10 0.663429 11.565 9.62555
201 9 7.20695 7.03225 9.73551
202 10 7.54224 6.5233 8.77337
203 10 6.88403 7.48228 10.7709
204 9 1.76375 10.7587 7.72046
205 10 1.0195 9.88485 7.52708
206 10 2.66006 11.391 8.14239
207 9 6.56002 9.13828 7.49716
208 10 7.33203 8.91474 6.72072
209 10 5.88384 9.03693 8.50628
210 9 9.26173 7.85928 6.99548
211 10 0.724855 7.62041 6.05236
212 10 8.66599 7.9927 7.93218
ITEM: TIMESTEP
97
ITEM: NUMBER OF ATOMS
212
ITEM: BOX BOUNDS xy xz yz pp pp pp
-1.0056946925500920e-01 9.6589778070854901e+00 0.0000000000000000e+00
-2.1873277010789138e-01 1.9605731870107917e+01 6.4460813783046866e-01
-1.9251028967456030e-01 1.7255325389674603e+01 0.0000000000000000e+00
ITEM: ATOMS id type x y z
1 1 8.83263 0.305426 3.59337
2 1 4.94649 9.22444 4.68866
3 1 7.07563 5.31042 0.260769
4 1 6.67805 4.18545 8.06257
5 2 7.80333 8.62938 3.08903
6 2 6.26375 0.759189 5.41003
7 2 8.16323 3.62888 0.929408
8 2 5.42254 5.75964 7.20628
9 2 6.53487 8.2067 3.52519
10 2 7.38089 1.26526 4.87992
11 2 0.389773 3.30581 0.596974
12 2 4.25478 6.28931 7.72124
13 2 7.2052 6.63962 1.86732
14 2 6.61406 2.66489 6.71822
15 2 8.80225 1.7365 2.24427
16 2 4.71822 7.46656 5.74316
17 5 1.09635 0.587575 5.20929
18 5 3.62267 8.98024 3.15338
19 5 1.50346 5.53229 7.60273
20 5 3.16861 4.04868 0.964721
21 5 3.08868 0.107976 5.64741
22 5 1.61386 9.41008 2.71588
23 5 8.70304 4.80392 7.0517
24 5 5.14636 4.49626 1.31811
25 3 8.13206 7.64293 2.12288
26 3 5.81826 1.64169 6.43403
27 3 7.91352 2.66915 1.96681
28 3 5.662 6.64336 6.15155
29 3 6.2798 7.02634 2.84841
30 3 7.63114 2.38069 5.76667
31 3 0.690454 2.21249 1.39655
32 3 3.91619 7.14035 6.77926
33 6 2.19537 0.161796 4.8184
34 6 2.50744 9.33862 3.51127
35 6 0.409484 4.95642 7.92821
36 6 4.26563 4.39969 0.560811
37 4 0.0283943 7.45316 1.98318
38 4 4.80058 1.66354 6.78813
39 4 6.88628 2.35147 2.22525
40 4 6.60947 6.51668 5.5282
41 4 5.23586 6.6642 2.85186
42 4 8.66183 2.69262 5.9508
43 4 1.67282 1.69165 1.27308
44 4 2.91041 7.35823 6.87652
45 1 4.57161 0.329519 12.3844
46 1 0.811093 9.16093 13.3478
47 1 2.96593 5.15756 9.00588
48 1 2.42701 4.19484 16.7406
49 2 3.53199 7.97925 12.2893
50 2 1.72557 0.92012 13.8959
51 2 4.09912 3.71054 9.77142
52 2 1.38186 5.93568 16.1366
53 2 2.16358 8.1143 12.0593
54 2 3.04152 1.08647 13.794
55 2 5.26255 3.29586 9.31818
56 2 9.25386 6.32155 16.5441
57 2 3.11364 6.54379 10.7181
58 2 2.36495 2.72523 15.309
59 2 4.5004 1.63776 10.8096
60 2 0.698883 7.63943 14.6656
61 5 5.7947 0.377241 13.8659
62 5 8.46011 9.23954 12.1254
63 5 6.25034 5.60606 16.3313
64 5 8.29781 3.70655 9.4887
65 5 7.81874 0.153998 14.3455
66 5 6.43826 9.80151 11.5677
67 5 4.27346 4.9954 15.8411
68 5 1.02908 4.52729 10.0978
69 3 3.93368 6.89088 11.6126
70 3 1.42905 1.82488 14.9197
71 3 3.62928 2.66633 10.5909
72 3 1.77276 6.88613 15.1771
73 3 1.81712 7.04932 11.2306
74 3 3.30315 2.26652 14.4603
75 3 5.52398 2.13885 10.0597
76 3 8.92186 7.30156 15.6372
77 6 6.9488 0.10068 13.4971
78 6 7.27835 9.36178 12.3514
79 6 5.11163 5.14312 16.7354
80 6 9.32967 4.33592 9.26056
81 4 4.90803 7.10072 11.3168
82 4 9.50665 1.99984 15.2216
83 4 2.86991 2.80266 11.294
84 4 2.53164 6.50139 14.5241
85 4 0.894785 7.10607 10.588
86 4 4.37942 2.49253 14.7906
87 4 6.3098 1.44866 9.82701
88 4 7.86847 7.78869 15.6374
89 1 8.73144 10.215 3.66839
90 1 5.0484 19.0618 4.63112
91 1 7.14217 15.1325 0.364907
92 1 6.67915 14.0831 8.03965
93 2 7.77323 18.5354 3.04374
94 2 5.9678 11.3289 4.87377
95 2 8.14825 13.4514 0.894344
96 2 5.46681 15.6742 7.3035
97 2 6.47444 18.2262 3.26876
98 2 7.29337 11.4161 4.80893
99 2 0.322478 13.0677 0.569369
100 2 4.31535 16.2729 7.78315
101 2 7.20793 16.6333 1.70965
102 2 6.75954 12.7516 6.58571
103 2 8.60856 11.6004 2.32893
104 2 5.03219 17.6446 5.98325
105 5 1.18365 10.5888 4.93893
106 5 3.57375 19.1122 3.07168
107 5 1.43112 15.4004 7.51209
108 5 3.24862 14.0004 0.831015
109 5 3.06838 10.0203 5.72934
110 5 1.54182 19.2538 2.63265
111 5 8.54067 14.9332 7.07223
112 5 5.23586 14.4105 1.34643
113 3 8.14164 17.6336 2.03227
114 3 5.72392 11.9377 6.16819
115 3 7.75069 12.6674 1.93655
116 3 5.86282 16.5927 6.22031
117 3 6.27549 17.0798 2.62568
118 3 7.78752 12.2871 5.76844
119 3 0.507909 11.9946 1.44211
120 3 3.96917 17.2779 6.84562
121 6 2.30459 10.0934 4.78224
122 6 2.44062 19.4641 3.42522
123 6 0.300782 15.1241 7.85931
124 6 4.35511 14.4089 0.507934
125 4 0.0535781 17.3283 2.04158
126 4 4.7349 12.4117 6.42648
127 4 6.71781 12.6454 2.06571
128 4 6.93907 16.6604 5.79031
129 4 5.2897 16.6488 2.6581
130 4 8.53092 12.8534 5.50293
131 4 1.2629 11.3332 1.20048
132 4 3.38845 18.048 7.2654
133 1 4.44605 10.1859 12.3358
134 1 0.754014 19.0169 13.4697
135 1 2.83226 15.057 9.09532
136 1 2.37296 14.1286 16.6798
137 2 3.39564 18.4686 11.7674
138 2 1.89202 10.6948 14.0797
139 2 3.94718 13.6062 9.65469
140 2 1.36521 15.6715 16.1315
141 2 2.07676 18.1578 12.0735
142 2 3.14859 11.0806 13.6753
143 2 5.22117 13.1618 9.20658
144 2 9.26904 16.0637 16.5548
145 2 2.9449 16.5925 10.4896
146 2 2.39708 12.7157 15.2957
147 2 4.79231 11.9079 11.193
148 2 0.72707 17.6914 14.8963
149 5 6.00053 10.3295 13.9084
150 5 8.50299 19.0309 11.8717
151 5 6.33178 15.538 16.347
152 5 8.26767 13.9833 9.45484
153 5 8.07351 10.0698 14.3092
154 5 6.45242 19.1314 11.4321
155 5 4.40138 15.1182 15.8118
156 5 1.12669 14.3884 9.97243
157 3 3.84457 17.5005 10.9819
158 3 1.52488 11.599 15.0514
159 3 3.77069 12.7931 10.8229
160 3 1.65446 16.6859 15.0967
161 3 1.91458 17.1087 11.2092
162 3 3.41334 12.2062 14.484
163 3 5.54486 12.0725 10.0041
164 3 8.89521 17.2036 15.8506
165 6 7.06899 9.77913 13.7158
166 6 7.34541 19.1878 12.222
167 6 5.33836 14.8397 16.5533
168 6 9.28488 14.6331 9.29449
169 4 4.88557 17.5825 10.6577
170 4 0.499289 11.5422 15.3201
171 4 3.2309 13.2918 11.5413
172 4 2.70367 16.9862 14.8135
173 4 1.07281 16.4341 11.3716
174 4 4.12018 12.867 14.1228
175 4 6.56053 11.5689 9.85297
176 4 7.97826 17.6248 16.0301
177 7 7.52045 13.388 14.4891
178 8 7.17426 13.3133 15.4067
179 8 6.84459 13.8333 13.9616
180 7 6.97184 15.6902 12.596
181 8 6.81022 16.6353 12.8588
182 8 7.84233 15.638 12.2665
183 7 5.25527 4.7721 12.9479
184 8 4.46427 4.76256 13.4861
185 8 5.22476 5.60406 12.4414
186 7 7.51314 4.52993 11.9619
187 8 6.94795 4.86791 12.6875
188 8 8.09155 3.4181 12.1629
189 7 2.7968 4.96796 4.28809
190 8 2.25336 5.69607 4.5582
191 8 2.55655 4.43165 3.56788
192 7 4.63249 2.75372 3.91567
193 8 4.83858 2.4891 3.02008
194 8 5.12306 3.55033 4.054
195 9 2.83063 9.82151 9.59558
196 10 2.98193 9.40403 8.50904
197 10 2.39047 10.2244 10.5065
198 9 9.10487 11.7294 10.5751
199 10 8.51996 11.8145 11.588
200 10 0.660646 11.5609 9.62411
201 9 7.20669 7.0347 9.73287
202 10 7.5441 6.52274 8.76859
203 10 6.8817 7.48297 10.7707
204 9 1.76464 10.76 7.71918
205 10 1.01719 9.88739 7.52895
206 10 2.65967 11.3959 8.13652
207 9 6.56453 9.13556 7.50242
208 10 7.33229 8.91552 6.72328
209 10 5.88707 9.04309 8.50896
210 9 9.26536 7.8569 6.99577
211 10 0.721502 7.62314 6.0485
212 10 8.67328 7.99336 7.93426
ITEM: TIMESTEP
98
ITEM: NUMBER OF ATOMS
212
ITEM: BOX BOUNDS xy xz yz pp pp pp
-1.0180117040094316e-01 9.6603837199447380e+00 0.0000000000000000e+00
-2.2141164875357511e-01 1.9608410748753599e+01 6.4478234954378422e-01
-1.9486801459995284e-01 1.7257683114599992e+01 0.0000000000000000e+00
ITEM: ATOMS id type x y z
1 1 8.83457 0.302774 3.59168
2 1 4.94569 9.22534 4.68725
3 1 7.07566 5.30929 0.258106
4 1 6.67924 4.18402 8.06315
5 2 7.80339 8.62757 3.08875
6 2 6.26366 0.754675 5.41104
7 2 8.1654 3.62696 0.927663
8 2 5.41872 5.75836 7.20373
9 2 6.53611 8.20736 3.52397
10 2 7.38198 1.26277 4.88141
11 2 0.387887 3.3045 0.596142
12 2 4.2543 6.28729 7.71748
13 2 7.20675 6.63727 1.86754
14 2 6.61629 2.66343 6.71771
15 2 8.80446 1.73384 2.24149
16 2 4.71693 7.46324 5.74165
17 5 1.09599 0.585058 5.20825
18 5 3.62169 8.98052 3.15147
19 5 1.50373 5.53065 7.60463
20 5 3.16847 4.0482 0.962906
21 5 3.08637 0.105287 5.64431
22 5 1.61488 9.41001 2.71541
23 5 8.70601 4.79966 7.05175
24 5 5.14585 4.49574 1.31584
25 3 8.13259 7.6418 2.1216
26 3 5.8228 1.63708 6.43235
27 3 7.916 2.66648 1.96457
28 3 5.65811 6.63998 6.14835
29 3 6.28166 7.02497 2.84657
30 3 7.63086 2.38038 5.76877
31 3 0.689161 2.21024 1.39557
32 3 3.91555 7.13805 6.7745
33 6 2.19703 0.159522 4.81873
34 6 2.50631 9.33914 3.51084
35 6 0.406975 4.95275 7.92565
36 6 4.26629 4.39837 0.560707
37 4 0.0278316 7.45536 1.98574
38 4 4.80462 1.65475 6.78418
39 4 6.88674 2.35064 2.21784
40 4 6.59513 6.50728 5.51513
41 4 5.2387 6.66166 2.85667
42 4 8.66459 2.68933 5.94301
43 4 1.6698 1.68738 1.27245
44 4 2.90629 7.35082 6.87813
45 1 4.57198 0.326629 12.3856
46 1 0.809816 9.16096 13.3484
47 1 2.96588 5.15536 9.00571
48 1 2.42679 4.1937 16.7433
49 2 3.52856 7.97024 12.2949
50 2 1.72552 0.919488 13.8999
51 2 4.09911 3.70781 9.77303
52 2 1.37986 5.93615 16.1376
53 2 2.16539 8.11057 12.0615
54 2 3.04067 1.0856 13.7963
55 2 5.2629 3.29192 9.32014
56 2 9.25499 6.32082 16.5449
57 2 3.11509 6.53873 10.7233
58 2 2.36366 2.7218 15.3081
59 2 4.50058 1.63462 10.8096
60 2 0.698039 7.63975 14.6675
61 5 5.79532 0.372497 13.8667
62 5 8.45886 9.24137 12.1264
63 5 6.24739 5.60533 16.3347
64 5 8.30173 3.70148 9.48758
65 5 7.81871 0.152019 14.3471
66 5 6.44107 9.80712 11.573
67 5 4.27415 4.99387 15.8448
68 5 1.02875 4.52705 10.0989
69 3 3.9287 6.8876 11.6173
70 3 1.42723 1.82184 14.92
71 3 3.63213 2.66534 10.59
72 3 1.77018 6.88441 15.1793
73 3 1.81869 7.04883 11.2309
74 3 3.30276 2.26245 14.4632
75 3 5.52387 2.13889 10.0585
76 3 8.92442 7.30194 15.6377
77 6 6.9481 0.0974244 13.4971
78 6 7.27845 9.36497 12.3537
79 6 5.11027 5.14242 16.7367
80 6 9.33336 4.33301 9.26215
81 4 4.9023 7.08122 11.3333
82 4 9.50781 2.00409 15.2181
83 4 2.87203 2.79787 11.2918
84 4 2.52978 6.50375 14.5273
85 4 0.904847 7.11372 10.578
86 4 4.37764 2.48731 14.7937
87 4 6.30308 1.438 9.82782
88 4 7.86943 7.7845 15.6421
89 1 8.73253 10.2151 3.66732
90 1 5.04856 19.0645 4.62938
91 1 7.14282 15.1333 0.362743
92 1 6.68013 14.0842 8.03984
93 2 7.7732 18.5365 3.04039
94 2 5.9695 11.331 4.87276
95 2 8.15005 13.4516 0.893793
96 2 5.4658 15.6761 7.30168
97 2 6.47662 18.2277 3.26583
98 2 7.2936 11.418 4.80771
99 2 0.318939 13.0678 0.568378
100 2 4.31383 16.2729 7.78249
101 2 7.20983 16.634 1.70903
102 2 6.76127 12.7546 6.58497
103 2 8.60874 11.5997 2.32595
104 2 5.03142 17.6481 5.98131
105 5 1.1843 10.5915 4.93555
106 5 3.57096 19.1181 3.06932
107 5 1.43047 15.4021 7.51027
108 5 3.24889 14.0028 0.829037
109 5 3.06814 10.0196 5.72617
110 5 1.54108 19.2567 2.63205
111 5 8.54224 14.934 7.0724
112 5 5.23662 14.4131 1.34467
113 3 8.14242 17.6366 2.03149
114 3 5.72545 11.9447 6.16259
115 3 7.75115 12.6684 1.93402
116 3 5.86131 16.595 6.21836
117 3 6.27624 17.0847 2.62424
118 3 7.78669 12.2886 5.76768
119 3 0.506311 11.994 1.44089
120 3 3.97122 17.2814 6.84466
121 6 2.30412 10.0936 4.77967
122 6 2.44269 19.4673 3.423
123 6 0.298545 15.1261 7.86234
124 6 4.35438 14.41 0.506243
125 4 0.0501014 17.329 2.04125
126 4 4.73306 12.4116 6.4219
127 4 6.7191 12.6417 2.06183
128 4 6.93938 16.6572 5.79151
129 4 5.29178 16.6482 2.64916
130 4 8.53091 12.8522 5.50102
131 4 1.26143 11.3341 1.19512
132 4 3.39107 18.049 7.26954
133 1 4.44601 10.1853 12.3373
134 1 0.752015 19.0194 13.4711
135 1 2.83104 15.0574 9.0955
136 1 2.37252 14.1299 16.6818
137 2 3.39406 18.4699 11.7683
138 2 1.8931 10.6946 14.0826
139 2 3.94984 13.6089 9.65626
140 2 1.36405 15.6745 16.1321
141 2 2.07923 18.1588 12.072
142 2 3.14715 11.0802 13.6772
143 2 5.2212 13.1634 9.20621
144 2 9.26872 16.065 16.5572
145 2 2.94366 16.5944 10.4927
146 2 2.39682 12.7162 15.297
147 2 4.79345 11.9091 11.1949
148 2 0.725429 17.695 14.8991
149 5 6.00001 10.3296 13.9112
150 5 8.50276 19.0354 11.8724
151 5 6.33226 15.5402 16.3508
152 5 8.26968 13.9846 9.45588
153 5 8.07582 10.0705 14.3105
154 5 6.45344 19.1323 11.4332
155 5 4.40065 15.12 15.8145
156 5 1.12588 14.3912 9.97154
157 3 3.84117 17.5037 10.9845
158 3 1.52454 11.5986 15.0527
159 3 3.77266 12.7965 10.826
160 3 1.65415 16.6861 15.0995
161 3 1.9143 17.1098 11.2086
162 3 3.41281 12.2081 14.4863
163 3 5.5465 12.0727 10.0042
164 3 8.89627 17.205 15.8535
165 6 7.06905 9.7765 13.7187
166 6 7.34562 19.1909 12.2245
167 6 5.33991 14.8418 16.554
168 6 9.28756 14.6383 9.29337
169 4 4.8817 17.5801 10.661
170 4 0.499637 11.5462 15.3178
171 4 3.23335 13.2947 11.5433
172 4 2.70183 16.9893 14.8157
173 4 1.06944 16.44 11.3719
174 4 4.1215 12.8636 14.1165
175 4 6.56312 11.5703 9.85468
176 4 7.98211 17.6304 16.0357
177 7 7.52288 13.388 14.4908
178 8 7.17778 13.3176 15.4074
179 8 6.84977 13.8453 13.9687
180 7 6.97273 15.6919 12.5974
181 8 6.80673 16.6336 12.8601
182 8 7.84196 15.6378 12.2635
183 7 5.25352 4.77033 12.9486
184 8 4.4705 4.76259 13.4949
185 8 5.21276 5.59718 12.4346
186 7 7.5206 4.51464 11.9702
187 8 6.94638 4.84616 12.6922
188 8 8.05406 3.43212 12.1754
189 7 2.79554 4.96904 4.2863
190 8 2.23702 5.68885 4.55109
191 8 2.55548 4.43708 3.56257
192 7 4.63244 2.75273 3.91106
193 8 4.83778 2.48271 3.01872
194 8 5.11577 3.55062 4.05557
195 9 2.82464 9.82285 9.59116
196 10 2.98106 9.40921 8.50573
197 10 2.38861 10.2219 10.5053
198 9 9.10693 11.7285 10.5762
199 10 8.52199 11.8225 11.5888
200 10 0.657816 11.5568 9.62269
201 9 7.20641 7.03715 9.73032
202 10 7.54591 6.52215 8.76384
203 10 6.87941 7.4836 10.7704
204 9 1.76557 10.7614 7.71792
205 10 1.01484 9.88998 7.5308
206 10 2.65923 11.4008 8.13059
207 9 6.56889 9.1328 7.50789
208 10 7.33256 8.91634 6.72571
209 10 5.89034 9.04927 8.51156
210 9 9.26902 7.85449 6.99606
211 10 0.71819 7.62584 6.04455
212 10 8.68059 7.99405 7.93644
ITEM: TIMESTEP
99
ITEM: NUMBER OF ATOMS
212
ITEM: BOX BOUNDS xy xz yz pp pp pp
-1.0303274200098578e-01 9.6617894849351380e+00 0.0000000000000000e+00
-2.2409024564445268e-01 1.9611089345644476e+01 6.4495654293413918e-01
-1.9722549154833047e-01 1.7260040591548371e+01 0.0000000000000000e+00
ITEM: ATOMS id type x y z
1 1 8.8365 0.300128 3.59
2 1 4.9449 9.22624 4.68584
3 1 7.0757 5.30815 0.255451
4 1 6.68044 4.18259 8.06373
5 2 7.80343 8.62568 3.08846
6 2 6.26349 0.750181 5.41207
7 2 8.16761 3.62497 0.925957
8 2 5.4149 5.75712 7.20116
9 2 6.53735 8.20801 3.52271
10 2 7.38314 1.26036 4.88296
11 2 0.385962 3.30319 0.595337
12 2 4.25386 6.28517 7.71371
13 2 7.2083 6.63494 1.86782
14 2 6.61859 2.66198 6.71716
15 2 8.80675 1.73117 2.23868
16 2 4.71564 7.45996 5.74016
17 5 1.09565 0.582516 5.20717
18 5 3.62072 8.9808 3.14957
19 5 1.50393 5.52896 7.60658
20 5 3.16831 4.04772 0.961058
21 5 3.0841 0.102586 5.6412
22 5 1.61584 9.40994 2.71492
23 5 8.70895 4.7954 7.05181
24 5 5.14541 4.49522 1.31362
25 3 8.13309 7.6407 2.12036
26 3 5.82733 1.63244 6.43062
27 3 7.91839 2.66386 1.96228
28 3 5.65435 6.63654 6.14514
29 3 6.28349 7.02362 2.84468
30 3 7.63053 2.38 5.77084
31 3 0.687877 2.20797 1.39459
32 3 3.91486 7.1358 6.76977
33 6 2.19863 0.157295 4.81917
34 6 2.50522 9.33963 3.51034
35 6 0.404614 4.94916 7.92297
36 6 4.26691 4.39702 0.560638
37 4 0.0277943 7.45742 1.98808
38 4 4.80855 1.64584 6.78026
39 4 6.88732 2.35011 2.21032
40 4 6.58027 6.49784 5.50241
41 4 5.24178 6.65901 2.86145
42 4 8.66727 2.6861 5.93512
43 4 1.66645 1.68323 1.2719
44 4 2.90179 7.34394 6.87941
45 1 4.57234 0.323732 12.3869
46 1 0.808534 9.16099 13.3489
47 1 2.96583 5.15318 9.00554
48 1 2.42657 4.19256 16.746
49 2 3.52506 7.9613 12.3006
50 2 1.72542 0.918853 13.904
51 2 4.09899 3.70505 9.77467
52 2 1.37788 5.93663 16.1385
53 2 2.16717 8.10677 12.0638
54 2 3.03988 1.08477 13.7985
55 2 5.26332 3.28791 9.32207
56 2 9.25607 6.32009 16.5457
57 2 3.11632 6.53365 10.7285
58 2 2.36236 2.71837 15.3073
59 2 4.50077 1.63152 10.8096
60 2 0.697263 7.64006 14.6693
61 5 5.79597 0.367735 13.8675
62 5 8.45763 9.2432 12.1273
63 5 6.24436 5.60457 16.338
64 5 8.30566 3.69642 9.48643
65 5 7.81872 0.150035 14.3486
66 5 6.44387 9.81273 11.5784
67 5 4.27483 4.99233 15.8485
68 5 1.02847 4.52683 10.0999
69 3 3.92381 6.88443 11.6219
70 3 1.42535 1.81877 14.9202
71 3 3.63501 2.66436 10.589
72 3 1.76754 6.88265 15.1816
73 3 1.82041 7.04833 11.2312
74 3 3.30246 2.25838 14.4661
75 3 5.52376 2.13894 10.0573
76 3 8.92689 7.30237 15.6382
77 6 6.9474 0.0942008 13.4973
78 6 7.27855 9.36819 12.356
79 6 5.10899 5.14178 16.7379
80 6 9.33697 4.33004 9.26379
81 4 4.8967 7.06137 11.3497
82 4 9.50902 2.00829 15.2145
83 4 2.87366 2.79323 11.2897
84 4 2.52807 6.50627 14.5304
85 4 0.915272 7.12136 10.5683
86 4 4.37528 2.4819 14.7964
87 4 6.29659 1.42744 9.8284
88 4 7.87114 7.77994 15.6468
89 1 8.73361 10.2152 3.66625
90 1 5.04872 19.0673 4.62764
91 1 7.14346 15.1341 0.360576
92 1 6.68111 14.0853 8.04004
93 2 7.7732 18.5376 3.037
94 2 5.97114 11.3331 4.87192
95 2 8.15186 13.4519 0.893257
96 2 5.46483 15.6781 7.29977
97 2 6.47878 18.2293 3.26295
98 2 7.29393 11.4199 4.8065
99 2 0.315378 13.0679 0.567419
100 2 4.31228 16.2728 7.7818
101 2 7.21175 16.6348 1.70846
102 2 6.76302 12.7577 6.58419
103 2 8.60892 11.5991 2.32288
104 2 5.0306 17.6515 5.97942
105 5 1.18497 10.5942 4.93217
106 5 3.56817 19.1239 3.06699
107 5 1.42983 15.4039 7.50845
108 5 3.24915 14.0052 0.827038
109 5 3.06794 10.0189 5.72295
110 5 1.5403 19.2597 2.63147
111 5 8.54377 14.9348 7.07255
112 5 5.2374 14.4158 1.34288
113 3 8.14318 17.6397 2.03072
114 3 5.72697 11.9517 6.1569
115 3 7.75166 12.6694 1.93151
116 3 5.85985 16.5974 6.21647
117 3 6.27695 17.0896 2.62273
118 3 7.7857 12.29 5.76693
119 3 0.504689 11.9934 1.43967
120 3 3.97337 17.2848 6.84373
121 6 2.30357 10.0939 4.77718
122 6 2.44481 19.4704 3.42068
123 6 0.296386 15.1282 7.86535
124 6 4.35364 14.4111 0.504635
125 4 0.0468326 17.3298 2.04081
126 4 4.73146 12.4111 6.41707
127 4 6.7199 12.6377 2.05823
128 4 6.93892 16.6538 5.79309
129 4 5.29375 16.6476 2.6402
130 4 8.53197 12.8518 5.4989
131 4 1.26042 11.3346 1.18969
132 4 3.3934 18.0503 7.2737
133 1 4.44598 10.1848 12.3389
134 1 0.750008 19.0219 13.4724
135 1 2.82983 15.0579 9.09567
136 1 2.37208 14.1313 16.6838
137 2 3.39247 18.4711 11.7692
138 2 1.89418 10.6945 14.0855
139 2 3.95258 13.6116 9.65791
140 2 1.36295 15.6776 16.1326
141 2 2.08174 18.1598 12.0705
142 2 3.14569 11.0797 13.6792
143 2 5.22119 13.165 9.2059
144 2 9.26832 16.0664 16.5596
145 2 2.94242 16.5963 10.4958
146 2 2.39653 12.7166 15.2982
147 2 4.79455 11.9102 11.1966
148 2 0.723758 17.6984 14.902
149 5 5.99949 10.3297 13.914
150 5 8.50253 19.04 11.8731
151 5 6.33275 15.5424 16.3546
152 5 8.27168 13.986 9.45693
153 5 8.07815 10.0712 14.3118
154 5 6.45442 19.1333 11.4344
155 5 4.39989 15.1219 15.8172
156 5 1.1251 14.394 9.97068
157 3 3.83782 17.5069 10.9869
158 3 1.52424 11.5982 15.054
159 3 3.77467 12.7999 10.829
160 3 1.65385 16.6864 15.1023
161 3 1.91395 17.1107 11.2079
162 3 3.41224 12.2099 14.4886
163 3 5.54817 12.0729 10.0043
164 3 8.89744 17.2064 15.8564
165 6 7.06906 9.77391 13.7216
166 6 7.34582 19.1938 12.227
167 6 5.34144 14.8439 16.5547
168 6 9.29015 14.6435 9.29225
169 4 4.8777 17.5774 10.6642
170 4 0.499745 11.5505 15.3158
171 4 3.23537 13.2978 11.5459
172 4 2.69967 16.992 14.8181
173 4 1.06604 16.446 11.3722
174 4 4.12328 12.8606 14.1102
175 4 6.56511 11.572 9.85652
176 4 7.98538 17.6364 16.0413
177 7 7.52531 13.3881 14.4925
178 8 7.18136 13.3219 15.4075
179 8 6.85506 13.8574 13.976
180 7 6.97357 15.6937 12.5988
181 8 6.80344 16.6313 12.8612
182 8 7.84208 15.6376 12.2603
183 7 5.25177 4.76856 12.9493
184 8 4.47667 4.76275 13.5039
185 8 5.20071 5.59002 12.4279
186 7 7.52813 4.49928 11.9784
187 8 6.94518 4.82381 12.697
188 8 8.01547 3.44822 12.1877
189 7 2.79432 4.97012 4.28455
190 8 2.22042 5.68159 4.54376
191 8 2.55403 4.44239 3.55682
192 7 4.63237 2.75173 3.90644
193 8 4.83696 2.47638 3.01729
194 8 5.10857 3.55117 4.05715
195 9 2.81873 9.82403 9.5865
196 10 2.98029 9.41428 8.50251
197 10 2.38671 10.2195 10.5042
198 9 9.109 11.7277 10.5773
199 10 8.52403 11.8306 11.5896
200 10 0.654937 11.5528 9.62131
201 9 7.20611 7.03959 9.72785
202 10 7.54766 6.52153 8.75913
203 10 6.87715 7.48416 10.7701
204 9 1.76651 10.7628 7.71669
205 10 1.01248 9.89261 7.53262
206 10 2.65873 11.4058 8.1246
207 9 6.5731 9.13001 7.51357
208 10 7.33283 8.91722 6.72799
209 10 5.89363 9.05548 8.51408
210 9 9.27272 7.85206 6.99633
211 10 0.714917 7.62853 6.04051
212 10 8.68793 7.99475 7.93871
ITEM: TIMESTEP
100
ITEM: NUMBER OF ATOMS
212
ITEM: BOX BOUNDS xy xz yz pp pp pp
-1.0426452237886608e-01 9.6631954882328941e+00 0.0000000000000000e+00
-2.2676929661503209e-01 1.9613768396615054e+01 6.4513076585401508e-01
-1.9958336813968458e-01 1.7262398468139729e+01 0.0000000000000000e+00
ITEM: ATOMS id type x y z
1 1 8.83843 0.297486 3.58832
2 1 4.94412 9.22714 4.68443
3 1 7.07574 5.30702 0.252805
4 1 6.68163 4.18115 8.06431
5 2 7.80344 8.62372 3.08816
6 2 6.26324 0.745706 5.41313
7 2 8.16987 3.62292 0.924288
8 2 5.41108 5.75592 7.19857
9 2 6.53859 8.20865 3.5214
10 2 7.38437 1.25801 4.8846
11 2 0.384002 3.30187 0.594558
12 2 4.25345 6.28294 7.70994
13 2 7.20985 6.63265 1.86813
14 2 6.62097 2.66056 6.71657
15 2 8.80911 1.7285 2.23582
16 2 4.71434 7.45671 5.7387
17 5 1.09533 0.579947 5.20603
18 5 3.61973 8.98108 3.1477
19 5 1.50405 5.52722 7.60858
20 5 3.16815 4.04724 0.959176
21 5 3.08187 0.0998705 5.63808
22 5 1.61676 9.40988 2.71441
23 5 8.71184 4.79111 7.05186
24 5 5.14505 4.49471 1.31143
25 3 8.13353 7.63965 2.11915
26 3 5.83183 1.62775 6.42884
27 3 7.92068 2.6613 1.95996
28 3 5.65074 6.63304 6.14194
29 3 6.2853 7.0223 2.84275
30 3 7.63018 2.37954 5.77289
31 3 0.686602 2.20568 1.39362
32 3 3.91413 7.13359 6.76508
33 6 2.20017 0.155112 4.81972
34 6 2.50419 9.34008 3.50979
35 6 0.402411 4.94565 7.92016
36 6 4.26748 4.39565 0.560598
37 4 0.0282698 7.45934 1.99021
38 4 4.81236 1.6368 6.77639
39 4 6.88805 2.34987 2.20268
40 4 6.56494 6.48835 5.49004
41 4 5.24509 6.65623 2.86619
42 4 8.66984 2.68293 5.92716
43 4 1.66277 1.67919 1.27141
44 4 2.89695 7.3376 6.88035
45 1 4.5727 0.320829 12.3882
46 1 0.807248 9.16102 13.3495
47 1 2.96578 5.151 9.00539
48 1 2.42634 4.19142 16.7487
49 2 3.52152 7.95243 12.3063
50 2 1.72529 0.918209 13.9081
51 2 4.09879 3.70227 9.77632
52 2 1.37591 5.93711 16.1394
53 2 2.16893 8.1029 12.0661
54 2 3.03916 1.08399 13.8007
55 2 5.26381 3.28385 9.32399
56 2 9.25711 6.31936 16.5464
57 2 3.11732 6.52855 10.7336
58 2 2.36105 2.71493 15.3065
59 2 4.50098 1.62847 10.8097
60 2 0.696555 7.64035 14.6712
61 5 5.79664 0.362955 13.8682
62 5 8.45642 9.24502 12.1282
63 5 6.24126 5.60377 16.3415
64 5 8.3096 3.69137 9.48526
65 5 7.81877 0.148046 14.3502
66 5 6.44666 9.81833 11.5836
67 5 4.27548 4.99078 15.8522
68 5 1.02826 4.52661 10.101
69 3 3.91901 6.88136 11.6266
70 3 1.42343 1.81569 14.9205
71 3 3.63794 2.6634 10.588
72 3 1.76486 6.88085 15.1839
73 3 1.82226 7.04783 11.2314
74 3 3.30227 2.25432 14.4691
75 3 5.52363 2.13896 10.0561
76 3 8.92927 7.30284 15.6388
77 6 6.94671 0.0910088 13.4977
78 6 7.27866 9.37143 12.3584
79 6 5.1078 5.14121 16.7389
80 6 9.34049 4.32702 9.26546
81 4 4.89135 7.04121 11.3661
82 4 9.51026 2.01245 15.2108
83 4 2.87481 2.78875 11.2879
84 4 2.52652 6.50893 14.5333
85 4 0.926042 7.12899 10.5589
86 4 4.37237 2.47633 14.7989
87 4 6.29033 1.41699 9.82872
88 4 7.87361 7.77502 15.6515
89 1 8.73471 10.2152 3.66517
90 1 5.04888 19.07 4.6259
91 1 7.14412 15.135 0.358405
92 1 6.68209 14.0865 8.04022
93 2 7.77323 18.5387 3.03357
94 2 5.97271 11.3352 4.87124
95 2 8.15368 13.4522 0.892735
96 2 5.4639 15.6802 7.29776
97 2 6.48093 18.2309 3.26012
98 2 7.29437 11.4217 4.80532
99 2 0.311797 13.068 0.566488
100 2 4.31071 16.2728 7.78106
101 2 7.21369 16.6356 1.70796
102 2 6.76476 12.7607 6.58337
103 2 8.60908 11.5986 2.31971
104 2 5.02973 17.655 5.97757
105 5 1.18567 10.5969 4.9288
106 5 3.56539 19.1298 3.06467
107 5 1.42919 15.4056 7.50664
108 5 3.2494 14.0077 0.825017
109 5 3.06778 10.0181 5.71968
110 5 1.53949 19.2626 2.63093
111 5 8.54526 14.9356 7.0727
112 5 5.2382 14.4185 1.34108
113 3 8.14391 17.6427 2.02995
114 3 5.72847 11.9589 6.15114
115 3 7.75222 12.6704 1.92902
116 3 5.85845 16.5996 6.21465
117 3 6.27764 17.0944 2.62114
118 3 7.78457 12.2914 5.76619
119 3 0.503043 11.9928 1.43846
120 3 3.97559 17.2882 6.84282
121 6 2.30295 10.0942 4.77477
122 6 2.44696 19.4735 3.41827
123 6 0.294308 15.1303 7.86834
124 6 4.35291 14.4122 0.503107
125 4 0.0437832 17.3305 2.04024
126 4 4.7301 12.4101 6.41201
127 4 6.72022 12.6336 2.0549
128 4 6.9377 16.6502 5.79504
129 4 5.29561 16.647 2.63125
130 4 8.53409 12.8522 5.49656
131 4 1.25986 11.3348 1.1842
132 4 3.39544 18.0519 7.27786
133 1 4.44596 10.1843 12.3404
134 1 0.747993 19.0243 13.4737
135 1 2.82862 15.0584 9.09583
136 1 2.37165 14.1326 16.6858
137 2 3.39086 18.4724 11.7702
138 2 1.89526 10.6944 14.0885
139 2 3.9554 13.6142 9.65963
140 2 1.3619 15.6808 16.133
141 2 2.0843 18.1607 12.069
142 2 3.14422 11.0794 13.6811
143 2 5.22117 13.1666 9.20563
144 2 9.26785 16.0678 16.5619
145 2 2.94119 16.5982 10.4989
146 2 2.39622 12.717 15.2994
147 2 4.79561 11.9113 11.1982
148 2 0.72206 17.7018 14.9049
149 5 5.99895 10.3298 13.9168
150 5 8.50232 19.0445 11.8739
151 5 6.33324 15.5446 16.3584
152 5 8.27368 13.9874 9.458
153 5 8.08051 10.0719 14.3131
154 5 6.45536 19.1343 11.4355
155 5 4.3991 15.1236 15.8199
156 5 1.12436 14.3969 9.96983
157 3 3.83451 17.51 10.9892
158 3 1.52399 11.5979 15.0553
159 3 3.7767 12.8033 10.8318
160 3 1.65357 16.6866 15.1052
161 3 1.91353 17.1117 11.2073
162 3 3.41163 12.2118 14.4909
163 3 5.54987 12.0731 10.0045
164 3 8.89872 17.2078 15.8592
165 6 7.06902 9.77135 13.7246
166 6 7.34603 19.1968 12.2294
167 6 5.34297 14.8461 16.5552
168 6 9.29265 14.6486 9.29113
169 4 4.87357 17.5744 10.6673
170 4 0.499597 11.5551 15.314
171 4 3.23696 13.3009 11.5491
172 4 2.6972 16.9943 14.8207
173 4 1.06261 16.4522 11.3725
174 4 4.12551 12.858 14.1037
175 4 6.5665 11.5741 9.85849
176 4 7.98807 17.6429 16.047
177 7 7.52773 13.3881 14.4942
178 8 7.18498 13.3263 15.4072
179 8 6.86045 13.8694 13.9834
180 7 6.97436 15.6955 12.6002
181 8 6.80037 16.6284 12.8621
182 8 7.84267 15.6375 12.2569
183 7 5.25001 4.7668 12.95
184 8 4.48275 4.76301 13.513
185 8 5.18861 5.58256 12.4215
186 7 7.5357 4.48385 11.9867
187 8 6.94434 4.8009 12.7017
188 8 7.9759 3.46631 12.1998
189 7 2.79314 4.97121 4.28285
190 8 2.20359 5.67428 4.53622
191 8 2.55222 4.44756 3.55065
192 7 4.63228 2.7507 3.90183
193 8 4.83616 2.47014 3.01576
194 8 5.10149 3.552 4.05872
195 9 2.8129 9.82507 9.58158
196 10 2.9796 9.41922 8.49937
197 10 2.38476 10.2172 10.5034
198 9 9.11108 11.7268 10.5785
199 10 8.52609 11.8386 11.5904
200 10 0.652009 11.5488 9.61996
201 9 7.2058 7.04202 9.72547
202 10 7.54936 6.52089 8.75446
203 10 6.87493 7.48466 10.7696
204 9 1.76748 10.7641 7.71548
205 10 1.01008 9.8953 7.53442
206 10 2.65818 11.4109 8.11854
207 9 6.57715 9.12719 7.51946
208 10 7.33311 8.91814 6.73013
209 10 5.89695 9.06171 8.51653
210 9 9.27646 7.84959 6.9966
211 10 0.711684 7.63121 6.03639
212 10 8.69529 7.99548 7.94108
