variable        T   equal  400.00
variable        dt  equal  2.0 
variable        P   equal  9869.23
variable        nsteps  equal 10         
variable        thermo_freq equal 1
variable        dump_freq equal 1

processors 	* * * map xyz

units		real
atom_style	full
boundary        p p p

#read_restart  	restart.old
read_data       initial.data

pair_style      mbx 9.0
pair_modify     mix arithmetic

bond_style      none
angle_style     none
dihedral_style  none
improper_style  none

pair_coeff      * * 0.0 0.0

neighbor	2.0 bin
neigh_modify	every 1 delay 10

timestep	${dt}

compute         mbx all pair mbx
variable        e1    equal c_mbx[1]
variable        e2    equal c_mbx[2]
variable        e3    equal c_mbx[3]
variable        ebuck equal c_mbx[4]
variable        edisp equal c_mbx[5]
variable        eele  equal c_mbx[6]
variable        etot  equal c_mbx[7]

#velocity        all create ${T} 428459 rot yes dist gaussian
#velocity        all zero linear
#velocity        all zero angular

fix             1 all mbx 2 285 ch4 285 h2o json mbx.json
fix             2 all rigid/npt/small molecule temp ${T} ${T} $(50.0*dt) iso ${P} ${P} $(500.0*dt)

thermo_style	custom step time temp etotal ke pe enthalpy density lx ly lz vol pxx pyy pzz press
thermo          ${thermo_freq}
thermo_modify   flush yes

fix             thermo_print all print 25 "$(step) $(0.001*time) $(temp) $(etotal) $(ke) $(pe) $(enthalpy) $(density) $(lx) $(ly) $(lz) $(vol) $(pxx) $(pyy) $(pzz) $(press)" append thermo.out screen no title "# step time temp etotal ke pe enthalpy density lx ly lz vol pxx pyy pzz press"

dump            1 all custom ${dump_freq} dump.lammpstrj id mol type q x y z
dump_modify     1 append yes sort id format line "%d %d %d %8.4f %15.8f %15.8f %15.8f"

restart         250 restart.1 restart.2

run             ${nsteps}  upto

write_data      final.data nocoeff
write_restart   restart.new
