LAMMPS (10 Sep 2025 - Development - c68a6d42d5)
  using 1 OpenMP thread(s) per MPI task
variable        T   equal  298
variable        dt  equal  0.5
variable        P   equal  1.0
variable        nsteps  equal 100
variable        thermo_freq equal 1
variable        dump_freq equal 1

processors      * * * map xyz

units           real
atom_style      full
boundary        p p p
read_data       initial.data
Reading data file ...
  orthogonal box = (-0.040444797 -0.040444797 -0.040444797) to (20.348405 20.348405 20.348405)
  1 by 1 by 1 MPI processor grid
  reading atoms ...
  832 atoms
  reading velocities ...
  832 velocities
  scanning bonds ...
  2 = max bonds/atom
  scanning angles ...
  1 = max angles/atom
  orthogonal box = (-0.040444797 -0.040444797 -0.040444797) to (20.348405 20.348405 20.348405)
  1 by 1 by 1 MPI processor grid
  reading bonds ...
  554 bonds
  reading angles ...
  277 angles
Finding 1-2 1-3 1-4 neighbors ...
  special bond factors lj:    0        0        0       
  special bond factors coul:  0        0        0       
     2 = max # of 1-2 neighbors
     1 = max # of 1-3 neighbors
     1 = max # of 1-4 neighbors
     2 = max # of special neighbors
  special bonds CPU = 0.000 seconds
  read_data CPU = 0.015 seconds
#read_restart    restart.old

pair_style      mbx 9.0
pair_modify     mix arithmetic

bond_style      none
angle_style     none
dihedral_style  none
improper_style  none

pair_coeff      * * 2 na+ 1 h2o 2 3 3 json mbx.json

neighbor        2.0 bin
neigh_modify    every 1 delay 10

timestep        ${dt}
timestep        0.5

compute         mbx all pair mbx
variable        e1bpip    equal c_mbx[1]
variable        e2bpip    equal c_mbx[2]
variable        e3bpip    equal c_mbx[3]
variable        e4bpip    equal c_mbx[4]
variable        edisp     equal c_mbx[5]
variable        ebuck     equal c_mbx[6]
variable        eperm     equal c_mbx[7]
variable        eind      equal c_mbx[8]
variable        eele      equal c_mbx[9]
variable        etot      equal c_mbx[10]

fix             1 all npt temp ${T} ${T} $(1000.0*dt) iso ${P} ${P} $(4000.0*dt)
fix             1 all npt temp 298 ${T} $(1000.0*dt) iso ${P} ${P} $(4000.0*dt)
fix             1 all npt temp 298 298 $(1000.0*dt) iso ${P} ${P} $(4000.0*dt)
fix             1 all npt temp 298 298 500 iso ${P} ${P} $(4000.0*dt)
fix             1 all npt temp 298 298 500 iso 1 ${P} $(4000.0*dt)
fix             1 all npt temp 298 298 500 iso 1 1 $(4000.0*dt)
fix             1 all npt temp 298 298 500 iso 1 1 2000

velocity        all create ${T} 428459 rot yes dist gaussian
velocity        all create 298 428459 rot yes dist gaussian
velocity        all zero linear
velocity        all zero angular

thermo_style    custom step time temp etotal ke pe enthalpy density lx ly lz vol pxx pyy pzz press
thermo          ${thermo_freq}
thermo          1
thermo_modify   flush yes

fix             thermo_print all print ${thermo_freq} "$(step) $(0.001*time) $(temp) $(etotal) $(ke) $(pe) $(enthalpy) $(density) $(lx) $(ly) $(lz) $(vol) $(pxx) $(pyy) $(pzz) $(press)" file thermo.out screen no title "# step time temp etotal ke pe enthalpy density lx ly lz vol pxx pyy pzz press"
fix             thermo_print all print 1 "$(step) $(0.001*time) $(temp) $(etotal) $(ke) $(pe) $(enthalpy) $(density) $(lx) $(ly) $(lz) $(vol) $(pxx) $(pyy) $(pzz) $(press)" file thermo.out screen no title "# step time temp etotal ke pe enthalpy density lx ly lz vol pxx pyy pzz press"
fix             verbose_mbx_thermo_print all print ${thermo_freq} "$(step) $(0.001*time) $(temp) $(etotal) $(ke) $(pe) $(enthalpy) $(density) $(lx) $(ly) $(lz) $(vol) $(pxx) $(pyy) $(pzz) $(press) $(v_e1bpip) $(v_e2bpip) $(v_e3bpip) $(v_e4bpip) $(v_edisp) $(v_ebuck) $(v_eperm) $(v_eind) $(v_eele) $(v_etot)" file mbx_thermo.out screen no title "# step time temp etotal ke pe enthalpy density lx ly lz vol pxx pyy pzz press e1bpip e2bpip e3bpip e4bpip edisp ebuck eperm eind eele etot"
fix             verbose_mbx_thermo_print all print 1 "$(step) $(0.001*time) $(temp) $(etotal) $(ke) $(pe) $(enthalpy) $(density) $(lx) $(ly) $(lz) $(vol) $(pxx) $(pyy) $(pzz) $(press) $(v_e1bpip) $(v_e2bpip) $(v_e3bpip) $(v_e4bpip) $(v_edisp) $(v_ebuck) $(v_eperm) $(v_eind) $(v_eele) $(v_etot)" file mbx_thermo.out screen no title "# step time temp etotal ke pe enthalpy density lx ly lz vol pxx pyy pzz press e1bpip e2bpip e3bpip e4bpip edisp ebuck eperm eind eele etot"

dump            1 all custom ${dump_freq} dump.lammpstrj id mol type q x y z
dump            1 all custom 1 dump.lammpstrj id mol type q x y z
dump_modify     1 append no sort id format line "%d %d %d %8.4f %15.8f %15.8f %15.8f"

restart         10 restart.1 restart.2

run             ${nsteps}  upto
run             100  upto

CITE-CITE-CITE-CITE-CITE-CITE-CITE-CITE-CITE-CITE-CITE-CITE-CITE

Your simulation uses code contributions which should be cited:

- pair mbx command:

@article{10.1063/5.0156036,
 author = {Riera, Marc and Knight, Christopher and Bull-Vulpe, Ethan F. and Zhu, Xuanyu and Agnew, Henry and Smith, Daniel G. A. and Simmonett, Andrew C. and Paesani, Francesco},
 title = "{MBX: A many-body energy and force calculator for data-driven many-body simulations}",
 journal = {The Journal of Chemical Physics},
 volume = {159},
 number = {5},
 pages = {054802},
 year = {2023},
 doi = {10.1063/5.0156036},
}

CITE-CITE-CITE-CITE-CITE-CITE-CITE-CITE-CITE-CITE-CITE-CITE-CITE

Generated 0 of 3 mixed pair_coeff terms from arithmetic mixing rule
WARNING: Bonds are defined but no bond style is set (src/force.cpp:198)
WARNING: Likewise 1-2 special neighbor interactions != 1.0 (src/force.cpp:200)
WARNING: Angles are defined but no angle style is set (src/force.cpp:203)
WARNING: Likewise 1-3 special neighbor interactions != 1.0 (src/force.cpp:205)
Neighbor list info ...
  update: every = 1 steps, delay = 10 steps, check = yes
  max neighbors/atom: 2000, page size: 100000
  master list distance cutoff = 11
  ghost atom cutoff = 11
  binsize = 5.5, bins = 4 4 4
  1 neighbor lists, perpetual/occasional/extra = 1 0 0
  (1) pair mbx, perpetual
      attributes: half, newton on
      pair build: half/bin/newton
      stencil: half/bin/3d
      bin: standard
Per MPI rank memory allocation (min/avg/max) = 8.486 | 8.486 | 8.486 Mbytes
   Step          Time           Temp          TotEng         KinEng         PotEng        Enthalpy       Density           Lx             Ly             Lz           Volume          Pxx            Pyy            Pzz           Press     
         0   0              298           -1922.1448      738.16184     -2660.3067     -1887.0068      0.9819168      20.38885       20.38885       20.38885       8475.7505     -619.40418     -3505.2959      4977.4942      284.26472    
         1   0.5            303.55143     -1922.7166      751.91303     -2674.6296     -1995.4685      0.9819168      20.38885       20.38885       20.38885       8475.7506     -1767.7968     -3374.1302      3376.2492     -588.55924    
         2   1              306.10756     -1923.0034      758.24469     -2681.248      -2085.8267      0.98191682     20.388849      20.388849      20.388849      8475.7504     -2663.4324     -2810.6873      1522.4204     -1317.2331    
         3   1.5            303.97359     -1922.7838      752.95873     -2675.7426     -2143.4652      0.9819169      20.388849      20.388849      20.388849      8475.7497     -3183.1693     -1832.67       -340.06521     -1785.3015    
         4   2              298.41954     -1922.1865      739.20106     -2661.3876     -2166.8492      0.98191706     20.388848      20.388848      20.388848      8475.7483     -3285.9969     -589.47926     -2062.4529     -1979.3097    
         5   2.5            292.92828     -1921.6052      725.59891     -2647.2041     -2165.188       0.98191732     20.388846      20.388846      20.388846      8475.7461     -3011.1665      656.25513     -3556.8103     -1970.5739    
         6   3              290.90735     -1921.4235      720.59298     -2642.0165     -2150.4065      0.98191766     20.388844      20.388844      20.388844      8475.7432     -2449.3541      1615.6635     -4723.6977     -1852.4627    
         7   3.5            293.48947     -1921.7178      726.98901     -2648.7068     -2128.9685      0.98191809     20.388841      20.388841      20.388841      8475.7394     -1702.5884      2088.0166     -5415.3809     -1676.6509    
         8   4              299.03398     -1922.2386      740.72306     -2662.9617     -2099.2709      0.9819186      20.388837      20.388837      20.388837      8475.7351     -857.71437      2034.4827     -5473.3243     -1432.1853    
         9   4.5            304.50241     -1922.6344      754.26866     -2676.903      -2055.4957      0.98191917     20.388833      20.388833      20.388833      8475.7301      13.118975      1574.3023     -4811.9543     -1074.8443    
        10   5              307.48661     -1922.7051      761.66067     -2684.3658     -1994.22        0.9819198      20.388829      20.388829      20.388829      8475.7247      835.01118      911.86892     -3482.5408     -578.55357    
        11   5.5            307.39601     -1922.5311      761.43625     -2683.9673     -1918.835       0.98192045     20.388824      20.388824      20.388824      8475.7191      1521.1034      239.51125     -1670.9114      29.901064    
        12   6              305.10364     -1922.3421      755.75794     -2678.1001     -1839.1237      0.98192109     20.38882       20.38882       20.38882       8475.7135      1985.9618     -327.48344      361.23002      673.23613    
        13   6.5            301.76495     -1922.2417      747.48781     -2669.7295     -1767.4435      0.98192171     20.388816      20.388816      20.388816      8475.7082      2170.2414     -758.39468      2345.1033      1252.3167    
        14   7              298.21923     -1922.1299      738.70488     -2660.8348     -1715.4082      0.98192227     20.388812      20.388812      20.388812      8475.7034      2053.4541     -1081.6125      4045.2928      1672.3781    
        15   7.5            295.3669      -1921.9235      731.63952     -2653.563      -1692.6401      0.98192275     20.388808      20.388808      20.388808      8475.6992      1649.2226     -1354.5493      5270.0357      1854.903     
        16   8              294.48842     -1921.7271      729.46347     -2651.1906     -1705.4937      0.98192314     20.388806      20.388806      20.388806      8475.6958      998.4427      -1626.3921      5875.9369      1749.3292    
        17   8.5            296.64248     -1921.7432      734.79918     -2656.5424     -1754.2507      0.98192346     20.388804      20.388804      20.388804      8475.6931      170.70885     -1893.7114      5788.0492      1355.0156    
        18   9              301.55349     -1922.0832      746.96402     -2669.0472     -1830.4188      0.98192371     20.388802      20.388802      20.388802      8475.6909     -731.73109     -2077.8831      5034.3125      741.56611    
        19   9.5            307.08103     -1922.6092      760.65604     -2683.2652     -1917.1881      0.98192393     20.3888        20.3888        20.3888        8475.6891     -1579.2985     -2053.3477      3764.2152      43.856336    
        20   10             310.11301     -1922.9724      768.1664      -2691.1388     -1994.7939      0.98192414     20.388799      20.388799      20.388799      8475.6872     -2234.4952     -1715.6994      2207.0828     -581.03728    
        21   10.5           308.55121     -1922.9015      764.29776     -2687.1993     -2048.9217      0.98192439     20.388797      20.388797      20.388797      8475.6851     -2585.3903     -1052.7226      579.59638     -1019.5055    
        22   11             302.87243     -1922.404       750.2311      -2672.6351     -2076.7609      0.98192467     20.388795      20.388795      20.388795      8475.6826     -2583.4897     -184.99684     -977.76374     -1248.7501    
        23   11.5           296.08355     -1921.7526      733.41469     -2655.1673     -2086.7011      0.98192502     20.388793      20.388793      20.388793      8475.6796     -2264.63        647.15418     -2385.8327     -1334.4361    
        24   12             292.0701      -1921.3424      723.47317     -2644.8156     -2091.8873      0.98192543     20.38879       20.38879       20.38879       8475.6761     -1734.0839      1162.8546     -3567.9059     -1379.7118    
        25   12.5           293.26362     -1921.4393      726.42958     -2647.8689     -2101.2962      0.9819259      20.388787      20.388787      20.388787      8475.672      -1119.3612      1167.0934     -4412.872      -1455.0466    
        26   13             299.12804     -1921.9594      740.95606     -2662.9154     -2113.8765      0.98192644     20.388783      20.388783      20.388783      8475.6674     -520.43508      655.08358     -4792.4955     -1552.6157    
        27   13.5           306.63422     -1922.5316      759.54927     -2682.0809     -2119.7999      0.98192705     20.388779      20.388779      20.388779      8475.6621      10.898167     -185.20888     -4613.4117     -1595.9075    
        28   14             312.3391      -1922.8198      773.68055     -2696.5003     -2107.6487      0.98192773     20.388774      20.388774      20.388774      8475.6562      457.85485     -1081.4395     -3862.2364     -1495.2737    
        29   14.5           314.35516     -1922.7536      778.67443     -2701.428      -2071.9774      0.98192848     20.388769      20.388769      20.388769      8475.6498      815.13388     -1815.505      -2621.3117     -1207.2276    
        30   15             312.883       -1922.4915      775.02783     -2697.5193     -2016.5658      0.98192929     20.388763      20.388763      20.388763      8475.6428      1076.7201     -2301.1294     -1058.7885     -761.06592    
        31   15.5           309.42668     -1922.2142      766.46633     -2688.6805     -1952.5232      0.98193013     20.388757      20.388757      20.388757      8475.6355      1237.028      -2572.055       599.42142     -245.20187    
        32   16             305.76976     -1921.9848      757.40795     -2679.3928     -1893.9868      0.98193098     20.388751      20.388751      20.388751      8475.6282      1289.6709     -2719.3111      2109.1593      226.50636    
        33   16.5           303.45451     -1921.8266      751.67296     -2673.4995     -1854.0836      0.98193183     20.388746      20.388746      20.388746      8475.6209      1218.3391     -2825.3032      3251.1018      548.04591    
        34   17             303.51449     -1921.8002      751.82153     -2673.6217     -1841.5639      0.98193264     20.38874       20.38874       20.38874       8475.6138      995.26601     -2915.179       3867.2675      649.11817    
        35   17.5           306.15037     -1921.9202      758.35073     -2680.2709     -1858.2078      0.98193343     20.388735      20.388735      20.388735      8475.607       601.96192     -2936.9961      3881.3508      515.43889    
        36   18             310.63526     -1922.1496      769.46006     -2691.6096     -1898.2889      0.98193419     20.388729      20.388729      20.388729      8475.6005      61.847494     -2783.9827      3301.2418      193.03555    
        37   18.5           315.46576     -1922.4882      781.42546     -2703.9137     -1950.3611      0.98193495     20.388724      20.388724      20.388724      8475.5939     -542.10434     -2350.1782      2215.7993     -225.49441    
        38   19             318.53342     -1922.8433      789.02422     -2711.8675     -2000.4252      0.98193571     20.388719      20.388719      20.388719      8475.5873     -1083.3394     -1586.5882      786.99147     -627.64537    
        39   19.5           317.85393     -1922.9419      787.34109     -2710.2829     -2036.8628      0.98193651     20.388713      20.388713      20.388713      8475.5805     -1437.1631     -537.39481     -790.3426      -921.63351    
        40   20             313.06789     -1922.5875      775.48581     -2698.0733     -2056.2506      0.98193734     20.388707      20.388707      20.388707      8475.5733     -1532.0362      641.38418     -2353.4011     -1081.351     
        41   20.5           306.41244     -1921.9256      758.99989     -2680.9255     -2065.707       0.98193823     20.388701      20.388701      20.388701      8475.5656     -1377.2581      1688.4819     -3800.8534     -1163.2099    
        42   21             301.77914     -1921.4086      747.52296     -2668.9315     -2078.3686      0.98193916     20.388695      20.388695      20.388695      8475.5575     -1050.2327      2300.0041     -5059.2552     -1269.828     
        43   21.5           302.13294     -1921.4335      748.39936     -2669.8329     -2103.9702      0.98194016     20.388688      20.388688      20.388688      8475.5489     -651.24507      2252.3981     -6031.3963     -1476.7478    
        44   22             307.32303     -1921.9658      761.25549     -2683.2213     -2141.1938      0.98194123     20.388681      20.388681      20.388681      8475.5398     -254.83713      1520.0581     -6585.9852     -1773.5881    
        45   22.5           314.24648     -1922.5971      778.40524     -2701.0023     -2177.9163      0.98194237     20.388673      20.388673      20.388673      8475.5299      109.80126      294.22552     -6600.7499     -2065.5744    
        46   23             319.09892     -1922.9381      790.42498     -2713.3631     -2198.8015      0.98194361     20.388664      20.388664      20.388664      8475.5191      441.56693     -1114.9762     -6021.9374     -2231.7822    
        47   23.5           319.66933     -1922.874       791.83793     -2714.7119     -2193.9199      0.98194496     20.388655      20.388655      20.388655      8475.5075      736.95514     -2415.7877     -4899.6        -2192.8108    
        48   24             316.14644     -1922.5469      783.11154     -2705.6584     -2163.0862      0.9819464      20.388645      20.388645      20.388645      8475.4951      973.45689     -3427.5249     -3383.9628     -1946.0103    
        49   24.5           310.40789     -1922.1787      768.89683     -2691.0755     -2114.614       0.98194794     20.388634      20.388634      20.388634      8475.4818      1114.9208     -4096.8352     -1688.6103     -1556.8415    
        50   25             304.75515     -1921.9021      754.89469     -2676.7968     -2060.7715      0.98194955     20.388623      20.388623      20.388623      8475.4679      1125.6804     -4455.6534     -40.480033     -1123.4843    
        51   25.5           301.00979     -1921.7692      745.61724     -2667.3864     -2013.0774      0.9819512      20.388612      20.388612      20.388612      8475.4536      979.71311     -4558.4363      1362.6081     -738.70506    
        52   26             300.06871     -1921.8164      743.28615     -2665.1025     -1978.9888      0.9819529      20.3886        20.3886        20.3886        8475.439       667.44854     -4432.3591      2377.2928     -462.53927    
        53   26.5           301.70419     -1922.0147      747.33731     -2669.352      -1960.12        0.98195461     20.388588      20.388588      20.388588      8475.4242      210.3338      -4058.8041      2923.6229     -308.28246    
        54   27             304.78496     -1922.2413      754.96854     -2677.2099     -1952.7106      0.98195634     20.388576      20.388576      20.388576      8475.4093     -326.81593     -3389.8939      2977.1944     -246.50514    
        55   27.5           307.92365     -1922.4295      762.74325     -2685.1728     -1950.1666      0.98195808     20.388564      20.388564      20.388564      8475.3943     -841.90766     -2386.4569      2555.1619     -224.40088    
        56   28             309.84193     -1922.6478      767.49492     -2690.1427     -1945.8478      0.98195983     20.388552      20.388552      20.388552      8475.3792     -1222.5785     -1059.7586      1719.2531     -187.69465    
        57   28.5           309.22783     -1922.8447      765.97378     -2688.8185     -1934.792       0.98196158     20.38854       20.38854       20.38854       8475.3641     -1377.96        494.12526      593.86313     -96.657218    
        58   29             305.19503     -1922.7449      755.98432     -2678.7292     -1916.3052      0.98196334     20.388527      20.388527      20.388527      8475.3488     -1268.1651      2072.8955     -648.43379      52.098876    
        59   29.5           298.63276     -1922.2338      739.72921     -2661.963      -1897.2426      0.9819651      20.388515      20.388515      20.388515      8475.3337     -926.06444      3379.5771     -1846.9517      202.18697    
        60   30             292.61517     -1921.636       724.82333     -2646.4593     -1891.1125      0.98196685     20.388503      20.388503      20.388503      8475.3186     -452.76249      4094.612      -2901.0126      246.94565    
        61   30.5           290.54935     -1921.4533      719.70618     -2641.1594     -1910.588       0.98196859     20.388491      20.388491      20.388491      8475.3036      21.483743      4001.0247     -3758.7953      87.904389    
        62   31             293.45805     -1921.8522      726.91119     -2648.7634     -1958.3476      0.98197032     20.388479      20.388479      20.388479      8475.2886      389.31603      3094.0661     -4369.1688     -295.2622     
        63   31.5           299.06882     -1922.502       740.80937     -2663.3114     -2024.1118      0.98197207     20.388467      20.388467      20.388467      8475.2735      595.86466      1592.4773     -4654.5357     -822.06458    
        64   32             303.60506     -1922.9092      752.04588     -2674.9551     -2090.5127      0.98197386     20.388455      20.388455      20.388455      8475.2581      631.248       -163.48267     -4535.7164     -1355.9837    
        65   32.5           304.55541     -1922.8419      754.39994     -2677.2418     -2142.7601      0.9819757      20.388442      20.388442      20.388442      8475.2422      504.16395     -1854.4433     -3987.4255     -1779.235     
        66   33             302.07318     -1922.4603      748.25133     -2670.7116     -2174.7797      0.98197763     20.388429      20.388429      20.388429      8475.2255      226.0197      -3277.0545     -3073.1005     -2041.3784    
        67   33.5           298.21197     -1922.0894      738.6869      -2660.7763     -2188.6455      0.98197966     20.388415      20.388415      20.388415      8475.2081     -184.84113     -4353.6213     -1931.2315     -2156.5646    
        68   34             295.1439      -1921.9231      731.08712     -2653.0102     -2189.7392      0.98198178     20.3884        20.3884        20.3884        8475.1897     -693.67045     -5077.8301     -728.78776     -2166.7628    
        69   34.5           293.97065     -1921.9456      728.18092     -2650.1265     -2182.3492      0.981984       20.388385      20.388385      20.388385      8475.1706     -1251.2919     -5450.1212      381.02248     -2106.7969    
        70   35             294.68355     -1922.0438      729.9468      -2651.9906     -2168.151       0.98198632     20.388368      20.388368      20.388368      8475.1505     -1803.8391     -5444.4015      1274.8312     -1991.1365    
        71   35.5           296.73564     -1922.1453      735.02995     -2657.1752     -2146.9205      0.98198873     20.388352      20.388352      20.388352      8475.1297     -2296.0981     -5015.5105      1855.9464     -1818.5541    
        72   36             299.49145     -1922.2388      741.85625     -2664.0951     -2117.6717      0.98199123     20.388335      20.388335      20.388335      8475.1082     -2665.3883     -4129.0205      2050.9228     -1581.162     
        73   36.5           302.36854     -1922.3246      748.98295     -2671.3076     -2079.4522      0.9819938      20.388317      20.388317      20.388317      8475.086      -2838.8547     -2792.696       1817.7888     -1271.254     
        74   37             304.81702     -1922.4439      755.04795     -2677.4919     -2032.1181      0.98199642     20.388299      20.388299      20.388299      8475.0634     -2747.5465     -1078.9561      1164.5111     -887.3305     
        75   37.5           306.11042     -1922.6322      758.25177     -2680.8839     -1976.7426      0.98199909     20.38828       20.38828       20.38828       8475.0403     -2349.1773      865.34682      170.46726     -437.78775    
        76   38             305.32595     -1922.7318      756.30861     -2679.0404     -1916.3722      0.98200178     20.388262      20.388262      20.388262      8475.0172     -1650.4236      2821.3834     -1016.5993      51.453485    
        77   38.5           302.22054     -1922.5141      748.61635     -2671.1305     -1858.1864      0.98200446     20.388243      20.388243      20.388243      8474.994      -720.92047      4513.4874     -2231.2021      520.45494    
        78   39             298.2681      -1922.0589      738.82593     -2660.8848     -1814.8047      0.98200712     20.388225      20.388225      20.388225      8474.971       309.06884      5647.4865     -3353.2736      867.76059    
        79   39.5           296.09752     -1921.7669      733.4493      -2655.2162     -1800.5372      0.98200974     20.388206      20.388206      20.388206      8474.9484      1275.9268      5985.1865     -4318.6083      980.83503    
        80   40             297.33144     -1921.938       736.50579     -2658.4438     -1823.6359      0.98201232     20.388189      20.388189      20.388189      8474.9262      2024.8391      5437.1856     -5076.0153      795.33647    
        81   40.5           301.01904     -1922.4199      745.64016     -2668.06       -1881.1204      0.98201485     20.388171      20.388171      20.388171      8474.9043      2442.9351      4112.2223     -5552.7259      334.14383    
        82   41             304.46358     -1922.7626      754.17247     -2676.9351     -1961.0358      0.98201738     20.388154      20.388154      20.388154      8474.8825      2469.5144      2273.7636     -5672.2572     -309.65971    
        83   41.5           305.62151     -1922.7101      757.04073     -2679.7508     -2049.9421      0.98201991     20.388136      20.388136      20.388136      8474.8606      2088.8572      226.97027     -5404.0546     -1029.409     
        84   42             304.54679     -1922.4203      754.37859     -2676.7989     -2138.4272      0.9820225      20.388118      20.388118      20.388118      8474.8383      1324.8733     -1779.2211     -4788.671      -1747.6729    
        85   42.5           302.68228     -1922.1974      749.76011     -2671.9575     -2220.7906      0.98202516     20.3881        20.3881        20.3881        8474.8153      246.85325     -3574.8627     -3919.604      -2415.8711    
        86   43             301.26601     -1922.1574      746.25191     -2668.4093     -2291.7479      0.98202794     20.38808       20.38808       20.38808       8474.7914     -1027.4683     -5034.8914     -2908.5625     -2990.3074    
        87   43.5           300.60518     -1922.2053      744.615       -2666.8203     -2344.7844      0.98203085     20.38806       20.38806       20.38806       8474.7663     -2346.9078     -6046.0801     -1864.1367     -3419.0415    
        88   44             300.48567     -1922.2215      744.31897     -2666.5405     -2373.3463      0.98203392     20.388039      20.388039      20.388039      8474.7397     -3555.1775     -6507.1656     -887.69578     -3650.013     
        89   44.5           300.79952     -1922.1964      745.0964      -2667.2928     -2372.8846      0.98203716     20.388017      20.388017      20.388017      8474.7118     -4514.2198     -6352.4959     -72.762962     -3646.4929    
        90   45             301.64646     -1922.1971      747.19432     -2669.3914     -2341.8488      0.98204057     20.387993      20.387993      20.387993      8474.6824     -5111.5854     -5574.7912      500.20546     -3395.3904    
        91   45.5           303.03673     -1922.2467      750.63809     -2672.8848     -2281.4058      0.98204413     20.387968      20.387968      20.387968      8474.6516     -5258.4415     -4232.1275      772.69943     -2905.9565    
        92   46             304.74607     -1922.3235      754.87221     -2677.1957     -2195.2123      0.98204783     20.387943      20.387943      20.387943      8474.6197     -4896.4178     -2441.9816      714.5438      -2207.9519    
        93   46.5           306.35455     -1922.4544      758.8565      -2681.3109     -2089.4726      0.98205163     20.387917      20.387917      20.387917      8474.5869     -4017.1044     -370.92268      333.96276     -1351.3548    
        94   47             307.16389     -1922.6308      760.86127     -2683.492      -1972.6366      0.98205549     20.38789       20.38789       20.38789       8474.5536     -2681.0983      1771.7455     -304.45294     -404.60192    
        95   47.5           306.38536     -1922.6856      758.93282     -2681.6185     -1855.435       0.98205937     20.387863      20.387863      20.387863      8474.5201     -1023.2614      3734.8096     -1079.1483      544.1333     
        96   48             303.97776     -1922.498       752.96908     -2675.4671     -1751.8648      0.98206322     20.387836      20.387836      20.387836      8474.4869      760.76272      5235.5313     -1854.433       1380.6204    
        97   48.5           301.16071     -1922.2139      745.99109     -2668.205      -1678.5211      0.98206702     20.38781       20.38781       20.38781       8474.4542      2442.7127      6005.3105     -2532.7281      1971.765     
        98   49             299.59395     -1922.1053      742.11014     -2664.2154     -1650.0454      0.98207072     20.387784      20.387784      20.387784      8474.4222      3794.8155      5877.8563     -3068.7836      2201.2961    
        99   49.5           299.93655     -1922.2555      742.95878     -2665.2143     -1673.3745      0.98207431     20.38776       20.38776       20.38776       8474.3912      4618.0445      4868.5684     -3445.3374      2013.7585    
       100   50             301.39613     -1922.47        746.57424     -2669.0442     -1745.3977      0.98207782     20.387735      20.387735      20.387735      8474.3609      4767.007       3174.4432     -3643.2266      1432.7412    
Loop time of 82.3365 on 1 procs for 100 steps with 832 atoms

Performance: 0.052 ns/day, 457.425 hours/ns, 1.215 timesteps/s, 1.010 katom-step/s
99.5% CPU use with 1 MPI tasks x 1 OpenMP threads

MPI task timing breakdown:
Section |  min time  |  avg time  |  max time  |%varavg| %total
---------------------------------------------------------------
Pair    | 81.675     | 81.675     | 81.675     |   0.0 | 99.20
Bond    | 1.6404e-05 | 1.6404e-05 | 1.6404e-05 |   0.0 |  0.00
Neigh   | 0.063115   | 0.063115   | 0.063115   |   0.0 |  0.08
Comm    | 0.0069813  | 0.0069813  | 0.0069813  |   0.0 |  0.01
Output  | 0.2121     | 0.2121     | 0.2121     |   0.0 |  0.26
Modify  | 0.37799    | 0.37799    | 0.37799    |   0.0 |  0.46
Other   |            | 0.001236   |            |       |  0.00

Nlocal:            832 ave         832 max         832 min
Histogram: 1 0 0 0 0 0 0 0 0 0
Nghost:           6683 ave        6683 max        6683 min
Histogram: 1 0 0 0 0 0 0 0 0 0
Neighs:         226602 ave      226602 max      226602 min
Histogram: 1 0 0 0 0 0 0 0 0 0

Total # of neighbors = 226602
Ave neighs/atom = 272.35817
Ave special neighs/atom = 1.9975962
Neighbor list builds = 10
Dangerous builds = 0

write_data      final.data nocoeff
System init for write_data ...
Generated 0 of 3 mixed pair_coeff terms from arithmetic mixing rule
WARNING: Bonds are defined but no bond style is set (src/force.cpp:198)
WARNING: Likewise 1-2 special neighbor interactions != 1.0 (src/force.cpp:200)
WARNING: Angles are defined but no angle style is set (src/force.cpp:203)
WARNING: Likewise 1-3 special neighbor interactions != 1.0 (src/force.cpp:205)
write_restart   restart.new
System init for write_restart ...
Generated 0 of 3 mixed pair_coeff terms from arithmetic mixing rule
WARNING: Bonds are defined but no bond style is set (src/force.cpp:198)
WARNING: Likewise 1-2 special neighbor interactions != 1.0 (src/force.cpp:200)
WARNING: Angles are defined but no angle style is set (src/force.cpp:203)
WARNING: Likewise 1-3 special neighbor interactions != 1.0 (src/force.cpp:205)

[MBX] Total MBX fix/pair time= 83.351126 seconds
[MBX] Timing Summary
[MBX] kernel                      tmin          tavg          tmax         count   %total
[MBX] -----------------------------------------------------------------------------------
[MBX] INIT                :       0.23118       0.23118       0.23118        11     0.28%
[MBX] UPDATE_XYZ          :      0.026203      0.026203      0.026203       101     0.03%
[MBX] ACCUMULATE_F        :        0.0585        0.0585        0.0585       505     0.07%
[MBX] E1B                 :       0.24246       0.24246       0.24246       101     0.29%
[MBX] E2B_LOCAL           :             0             0             0         0     0.00%
[MBX] E2B_GHOST           :        8.4412        8.4412        8.4412       101    10.13%
[MBX] E3B_LOCAL           :             0             0             0         0     0.00%
[MBX] E3B_GHOST           :        34.155        34.155        34.155       101    40.98%
[MBX] E4B_LOCAL           :             0             0             0         0     0.00%
[MBX] E4B_GHOST           :       0.19424       0.19424       0.19424       101     0.23%
[MBX] DISP                :        3.8783        3.8783        3.8783       101     4.65%
[MBX] DISP_PME            :        1.3632        1.3632        1.3632       101     1.64%
[MBX] BUCK                :        3.3831        3.3831        3.3831       202     4.06%
[MBX] ELE                 :        30.797        30.797        30.797       101    36.95%
[MBX] INIT_FULL           :             0             0             0         0     0.00%
[MBX] UPDATE_XYZ_FULL     :             0             0             0         0     0.00%
[MBX] ACCUMULATE_F_FULL   :             0             0             0         0     0.00%
[MBX] INIT_LOCAL          :      0.078615      0.078615      0.078615        11     0.09%
[MBX] UPDATE_XYZ_LOCAL    :      0.033875      0.033875      0.033875       101     0.04%
[MBX] ACCUMULATE_F_LOCAL  :      0.030488      0.030488      0.030488       404     0.04%


[MBX] Electrostatics Summary
[MBX] kernel                      tmin          tavg          tmax         count   %total
[MBX] -----------------------------------------------------------------------------------
[MBX] ELE_PERMDIP_REAL    :        2.7434        2.7434        2.7434       101     3.29%
[MBX] ELE_PERMDIP_PME     :       0.81534       0.81534       0.81534       101     0.98%
[MBX] ELE_DIPFIELD_REAL   :        10.296        10.296        10.296      1212    12.35%
[MBX] ELE_DIPFIELD_PME    :        9.9554        9.9554        9.9554      1212    11.94%
[MBX] ELE_GRAD_REAL       :        2.6945        2.6945        2.6945       101     3.23%
[MBX] ELE_GRAD_PME        :        2.9039        2.9039        2.9039       101     3.48%
[MBX] ELE_GRAD_FIN        :      0.047294      0.047294      0.047294       101     0.06%
[MBX] ELE_PME_SETUP       :    0.00012609    0.00012609    0.00012609      1414     0.00%
[MBX] ELE_PME_C           :        1.6525        1.6525        1.6525       202     1.98%
[MBX] ELE_PME_D           :        10.932        10.932        10.932      1313    13.12%
[MBX] ELE_PME_E           :         1.057         1.057         1.057       101     1.27%
[MBX] DISP_PME_SETUP      :       0.16902       0.16902       0.16902       101     0.20%
[MBX] DISP_PME_E          :        1.1379        1.1379        1.1379       101     1.37%
[MBX] ELE_COMM_REVFOR     :      0.015012      0.015012      0.015012      1313     0.02%
[MBX] ELE_COMM_REVSET     :    0.00023268    0.00023268    0.00023268        11     0.00%
[MBX] ELE_COMM_REV        :    0.00050297    0.00050297    0.00050297      1302     0.00%
[MBX] ELE_COMM_FORSET     :    0.00098882    0.00098882    0.00098882        11     0.00%
[MBX] ELE_COMM_FOR        :      0.010149      0.010149      0.010149      1302     0.01%
Total wall time: 0:01:23
