LAMMPS (11 Feb 2026 - Development - patch_11Feb2026-156-g48a5c9ef8e)
  using 1 OpenMP thread(s) per MPI task
variable        T   equal  298
variable        dt  equal  0.5
variable        P   equal  1.0
variable        nsteps  equal 100
variable        thermo_freq equal 1
variable        dump_freq equal 1

processors      * * * map xyz

units           real
atom_style      full
boundary        p p p
read_data       initial.data
Reading data file ...
  orthogonal box = (-0.040444797 -0.040444797 -0.040444797) to (20.348405 20.348405 20.348405)
  1 by 1 by 1 MPI processor grid
  reading atoms ...
  832 atoms
  reading velocities ...
  832 velocities
  scanning bonds ...
  2 = max bonds/atom
  scanning angles ...
  1 = max angles/atom
  orthogonal box = (-0.040444797 -0.040444797 -0.040444797) to (20.348405 20.348405 20.348405)
  1 by 1 by 1 MPI processor grid
  reading bonds ...
  554 bonds
  reading angles ...
  277 angles
Finding 1-2 1-3 1-4 neighbors ...
  special bond factors lj:    0        0        0       
  special bond factors coul:  0        0        0       
     2 = max # of 1-2 neighbors
     1 = max # of 1-3 neighbors
     1 = max # of 1-4 neighbors
     2 = max # of special neighbors
  special bonds CPU = 0.000 seconds
  read_data CPU = 0.089 seconds
#read_restart    restart.old

pair_style      mbx 9.0

bond_style      none
angle_style     none
dihedral_style  none
improper_style  none

pair_coeff      * * 2 na+ 1 h2o 2 3 3 json mbx.json

neighbor        2.0 bin
neigh_modify    every 1 delay 10

timestep        ${dt}
timestep        0.5

compute         mbx all pair mbx
variable        e1bpip    equal c_mbx[1]
variable        e2bpip    equal c_mbx[2]
variable        e3bpip    equal c_mbx[3]
variable        e4bpip    equal c_mbx[4]
variable        edisp     equal c_mbx[5]
variable        ebuck     equal c_mbx[6]
variable        eperm     equal c_mbx[7]
variable        eind      equal c_mbx[8]
variable        eele      equal c_mbx[9]
variable        etot      equal c_mbx[10]

fix             1 all npt temp ${T} ${T} $(1000.0*dt) iso ${P} ${P} $(4000.0*dt)
fix             1 all npt temp 298 ${T} $(1000.0*dt) iso ${P} ${P} $(4000.0*dt)
fix             1 all npt temp 298 298 $(1000.0*dt) iso ${P} ${P} $(4000.0*dt)
fix             1 all npt temp 298 298 500 iso ${P} ${P} $(4000.0*dt)
fix             1 all npt temp 298 298 500 iso 1 ${P} $(4000.0*dt)
fix             1 all npt temp 298 298 500 iso 1 1 $(4000.0*dt)
fix             1 all npt temp 298 298 500 iso 1 1 2000

velocity        all create ${T} 428459 rot yes dist gaussian
velocity        all create 298 428459 rot yes dist gaussian
velocity        all zero linear
velocity        all zero angular

thermo_style    custom step time temp etotal ke pe enthalpy density lx ly lz vol pxx pyy pzz press
thermo          ${thermo_freq}
thermo          1
thermo_modify   flush yes

fix             thermo_print all print ${thermo_freq} "$(step) $(0.001*time) $(temp) $(etotal) $(ke) $(pe) $(enthalpy) $(density) $(lx) $(ly) $(lz) $(vol) $(pxx) $(pyy) $(pzz) $(press)" file thermo.out screen no title "# step time temp etotal ke pe enthalpy density lx ly lz vol pxx pyy pzz press"
fix             thermo_print all print 1 "$(step) $(0.001*time) $(temp) $(etotal) $(ke) $(pe) $(enthalpy) $(density) $(lx) $(ly) $(lz) $(vol) $(pxx) $(pyy) $(pzz) $(press)" file thermo.out screen no title "# step time temp etotal ke pe enthalpy density lx ly lz vol pxx pyy pzz press"
fix             verbose_mbx_thermo_print all print ${thermo_freq} "$(step) $(0.001*time) $(temp) $(etotal) $(ke) $(pe) $(enthalpy) $(density) $(lx) $(ly) $(lz) $(vol) $(pxx) $(pyy) $(pzz) $(press) $(v_e1bpip) $(v_e2bpip) $(v_e3bpip) $(v_e4bpip) $(v_edisp) $(v_ebuck) $(v_eperm) $(v_eind) $(v_eele) $(v_etot)" file mbx_thermo.out screen no title "# step time temp etotal ke pe enthalpy density lx ly lz vol pxx pyy pzz press e1bpip e2bpip e3bpip e4bpip edisp ebuck eperm eind eele etot"
fix             verbose_mbx_thermo_print all print 1 "$(step) $(0.001*time) $(temp) $(etotal) $(ke) $(pe) $(enthalpy) $(density) $(lx) $(ly) $(lz) $(vol) $(pxx) $(pyy) $(pzz) $(press) $(v_e1bpip) $(v_e2bpip) $(v_e3bpip) $(v_e4bpip) $(v_edisp) $(v_ebuck) $(v_eperm) $(v_eind) $(v_eele) $(v_etot)" file mbx_thermo.out screen no title "# step time temp etotal ke pe enthalpy density lx ly lz vol pxx pyy pzz press e1bpip e2bpip e3bpip e4bpip edisp ebuck eperm eind eele etot"

dump            1 all custom ${dump_freq} dump.lammpstrj id mol type q x y z
dump            1 all custom 1 dump.lammpstrj id mol type q x y z
dump_modify     1 append no sort id format line "%d %d %d %8.4f %15.8f %15.8f %15.8f"

restart         10 restart.1 restart.2

run             ${nsteps}  upto
run             100  upto

CITE-CITE-CITE-CITE-CITE-CITE-CITE-CITE-CITE-CITE-CITE-CITE-CITE

Your simulation uses code contributions which should be cited:

- pair mbx command:

@article{10.1063/5.0156036,
 author = {Riera, Marc and Knight, Christopher and Bull-Vulpe, Ethan F. and Zhu, Xuanyu and Agnew, Henry and Smith, Daniel G. A. and Simmonett, Andrew C. and Paesani, Francesco},
 title = "{MBX: A many-body energy and force calculator for data-driven many-body simulations}",
 journal = {The Journal of Chemical Physics},
 volume = {159},
 number = {5},
 pages = {054802},
 year = {2023},
 doi = {10.1063/5.0156036},
 version = {1.3.7}
}

CITE-CITE-CITE-CITE-CITE-CITE-CITE-CITE-CITE-CITE-CITE-CITE-CITE

Generated 0 of 3 mixed pair_coeff terms from geometric mixing rule
WARNING: Bonds are defined but no bond style is set (src/force.cpp:198)
WARNING: Likewise 1-2 special neighbor interactions != 1.0 (src/force.cpp:200)
WARNING: Angles are defined but no angle style is set (src/force.cpp:203)
WARNING: Likewise 1-3 special neighbor interactions != 1.0 (src/force.cpp:205)
Neighbor list info ...
  update: every = 1 steps, delay = 10 steps, check = yes
  max neighbors/atom: 2000, page size: 100000
  master list distance cutoff = 11
  ghost atom cutoff = 11
  binsize = 5.5, bins = 4 4 4
  1 neighbor lists, perpetual/occasional/extra = 1 0 0
  (1) pair mbx, perpetual
      attributes: half, newton on
      pair build: half/bin/newton
      stencil: half/bin/3d
      bin: standard
Per MPI rank memory allocation (min/avg/max) = 8.486 | 8.486 | 8.486 Mbytes
   Step          Time           Temp          TotEng         KinEng         PotEng        Enthalpy       Density           Lx             Ly             Lz           Volume          Pxx            Pyy            Pzz           Press     
         0   0              298           -1922.1448      738.16184     -2660.3067     -1887.0068      0.9819168      20.38885       20.38885       20.38885       8475.7505     -619.40415     -3505.2958      4977.4942      284.26475    
         1   0.5            303.55143     -1922.7166      751.91303     -2674.6296     -1995.4684      0.9819168      20.38885       20.38885       20.38885       8475.7506     -1767.7967     -3374.1302      3376.2493     -588.55921    
         2   1              306.10756     -1923.0033      758.24469     -2681.248      -2085.8267      0.98191682     20.388849      20.388849      20.388849      8475.7504     -2663.4323     -2810.6873      1522.4204     -1317.2331    
         3   1.5            303.97359     -1922.7838      752.95873     -2675.7426     -2143.4652      0.9819169      20.388849      20.388849      20.388849      8475.7497     -3183.1693     -1832.67       -340.06517     -1785.3015    
         4   2              298.41954     -1922.1865      739.20106     -2661.3876     -2166.8491      0.98191706     20.388848      20.388848      20.388848      8475.7483     -3285.9968     -589.47922     -2062.4528     -1979.3096    
         5   2.5            292.92828     -1921.6052      725.59891     -2647.2041     -2165.188       0.98191732     20.388846      20.388846      20.388846      8475.7461     -3011.1665      656.25518     -3556.8103     -1970.5739    
         6   3              290.90735     -1921.4235      720.59298     -2642.0165     -2150.4065      0.98191766     20.388844      20.388844      20.388844      8475.7432     -2449.354       1615.6636     -4723.6976     -1852.4627    
         7   3.5            293.48947     -1921.7178      726.98901     -2648.7068     -2128.9685      0.98191809     20.388841      20.388841      20.388841      8475.7394     -1702.5884      2088.0167     -5415.3808     -1676.6508    
         8   4              299.03398     -1922.2386      740.72306     -2662.9617     -2099.2709      0.9819186      20.388837      20.388837      20.388837      8475.7351     -857.71429      2034.4827     -5473.3242     -1432.1853    
         9   4.5            304.50241     -1922.6344      754.26866     -2676.903      -2055.4957      0.98191917     20.388833      20.388833      20.388833      8475.7301      13.119056      1574.3023     -4811.9542     -1074.8443    
        10   5              307.48661     -1922.7051      761.66067     -2684.3658     -1994.2199      0.9819198      20.388829      20.388829      20.388829      8475.7247      835.01127      911.869       -3482.5407     -578.55349    
        11   5.5            307.39601     -1922.5311      761.43625     -2683.9673     -1918.835       0.98192045     20.388824      20.388824      20.388824      8475.7191      1521.1034      239.51133     -1670.9113      29.901141    
        12   6              305.10364     -1922.3421      755.75794     -2678.1001     -1839.1237      0.98192109     20.38882       20.38882       20.38882       8475.7135      1985.9619     -327.48337      361.23009      673.2362     
        13   6.5            301.76495     -1922.2417      747.48781     -2669.7295     -1767.4435      0.98192171     20.388816      20.388816      20.388816      8475.7082      2170.2414     -758.39461      2345.1033      1252.3167    
        14   7              298.21923     -1922.1299      738.70488     -2660.8348     -1715.4082      0.98192227     20.388812      20.388812      20.388812      8475.7034      2053.4541     -1081.6124      4045.2928      1672.3782    
        15   7.5            295.3669      -1921.9235      731.63952     -2653.563      -1692.6401      0.98192275     20.388808      20.388808      20.388808      8475.6992      1649.2226     -1354.5493      5270.0357      1854.903     
        16   8              294.48842     -1921.7271      729.46347     -2651.1906     -1705.4937      0.98192314     20.388806      20.388806      20.388806      8475.6958      998.44275     -1626.3921      5875.937       1749.3292    
        17   8.5            296.64248     -1921.7432      734.79918     -2656.5424     -1754.2507      0.98192346     20.388804      20.388804      20.388804      8475.6931      170.70889     -1893.7114      5788.0493      1355.0156    
        18   9              301.55349     -1922.0832      746.96402     -2669.0472     -1830.4188      0.98192371     20.388802      20.388802      20.388802      8475.6909     -731.73106     -2077.8831      5034.3126      741.56614    
        19   9.5            307.08103     -1922.6092      760.65604     -2683.2652     -1917.1881      0.98192393     20.3888        20.3888        20.3888        8475.6891     -1579.2985     -2053.3476      3764.2152      43.856367    
        20   10             310.11301     -1922.9724      768.1664      -2691.1388     -1994.7939      0.98192414     20.388799      20.388799      20.388799      8475.6872     -2234.4952     -1715.6994      2207.0828     -581.03725    
        21   10.5           308.55121     -1922.9015      764.29776     -2687.1992     -2048.9217      0.98192439     20.388797      20.388797      20.388797      8475.6851     -2585.3903     -1052.7226      579.59641     -1019.5055    
        22   11             302.87243     -1922.404       750.2311      -2672.6351     -2076.7609      0.98192467     20.388795      20.388795      20.388795      8475.6826     -2583.4897     -184.99679     -977.7637      -1248.7501    
        23   11.5           296.08355     -1921.7526      733.41469     -2655.1673     -2086.7011      0.98192502     20.388793      20.388793      20.388793      8475.6796     -2264.6299      647.15423     -2385.8326     -1334.4361    
        24   12             292.0701      -1921.3424      723.47317     -2644.8156     -2091.8872      0.98192543     20.38879       20.38879       20.38879       8475.6761     -1734.0839      1162.8546     -3567.9058     -1379.7117    
        25   12.5           293.26362     -1921.4393      726.42958     -2647.8689     -2101.2962      0.9819259      20.388787      20.388787      20.388787      8475.672      -1119.3611      1167.0934     -4412.8719     -1455.0465    
        26   13             299.12804     -1921.9594      740.95606     -2662.9154     -2113.8765      0.98192644     20.388783      20.388783      20.388783      8475.6674     -520.435        655.08365     -4792.4955     -1552.6156    
        27   13.5           306.63422     -1922.5316      759.54927     -2682.0809     -2119.7999      0.98192705     20.388779      20.388779      20.388779      8475.6621      10.898246     -185.2088      -4613.4116     -1595.9074    
        28   14             312.3391      -1922.8198      773.68055     -2696.5003     -2107.6487      0.98192773     20.388774      20.388774      20.388774      8475.6562      457.85493     -1081.4394     -3862.2363     -1495.2736    
        29   14.5           314.35516     -1922.7536      778.67443     -2701.428      -2071.9774      0.98192848     20.388769      20.388769      20.388769      8475.6498      815.13396     -1815.5049     -2621.3117     -1207.2275    
        30   15             312.883       -1922.4915      775.02783     -2697.5193     -2016.5657      0.98192929     20.388763      20.388763      20.388763      8475.6428      1076.7202     -2301.1293     -1058.7884     -761.06584    
        31   15.5           309.42668     -1922.2142      766.46633     -2688.6805     -1952.5232      0.98193013     20.388757      20.388757      20.388757      8475.6355      1237.0281     -2572.055       599.4215      -245.2018     
        32   16             305.76976     -1921.9848      757.40795     -2679.3928     -1893.9868      0.98193098     20.388751      20.388751      20.388751      8475.6282      1289.671      -2719.3111      2109.1594      226.50643    
        33   16.5           303.45451     -1921.8266      751.67296     -2673.4995     -1854.0836      0.98193183     20.388746      20.388746      20.388746      8475.6209      1218.3392     -2825.3032      3251.1019      548.04596    
        34   17             303.51449     -1921.8002      751.82153     -2673.6217     -1841.5639      0.98193264     20.38874       20.38874       20.38874       8475.6138      995.26606     -2915.1789      3867.2675      649.11822    
        35   17.5           306.15037     -1921.9202      758.35073     -2680.2709     -1858.2078      0.98193343     20.388735      20.388735      20.388735      8475.607       601.96196     -2936.996       3881.3509      515.43894    
        36   18             310.63526     -1922.1496      769.46006     -2691.6096     -1898.2888      0.98193419     20.388729      20.388729      20.388729      8475.6005      61.847527     -2783.9826      3301.2419      193.03559    
        37   18.5           315.46576     -1922.4882      781.42546     -2703.9137     -1950.3611      0.98193495     20.388724      20.388724      20.388724      8475.5939     -542.10431     -2350.1781      2215.7993     -225.49438    
        38   19             318.53342     -1922.8433      789.02422     -2711.8675     -2000.4252      0.98193571     20.388719      20.388719      20.388719      8475.5873     -1083.3394     -1586.5882      786.9915      -627.64535    
        39   19.5           317.85393     -1922.9419      787.34109     -2710.2829     -2036.8628      0.98193651     20.388713      20.388713      20.388713      8475.5805     -1437.1631     -537.39478     -790.34258     -921.63348    
        40   20             313.06789     -1922.5875      775.48581     -2698.0733     -2056.2506      0.98193734     20.388707      20.388707      20.388707      8475.5733     -1532.0362      641.38422     -2353.4011     -1081.351     
        41   20.5           306.41244     -1921.9256      758.99989     -2680.9255     -2065.707       0.98193823     20.388701      20.388701      20.388701      8475.5656     -1377.2581      1688.4819     -3800.8534     -1163.2099    
        42   21             301.77914     -1921.4086      747.52296     -2668.9315     -2078.3686      0.98193916     20.388695      20.388695      20.388695      8475.5575     -1050.2327      2300.0041     -5059.2552     -1269.8279    
        43   21.5           302.13294     -1921.4335      748.39936     -2669.8329     -2103.9702      0.98194016     20.388688      20.388688      20.388688      8475.5489     -651.24502      2252.3982     -6031.3963     -1476.7477    
        44   22             307.32303     -1921.9658      761.25549     -2683.2213     -2141.1938      0.98194123     20.388681      20.388681      20.388681      8475.5398     -254.83707      1520.0582     -6585.9852     -1773.588     
        45   22.5           314.24648     -1922.597       778.40524     -2701.0023     -2177.9163      0.98194237     20.388673      20.388673      20.388673      8475.5299      109.80133      294.22558     -6600.7498     -2065.5743    
        46   23             319.09892     -1922.9381      790.42498     -2713.3631     -2198.8014      0.98194361     20.388664      20.388664      20.388664      8475.5191      441.567       -1114.9762     -6021.9373     -2231.7822    
        47   23.5           319.66933     -1922.874       791.83793     -2714.7119     -2193.9199      0.98194496     20.388655      20.388655      20.388655      8475.5075      736.95522     -2415.7876     -4899.5999     -2192.8108    
        48   24             316.14644     -1922.5469      783.11154     -2705.6584     -2163.0862      0.9819464      20.388645      20.388645      20.388645      8475.4951      973.45696     -3427.5248     -3383.9628     -1946.0102    
        49   24.5           310.40789     -1922.1787      768.89683     -2691.0755     -2114.614       0.98194794     20.388634      20.388634      20.388634      8475.4818      1114.9209     -4096.8351     -1688.6102     -1556.8415    
        50   25             304.75515     -1921.9021      754.89469     -2676.7968     -2060.7715      0.98194955     20.388623      20.388623      20.388623      8475.4679      1125.6805     -4455.6533     -40.479962     -1123.4843    
        51   25.5           301.00979     -1921.7692      745.61724     -2667.3864     -2013.0774      0.9819512      20.388612      20.388612      20.388612      8475.4536      979.71317     -4558.4363      1362.6081     -738.705      
        52   26             300.06871     -1921.8164      743.28615     -2665.1025     -1978.9888      0.9819529      20.3886        20.3886        20.3886        8475.439       667.44859     -4432.3591      2377.2928     -462.53921    
        53   26.5           301.70419     -1922.0147      747.33731     -2669.352      -1960.12        0.98195461     20.388588      20.388588      20.388588      8475.4242      210.33385     -4058.804       2923.623      -308.28241    
        54   27             304.78496     -1922.2413      754.96854     -2677.2099     -1952.7106      0.98195634     20.388576      20.388576      20.388576      8475.4093     -326.81589     -3389.8939      2977.1945     -246.5051     
        55   27.5           307.92365     -1922.4295      762.74325     -2685.1728     -1950.1666      0.98195808     20.388564      20.388564      20.388564      8475.3943     -841.90763     -2386.4568      2555.1619     -224.40085    
        56   28             309.84193     -1922.6478      767.49492     -2690.1427     -1945.8478      0.98195983     20.388552      20.388552      20.388552      8475.3792     -1222.5785     -1059.7586      1719.2531     -187.69462    
        57   28.5           309.22783     -1922.8447      765.97378     -2688.8185     -1934.792       0.98196158     20.38854       20.38854       20.38854       8475.3641     -1377.96        494.12529      593.86315     -96.657192    
        58   29             305.19503     -1922.7448      755.98432     -2678.7292     -1916.3052      0.98196334     20.388527      20.388527      20.388527      8475.3488     -1268.165       2072.8955     -648.43377      52.098901    
        59   29.5           298.63276     -1922.2338      739.72921     -2661.963      -1897.2426      0.9819651      20.388515      20.388515      20.388515      8475.3337     -926.06441      3379.5771     -1846.9517      202.18699    
        60   30             292.61517     -1921.6359      724.82333     -2646.4593     -1891.1125      0.98196685     20.388503      20.388503      20.388503      8475.3186     -452.76246      4094.612      -2901.0125      246.94568    
        61   30.5           290.54935     -1921.4532      719.70618     -2641.1594     -1910.5879      0.98196859     20.388491      20.388491      20.388491      8475.3036      21.483781      4001.0247     -3758.7952      87.904424    
        62   31             293.45805     -1921.8522      726.91119     -2648.7634     -1958.3476      0.98197032     20.388479      20.388479      20.388479      8475.2886      389.31607      3094.0662     -4369.1687     -295.26216    
        63   31.5           299.06882     -1922.502       740.80937     -2663.3114     -2024.1118      0.98197207     20.388467      20.388467      20.388467      8475.2735      595.86471      1592.4774     -4654.5357     -822.06454    
        64   32             303.60506     -1922.9092      752.04588     -2674.955      -2090.5127      0.98197386     20.388455      20.388455      20.388455      8475.2581      631.24806     -163.48262     -4535.7164     -1355.9837    
        65   32.5           304.55541     -1922.8419      754.39994     -2677.2418     -2142.7601      0.9819757      20.388442      20.388442      20.388442      8475.2422      504.16401     -1854.4433     -3987.4254     -1779.2349    
        66   33             302.07318     -1922.4603      748.25133     -2670.7116     -2174.7797      0.98197763     20.388429      20.388429      20.388429      8475.2255      226.01977     -3277.0544     -3073.1004     -2041.3784    
        67   33.5           298.21197     -1922.0894      738.6869      -2660.7763     -2188.6455      0.98197966     20.388415      20.388415      20.388415      8475.2081     -184.84106     -4353.6212     -1931.2315     -2156.5646    
        68   34             295.1439      -1921.9231      731.08712     -2653.0102     -2189.7392      0.98198178     20.3884        20.3884        20.3884        8475.1897     -693.67038     -5077.83       -728.78769     -2166.7627    
        69   34.5           293.97065     -1921.9456      728.18092     -2650.1265     -2182.3492      0.981984       20.388385      20.388385      20.388385      8475.1706     -1251.2919     -5450.1211      381.02255     -2106.7968    
        70   35             294.68355     -1922.0438      729.9468      -2651.9906     -2168.151       0.98198632     20.388368      20.388368      20.388368      8475.1505     -1803.8391     -5444.4014      1274.8312     -1991.1364    
        71   35.5           296.73564     -1922.1452      735.02995     -2657.1752     -2146.9205      0.98198873     20.388352      20.388352      20.388352      8475.1297     -2296.098      -5015.5105      1855.9464     -1818.554     
        72   36             299.49145     -1922.2388      741.85625     -2664.0951     -2117.6716      0.98199123     20.388335      20.388335      20.388335      8475.1082     -2665.3883     -4129.0205      2050.9229     -1581.162     
        73   36.5           302.36854     -1922.3246      748.98295     -2671.3076     -2079.4521      0.9819938      20.388317      20.388317      20.388317      8475.086      -2838.8547     -2792.6959      1817.7888     -1271.2539    
        74   37             304.81702     -1922.4439      755.04795     -2677.4919     -2032.1181      0.98199642     20.388299      20.388299      20.388299      8475.0634     -2747.5465     -1078.956       1164.5111     -887.33047    
        75   37.5           306.11042     -1922.6321      758.25177     -2680.8839     -1976.7426      0.98199909     20.38828       20.38828       20.38828       8475.0403     -2349.1773      865.34686      170.46728     -437.78772    
        76   38             305.32595     -1922.7318      756.30861     -2679.0404     -1916.3722      0.98200178     20.388262      20.388262      20.388262      8475.0172     -1650.4236      2821.3834     -1016.5993      51.453513    
        77   38.5           302.22054     -1922.5141      748.61635     -2671.1305     -1858.1864      0.98200446     20.388243      20.388243      20.388243      8474.994      -720.92045      4513.4874     -2231.2021      520.45496    
        78   39             298.2681      -1922.0589      738.82593     -2660.8848     -1814.8047      0.98200712     20.388225      20.388225      20.388225      8474.971       309.06886      5647.4866     -3353.2736      867.76061    
        79   39.5           296.09752     -1921.7669      733.4493      -2655.2162     -1800.5372      0.98200974     20.388206      20.388206      20.388206      8474.9484      1275.9268      5985.1866     -4318.6082      980.83506    
        80   40             297.33144     -1921.938       736.50579     -2658.4438     -1823.6359      0.98201232     20.388189      20.388189      20.388189      8474.9262      2024.8392      5437.1857     -5076.0153      795.3365     
        81   40.5           301.01904     -1922.4199      745.64016     -2668.06       -1881.1204      0.98201485     20.388171      20.388171      20.388171      8474.9043      2442.9351      4112.2224     -5552.7259      334.14387    
        82   41             304.46358     -1922.7626      754.17247     -2676.9351     -1961.0358      0.98201738     20.388154      20.388154      20.388154      8474.8825      2469.5144      2273.7637     -5672.2571     -309.65967    
        83   41.5           305.62151     -1922.7101      757.04073     -2679.7508     -2049.9421      0.98201991     20.388136      20.388136      20.388136      8474.8606      2088.8573      226.97031     -5404.0546     -1029.409     
        84   42             304.54679     -1922.4203      754.37859     -2676.7989     -2138.4272      0.9820225      20.388118      20.388118      20.388118      8474.8383      1324.8734     -1779.2211     -4788.6709     -1747.6729    
        85   42.5           302.68228     -1922.1974      749.76011     -2671.9575     -2220.7906      0.98202516     20.3881        20.3881        20.3881        8474.8153      246.8533      -3574.8626     -3919.6039     -2415.8711    
        86   43             301.266       -1922.1574      746.25191     -2668.4093     -2291.7479      0.98202794     20.38808       20.38808       20.38808       8474.7914     -1027.4683     -5034.8914     -2908.5624     -2990.3074    
        87   43.5           300.60518     -1922.2053      744.615       -2666.8203     -2344.7844      0.98203085     20.38806       20.38806       20.38806       8474.7663     -2346.9077     -6046.0801     -1864.1366     -3419.0415    
        88   44             300.48567     -1922.2215      744.31897     -2666.5405     -2373.3462      0.98203392     20.388039      20.388039      20.388039      8474.7397     -3555.1775     -6507.1655     -887.69571     -3650.0129    
        89   44.5           300.79952     -1922.1964      745.0964      -2667.2928     -2372.8846      0.98203716     20.388017      20.388017      20.388017      8474.7118     -4514.2198     -6352.4958     -72.762903     -3646.4928    
        90   45             301.64646     -1922.1971      747.19432     -2669.3914     -2341.8488      0.98204057     20.387993      20.387993      20.387993      8474.6824     -5111.5854     -5574.7911      500.20552     -3395.3903    
        91   45.5           303.03673     -1922.2467      750.63809     -2672.8848     -2281.4058      0.98204413     20.387968      20.387968      20.387968      8474.6516     -5258.4414     -4232.1275      772.69947     -2905.9565    
        92   46             304.74607     -1922.3235      754.87221     -2677.1957     -2195.2122      0.98204783     20.387943      20.387943      20.387943      8474.6197     -4896.4177     -2441.9815      714.54383     -2207.9518    
        93   46.5           306.35455     -1922.4544      758.8565      -2681.3109     -2089.4726      0.98205163     20.387917      20.387917      20.387917      8474.5869     -4017.1044     -370.92263      333.96279     -1351.3548    
        94   47             307.16389     -1922.6307      760.86127     -2683.492      -1972.6366      0.98205549     20.38789       20.38789       20.38789       8474.5536     -2681.0983      1771.7455     -304.45292     -404.60189    
        95   47.5           306.38536     -1922.6856      758.93282     -2681.6185     -1855.435       0.98205937     20.387863      20.387863      20.387863      8474.5201     -1023.2614      3734.8097     -1079.1483      544.13333    
        96   48             303.97776     -1922.498       752.96908     -2675.4671     -1751.8648      0.98206322     20.387836      20.387836      20.387836      8474.4869      760.76274      5235.5314     -1854.4329      1380.6204    
        97   48.5           301.16071     -1922.2139      745.99109     -2668.205      -1678.5211      0.98206702     20.38781       20.38781       20.38781       8474.4542      2442.7127      6005.3105     -2532.728       1971.7651    
        98   49             299.59395     -1922.1053      742.11014     -2664.2154     -1650.0454      0.98207072     20.387784      20.387784      20.387784      8474.4222      3794.8155      5877.8564     -3068.7836      2201.2961    
        99   49.5           299.93655     -1922.2555      742.95878     -2665.2143     -1673.3745      0.98207431     20.38776       20.38776       20.38776       8474.3912      4618.0445      4868.5684     -3445.3374      2013.7585    
       100   50             301.39613     -1922.47        746.57424     -2669.0442     -1745.3977      0.98207782     20.387735      20.387735      20.387735      8474.3609      4767.0071      3174.4432     -3643.2266      1432.7412    
Loop time of 90.9184 on 1 procs for 100 steps with 832 atoms

Performance: 0.048 ns/day, 505.102 hours/ns, 1.100 timesteps/s, 915.106 atom-step/s
99.2% CPU use with 1 MPI tasks x 1 OpenMP threads

MPI task timing breakdown:
Section |  min time  |  avg time  |  max time  |%varavg| %total
---------------------------------------------------------------
Pair    | 90.283     | 90.283     | 90.283     |   0.0 | 99.30
Bond    | 3.2493e-05 | 3.2493e-05 | 3.2493e-05 |   0.0 |  0.00
Neigh   | 0.055962   | 0.055962   | 0.055962   |   0.0 |  0.06
Comm    | 0.0070101  | 0.0070101  | 0.0070101  |   0.0 |  0.01
Output  | 0.19084    | 0.19084    | 0.19084    |   0.0 |  0.21
Modify  | 0.37955    | 0.37955    | 0.37955    |   0.0 |  0.42
Other   |            | 0.001875   |            |       |  0.00

Nlocal:            832 ave         832 max         832 min
Histogram: 1 0 0 0 0 0 0 0 0 0
Nghost:           6683 ave        6683 max        6683 min
Histogram: 1 0 0 0 0 0 0 0 0 0
Neighs:         226602 ave      226602 max      226602 min
Histogram: 1 0 0 0 0 0 0 0 0 0

Total # of neighbors = 226602
Ave neighs/atom = 272.35817
Ave special neighs/atom = 1.9975962
Neighbor list builds = 10
Dangerous builds = 0

write_data      final.data nocoeff
System init for write_data ...
Generated 0 of 3 mixed pair_coeff terms from geometric mixing rule
WARNING: Bonds are defined but no bond style is set (src/force.cpp:198)
WARNING: Likewise 1-2 special neighbor interactions != 1.0 (src/force.cpp:200)
WARNING: Angles are defined but no angle style is set (src/force.cpp:203)
WARNING: Likewise 1-3 special neighbor interactions != 1.0 (src/force.cpp:205)
write_restart   restart.new
System init for write_restart ...
Generated 0 of 3 mixed pair_coeff terms from geometric mixing rule
WARNING: Bonds are defined but no bond style is set (src/force.cpp:198)
WARNING: Likewise 1-2 special neighbor interactions != 1.0 (src/force.cpp:200)
WARNING: Angles are defined but no angle style is set (src/force.cpp:203)
WARNING: Likewise 1-3 special neighbor interactions != 1.0 (src/force.cpp:205)
Total wall time: 0:01:32
