LAMMPS (10 Sep 2025 - Development - c68a6d42d5)
  using 1 OpenMP thread(s) per MPI task
variable        T   equal  298
variable        dt  equal  0.5
variable        P   equal  1.0
variable        nsteps  equal 100
variable        thermo_freq equal 1
variable        dump_freq equal 1


processors      * * * map xyz

units           real
atom_style      full
boundary        p p p

read_data       initial.data
Reading data file ...
  orthogonal box = (0.00033828339 0.00033828339 0.00033828339) to (19.655503 19.655503 19.655503)
  1 by 1 by 1 MPI processor grid
  reading atoms ...
  768 atoms
  reading velocities ...
  768 velocities
  scanning bonds ...
  2 = max bonds/atom
  scanning angles ...
  1 = max angles/atom
  orthogonal box = (0.00033828339 0.00033828339 0.00033828339) to (19.655503 19.655503 19.655503)
  1 by 1 by 1 MPI processor grid
  reading bonds ...
  512 bonds
  reading angles ...
  256 angles
Finding 1-2 1-3 1-4 neighbors ...
  special bond factors lj:    0        0        0       
  special bond factors coul:  0        0        0       
     2 = max # of 1-2 neighbors
     1 = max # of 1-3 neighbors
     1 = max # of 1-4 neighbors
     2 = max # of special neighbors
  special bonds CPU = 0.000 seconds
  read_data CPU = 0.027 seconds
#read_restart    restart.old

pair_style      mbx 9.0
pair_modify     mix arithmetic

bond_style      none
angle_style     none
dihedral_style  none
improper_style  none

pair_coeff      * * 1 h2o 1 2 2 json mbx.json

neighbor        2.0 bin
neigh_modify    every 1 delay 10

timestep        ${dt}
timestep        0.5

compute         mbx all pair mbx
variable        e1bpip    equal c_mbx[1]
variable        e2bpip    equal c_mbx[2]
variable        e3bpip    equal c_mbx[3]
variable        e4bpip    equal c_mbx[4]
variable        edisp     equal c_mbx[5]
variable        ebuck     equal c_mbx[6]
variable        eperm     equal c_mbx[7]
variable        eind      equal c_mbx[8]
variable        eele      equal c_mbx[9]
variable        etot      equal c_mbx[10]

fix             1 all npt temp ${T} ${T} $(200.0*dt) iso 1.0 1.0 $(2000.0*dt)
fix             1 all npt temp 298 ${T} $(200.0*dt) iso 1.0 1.0 $(2000.0*dt)
fix             1 all npt temp 298 298 $(200.0*dt) iso 1.0 1.0 $(2000.0*dt)
fix             1 all npt temp 298 298 100 iso 1.0 1.0 $(2000.0*dt)
fix             1 all npt temp 298 298 100 iso 1.0 1.0 1000

velocity        all create ${T} 428459 rot yes dist gaussian
velocity        all create 298 428459 rot yes dist gaussian
velocity        all zero linear
velocity        all zero angular

thermo_style    custom step time temp etotal ke pe enthalpy density lx ly lz vol pxx pyy pzz press
thermo          ${thermo_freq}
thermo          1
thermo_modify   flush yes

fix             thermo_print all print ${thermo_freq} "$(step) $(0.001*time) $(temp) $(etotal) $(ke) $(pe) $(enthalpy) $(density) $(lx) $(ly) $(lz) $(vol) $(pxx) $(pyy) $(pzz) $(press)" file thermo.out screen no title "# step time temp etotal ke pe enthalpy density lx ly lz vol pxx pyy pzz press"
fix             thermo_print all print 1 "$(step) $(0.001*time) $(temp) $(etotal) $(ke) $(pe) $(enthalpy) $(density) $(lx) $(ly) $(lz) $(vol) $(pxx) $(pyy) $(pzz) $(press)" file thermo.out screen no title "# step time temp etotal ke pe enthalpy density lx ly lz vol pxx pyy pzz press"
fix             verbose_mbx_thermo_print all print ${thermo_freq} "$(step) $(0.001*time) $(temp) $(etotal) $(ke) $(pe) $(enthalpy) $(density) $(lx) $(ly) $(lz) $(vol) $(pxx) $(pyy) $(pzz) $(press) $(v_e1bpip) $(v_e2bpip) $(v_e3bpip) $(v_e4bpip) $(v_edisp) $(v_ebuck) $(v_eperm) $(v_eind) $(v_eele) $(v_etot)" file mbx_thermo.out screen no title "# step time temp etotal ke pe enthalpy density lx ly lz vol pxx pyy pzz press e1bpip e2bpip e3bpip e4bpip edisp ebuck eperm eind eele etot"
fix             verbose_mbx_thermo_print all print 1 "$(step) $(0.001*time) $(temp) $(etotal) $(ke) $(pe) $(enthalpy) $(density) $(lx) $(ly) $(lz) $(vol) $(pxx) $(pyy) $(pzz) $(press) $(v_e1bpip) $(v_e2bpip) $(v_e3bpip) $(v_e4bpip) $(v_edisp) $(v_ebuck) $(v_eperm) $(v_eind) $(v_eele) $(v_etot)" file mbx_thermo.out screen no title "# step time temp etotal ke pe enthalpy density lx ly lz vol pxx pyy pzz press e1bpip e2bpip e3bpip e4bpip edisp ebuck eperm eind eele etot"

dump            1 all custom ${dump_freq} dump.lammpstrj id mol type q x y z
dump            1 all custom 1 dump.lammpstrj id mol type q x y z
dump_modify     1 append no sort id format line "%d %d %d %8.4f %15.8f %15.8f %15.8f"

restart         10 restart.1 restart.2

run             ${nsteps} upto
run             100 upto

CITE-CITE-CITE-CITE-CITE-CITE-CITE-CITE-CITE-CITE-CITE-CITE-CITE

Your simulation uses code contributions which should be cited:

- pair mbx command:

@article{10.1063/5.0156036,
 author = {Riera, Marc and Knight, Christopher and Bull-Vulpe, Ethan F. and Zhu, Xuanyu and Agnew, Henry and Smith, Daniel G. A. and Simmonett, Andrew C. and Paesani, Francesco},
 title = "{MBX: A many-body energy and force calculator for data-driven many-body simulations}",
 journal = {The Journal of Chemical Physics},
 volume = {159},
 number = {5},
 pages = {054802},
 year = {2023},
 doi = {10.1063/5.0156036},
}

CITE-CITE-CITE-CITE-CITE-CITE-CITE-CITE-CITE-CITE-CITE-CITE-CITE

Generated 0 of 1 mixed pair_coeff terms from arithmetic mixing rule
WARNING: Bonds are defined but no bond style is set (src/force.cpp:198)
WARNING: Likewise 1-2 special neighbor interactions != 1.0 (src/force.cpp:200)
WARNING: Angles are defined but no angle style is set (src/force.cpp:203)
WARNING: Likewise 1-3 special neighbor interactions != 1.0 (src/force.cpp:205)
Neighbor list info ...
  update: every = 1 steps, delay = 10 steps, check = yes
  max neighbors/atom: 2000, page size: 100000
  master list distance cutoff = 11
  ghost atom cutoff = 11
  binsize = 5.5, bins = 4 4 4
  1 neighbor lists, perpetual/occasional/extra = 1 0 0
  (1) pair mbx, perpetual
      attributes: half, newton on
      pair build: half/bin/newton
      stencil: half/bin/3d
      bin: standard
WARNING: Inconsistent image flags
For more information see https://docs.lammps.org/err0027 (src/domain.cpp:1052)
Per MPI rank memory allocation (min/avg/max) = 8.503 | 8.503 | 8.503 Mbytes
   Step          Time           Temp          TotEng         KinEng         PotEng        Enthalpy       Density           Lx             Ly             Lz           Volume          Pxx            Pyy            Pzz           Press     
         0   0              298           -1731.1398      681.31183     -2412.4517     -1661.3647      1.0085627      19.655164      19.655164      19.655164      7593.2911      2460.2105     -301.45156     -268.52225      630.07891    
         1   0.5            305.62972     -1731.7843      698.75552     -2430.5398     -1604.5034      1.0085626      19.655165      19.655165      19.655165      7593.2915      3138.8099     -41.803501      351.08169      1149.3627    
         2   1              307.94789     -1731.9047      704.05551     -2435.9602     -1540.7471      1.0085623      19.655167      19.655167      19.655167      7593.2936      3740.6552      267.22945      1170.6487      1726.1778    
         3   1.5            304.02269     -1731.5171      695.08139     -2426.5985     -1475.0933      1.0085617      19.65517       19.65517       19.65517       7593.298       4211.0586      587.78095      2147.7766      2315.5387    
         4   2              296.33781     -1730.8409      677.51159     -2408.3525     -1423.0547      1.0085607      19.655177      19.655177      19.655177      7593.3056      4415.2029      810.45952      3112.3712      2779.3446    
         5   2.5            289.33007     -1730.2151      661.48994     -2391.705      -1404.514       1.0085592      19.655187      19.655187      19.655187      7593.3171      4199.798       803.74652      3819.7957      2941.1134    
         6   3              287.03927     -1730.0127      656.25252     -2386.2652     -1434.0533      1.0085571      19.6552        19.6552        19.6552        7593.3327      3485.4038      487.13812      4045.0696      2672.5372    
         7   3.5            290.72716     -1730.3934      664.68406     -2395.0774     -1512.1126      1.0085546      19.655217      19.655217      19.655217      7593.352       2341.0968     -110.64693      3682.8151      1971.0883    
         8   4              297.96981     -1731.1173      681.24282     -2412.3601     -1622.4535      1.0085516      19.655236      19.655236      19.655236      7593.374       989.82613     -846.51609      2800.403       981.23767    
         9   4.5            304.14027     -1731.7253      695.35022     -2427.0755     -1738.3239      1.0085485      19.655256      19.655256      19.655256      7593.3974     -271.0439      -1519.2957      1611.5846     -59.585005    
        10   5              305.25525     -1731.8906      697.89937     -2429.79       -1833.7871      1.0085454      19.655276      19.655276      19.655276      7593.4207     -1193.1299     -1957.4209      390.18187     -920.12298    
        11   5.5            300.11899     -1731.5867      686.15644     -2417.7431     -1893.2843      1.0085425      19.655295      19.655295      19.655295      7593.4428     -1671.5588     -2084.9475     -623.8573      -1460.1212    
        12   6              290.63228     -1731.0079      664.46714     -2395.475      -1914.9849      1.0085399      19.655313      19.655313      19.655313      7593.4628     -1760.226      -1933.3885     -1290.2837     -1661.2994    
        13   6.5            280.63716     -1730.389       641.61549     -2372.0045     -1907.8224      1.0085375      19.655328      19.655328      19.655328      7593.4805     -1610.8089     -1607.1663     -1588.6474     -1602.2075    
        14   7              274.32768     -1729.924       627.19024     -2357.1143     -1884.982       1.0085354      19.655341      19.655341      19.655341      7593.4961     -1382.9817     -1231.8723     -1585.6152     -1400.1564    
        15   7.5            274.75041     -1729.8343      628.15672     -2357.9911     -1856.8423      1.0085336      19.655353      19.655353      19.655353      7593.5097     -1172.8558     -903.48412     -1364.2562     -1146.8654    
        16   8              282.29701     -1730.2951      645.41038     -2375.7055     -1825.2199      1.008532       19.655363      19.655363      19.655363      7593.5217     -976.34951     -642.75455     -952.36673     -857.15693    
        17   8.5            293.79613     -1731.1665      671.7006      -2402.8671     -1781.6087      1.0085306      19.655373      19.655373      19.655373      7593.5325     -695.72628     -374.87298     -295.85645     -455.48524    
        18   9              303.58441     -1731.954       694.07937     -2426.0333     -1712.4947      1.0085292      19.655382      19.655382      19.655382      7593.5427     -198.84267      31.594961      694.38953      175.71394    
        19   9.5            306.6192      -1732.1617      701.01776     -2433.1795     -1610.2222      1.0085279      19.655391      19.655391      19.655391      7593.5531      588.67652      668.66754      2045.9306      1101.0915    
        20   10             301.53242     -1731.6935      689.38795     -2421.0814     -1482.5519      1.0085263      19.655401      19.655401      19.655401      7593.5651      1607.7073      1496.5579      3644.836       2249.7004    
        21   10.5           291.29843     -1730.8629      665.99016     -2396.853      -1353.7343      1.0085243      19.655414      19.655414      19.655414      7593.5802      2652.5442      2328.9889      5234.6393      3405.3908    
        22   11             281.36557     -1730.0697      643.28084     -2373.3505     -1256.2678      1.0085216      19.655431      19.655431      19.655431      7593.6         3432.1608      2907.8353      6494.9622      4278.3194    
        23   11.5           276.96393     -1729.6479      633.21745     -2362.8653     -1218.5734      1.0085182      19.655453      19.655453      19.655453      7593.6258      3684.0108      3013.0974      7147.4905      4614.8663    
        24   12             280.73309     -1729.8376      641.83483     -2371.6724     -1253.7458      1.0085139      19.655481      19.655481      19.655481      7593.6579      3291.4708      2559.368       7046.0532      4298.964     
        25   12.5           291.2409      -1730.5934      665.85863     -2396.4521     -1353.2683      1.0085089      19.655514      19.655514      19.655514      7593.696       2349.0282      1646.751       6225.562       3407.1137    
        26   13             303.37386     -1731.54        693.59799     -2425.138      -1489.4155      1.0085032      19.655551      19.655551      19.655551      7593.7389      1136.3369      534.34804      4888.1769      2186.2873    
        27   13.5           310.72951     -1732.2254      710.41508     -2442.6405     -1625.9762      1.0084971      19.65559       19.65559       19.65559       7593.7847      6.8290863     -460.89017      3332.2067      959.38187    
        28   14             308.60007     -1732.3555      705.54657     -2437.902      -1731.8609      1.0084908      19.655631      19.655631      19.655631      7593.832      -756.01266     -1090.1391      1859.549       4.4657643    
        29   14.5           296.02272     -1731.8523      676.79121     -2408.6435     -1791.319       1.0084846      19.655672      19.655672      19.655672      7593.8792     -1044.7292     -1260.7464      694.62302     -536.95086    
        30   15             276.32965     -1730.8616      631.76732     -2362.6289     -1807.3749      1.0084784      19.655712      19.655712      19.655712      7593.9257     -949.56248     -1052.6068     -70.433064     -690.86744    
        31   15.5           256.06415     -1729.7727      585.43469     -2315.2074     -1797.5247      1.0084723      19.655751      19.655751      19.655751      7593.9712     -688.66796     -664.66799     -481.92843     -611.75479    
        32   16             242.29969     -1729.0997      553.96525     -2283.065      -1782.8369      1.0084664      19.65579       19.65579       19.65579       7594.0159     -477.75789     -315.35229     -662.51086     -485.20701    
        33   16.5           239.31552     -1729.177       547.1426      -2276.3196     -1775.3032      1.0084606      19.655828      19.655828      19.655828      7594.0599     -404.68176     -135.55372     -709.2162      -416.48389    
        34   17             246.43915     -1729.9559      563.42922     -2293.3852     -1770.1728      1.0084548      19.655865      19.655865      19.655865      7594.1034     -376.43674     -99.582874     -613.35347     -363.12436    
        35   17.5           258.33911     -1731.0443      590.63588     -2321.6802     -1747.792       1.0084491      19.655902      19.655902      19.655902      7594.1463     -166.61899     -31.341469     -255.68972     -151.21673    
        36   18             267.57413     -1731.9269      611.74973     -2343.6767     -1684.1239      1.0084434      19.655939      19.655939      19.655939      7594.1891      465.64813      308.98346      520.2186       431.61673    
        37   18.5           268.04523     -1732.1958      612.8268      -2345.0226     -1564.7576      1.0084376      19.655977      19.655977      19.655977      7594.2324      1645.3726      1092.1929      1797.8379      1511.8011    
        38   19             257.7647      -1731.7025      589.32262     -2321.0251     -1395.5816      1.0084316      19.656016      19.656016      19.656016      7594.2779      3297.718       2307.2167      3499.5272      3034.8206    
        39   19.5           239.86038     -1730.6212      548.38831     -2279.0096     -1205.182       1.008425       19.656059      19.656059      19.656059      7594.3275      5142.5422      3727.1422      5362.7292      4744.1378    
        40   20             221.34666     -1729.426       506.06072     -2235.4868     -1037.1795      1.0084175      19.656107      19.656107      19.656107      7594.3838      6775.3693      4978.8027      6996.3612      6250.1777    
        41   20.5           209.91709     -1728.7005      479.92952     -2208.63       -934.65108      1.0084089      19.656163      19.656163      19.656163      7594.4487      7811.6066      5692.3274      8003.8974      7169.2771    
        42   21             210.123       -1728.8142      480.40028     -2209.2145     -923.16544      1.008399       19.656228      19.656228      19.656228      7594.5235      8036.0163      5659.8026      8125.9809      7273.9333    
        43   21.5           220.9426      -1729.7079      505.13694     -2234.8449     -1000.4688      1.0083877      19.656301      19.656301      19.656301      7594.6084      7483.8298      4926.214       7341.9046      6583.9828    
        44   22             236.18777     -1730.8751      539.99169     -2270.8668     -1137.9228      1.0083752      19.656382      19.656382      19.656382      7594.7025      6412.301       3772.219       5875.8074      5353.4424    
        45   22.5           247.69375     -1731.7018      566.29759     -2297.9993     -1293.3282      1.0083618      19.65647       19.65647       19.65647       7594.804       5181.6705      2596.179       4095.4978      3957.7824    
        46   23             249.28094     -1731.8452      569.92636     -2301.7716     -1428.1715      1.0083476      19.656562      19.656562      19.656562      7594.9109      4108.4642      1750.4018      2366.02        2741.6287    
        47   23.5           239.25449     -1731.2448      547.00307     -2278.2479     -1520.5968      1.0083328      19.656658      19.656658      19.656658      7595.0217      3354.6781      1414.3822      936.17809      1901.7462    
        48   24             220.96407     -1730.0656      505.18601     -2235.2516     -1570.2124      1.0083178      19.656755      19.656755      19.656755      7595.1351      2891.2845      1551.3209     -113.17148      1443.1446    
        49   24.5           201.58674     -1728.75        460.88399     -2189.634      -1593.8806      1.0083025      19.656855      19.656855      19.656855      7595.2505      2550.6782      1949.3945     -847.3488       1217.5746    
        50   25             189.11404     -1727.8893      432.36788     -2160.2572     -1613.6947      1.0082869      19.656956      19.656956      19.656956      7595.3677      2148.2608      2329.8521     -1385.3801      1030.911     
        51   25.5           188.49428     -1727.8871      430.95095     -2158.8381     -1642.3494      1.0082712      19.657058      19.657058      19.657058      7595.4862      1611.9745      2487.2031     -1782.5959      772.19391    
        52   26             199.06358     -1728.6712      455.11535     -2183.7865     -1674.0675      1.0082553      19.657162      19.657162      19.657162      7595.6058      1042.3413      2397.8016     -1961.3592      492.92792    
        53   26.5           214.96149     -1729.7453      491.46244     -2221.2077     -1686.6699      1.0082393      19.657265      19.657265      19.657265      7595.7261      668.56797      2233.5587     -1735.5703      388.85213    
        54   27             228.27378     -1730.5054      521.89807     -2252.4034     -1653.788       1.0082233      19.65737       19.65737       19.65737       7595.847       731.81336      2262.5476     -916.7575       692.53449    
        55   27.5           232.99172     -1730.5521      532.68461     -2263.2368     -1560.3355      1.0082071      19.657475      19.657475      19.657475      7595.9688      1359.5501      2689.6324      560.42842      1536.537     
        56   28             227.78753     -1729.8165      520.78637     -2250.6029     -1413.2793      1.0081907      19.657582      19.657582      19.657582      7596.0928      2485.1431      3526.241       2560.5727      2857.3189    
        57   28.5           216.52594     -1728.5942      495.0392      -2223.6334     -1242.6077      1.0081737      19.657692      19.657692      19.657692      7596.2207      3844.7306      4558.767       4756.9891      4386.8289    
        58   29             206.29211     -1727.4553      471.6418      -2199.0971     -1091.7801      1.0081559      19.657808      19.657808      19.657808      7596.3548      5056.9957      5430.1745      6726.5769      5737.9157    
        59   29.5           203.65842     -1726.9417      465.62043     -2192.5621     -1001.309       1.0081371      19.65793       19.65793       19.65793       7596.4967      5760.5868      5795.6038      8093.19        6549.7935    
        60   30             211.25152     -1727.1598      482.98039     -2210.1402     -993.43974      1.008117       19.65806       19.65806       19.65806       7596.6478      5750.0066      5469.0177      8648.9587      6622.661     
        61   30.5           226.91669     -1727.7615      518.79539     -2246.5569     -1065.9204      1.0080957      19.658199      19.658199      19.658199      7596.8081      5045.6819      4486.0456      8389.5097      5973.7457    
        62   31             245.58709     -1728.3711      561.48117     -2289.8523     -1196.5978      1.0080734      19.658344      19.658344      19.658344      7596.9766      3868.8556      3072.5347      7457.5695      4799.6533    
        63   31.5           261.62952     -1728.8288      598.15869     -2326.9874     -1353.3499      1.0080501      19.658495      19.658495      19.658495      7597.1518      2540.5717      1561.6377      6064.4918      3388.9004    
        64   32             270.33921     -1728.9339      618.07149     -2347.0054     -1504.0896      1.0080263      19.65865       19.65865       19.65865       7597.3318      1354.405       286.21319      4447.2621      2029.2934    
        65   32.5           269.5038      -1728.4073      616.16151     -2344.5689     -1626.4235      1.008002       19.658808      19.658808      19.658808      7597.5145      474.70476     -541.97242      2828.5154      920.41592    
        66   33             260.97786     -1727.2849      596.66881     -2323.9537     -1714.4244      1.0079776      19.658967      19.658967      19.658967      7597.6985     -98.928845     -909.25274      1356.374       116.06413    
        67   33.5           250.38245     -1725.9995      572.44472     -2298.4442     -1777.396       1.0079531      19.659126      19.659126      19.659126      7597.8828     -489.01266     -979.53887      77.04108      -463.83682    
        68   34             244.39934     -1725.0902      558.76565     -2283.8558     -1830.2394      1.0079288      19.659284      19.659284      19.659284      7598.0663     -841.15668     -984.94816     -1020.6383     -948.91438    
        69   34.5           247.296       -1724.8862      565.38823     -2290.2744     -1881.3039      1.0079046      19.659441      19.659441      19.659441      7598.2486     -1220.3963     -1087.1723     -1927.0841     -1411.5509    
        70   35             258.70014     -1725.3515      591.46129     -2316.8128     -1924.726       1.0078807      19.659597      19.659597      19.659597      7598.4289     -1554.0687     -1282.4777     -2560.9356     -1799.1607    
        71   35.5           273.82483     -1726.0777      626.04059     -2352.1183     -1941.8836      1.0078571      19.65975       19.65975       19.65975       7598.6068     -1656.3844     -1403.9469     -2781.8439     -1947.3917    
        72   36             286.05468     -1726.5298      654.00147     -2380.5313     -1911.4434      1.0078339      19.659901      19.659901      19.659901      7598.7819     -1322.0111     -1224.0384     -2459.7138     -1668.5878    
        73   36.5           290.43124     -1726.3409      664.00751     -2390.3484     -1822.5555      1.0078109      19.66005       19.66005       19.66005       7598.9548     -441.89138     -602.05318     -1560.606      -868.18352    
        74   37             286.15381     -1725.4686      654.2281      -2379.6967     -1683.9253      1.0077882      19.660198      19.660198      19.660198      7599.1265      918.09624      406.47193     -200.00818      374.85333    
        75   37.5           276.93363     -1724.2177      633.14817     -2357.3659     -1523.9159      1.0077653      19.660347      19.660347      19.660347      7599.2987      2513.0701      1539.9388      1368.9551      1807.3213    
        76   38             269.00581     -1723.1262      615.02295     -2338.1492     -1381.2299      1.0077422      19.660497      19.660497      19.660497      7599.4734      3993.7639      2431.0373      2829.7703      3084.8572    
        77   38.5           267.67997     -1722.6467      611.9917      -2334.6384     -1290.0843      1.0077184      19.660652      19.660652      19.660652      7599.6524      5028.9286      2771.8986      3907.6507      3902.826     
        78   39             274.47038     -1722.8117      627.51651     -2350.3282     -1267.5035      1.007694       19.660811      19.660811      19.660811      7599.8368      5419.8599      2453.7349      4450.2589      4107.9512    
        79   39.5           286.72093     -1723.2719      655.52471     -2378.7966     -1309.5206      1.0076688      19.660975      19.660975      19.660975      7600.027       5153.6843      1603.592       4441.4768      3732.9177    
        80   40             299.59481     -1723.6433      684.95801     -2408.6013     -1396.9874      1.0076429      19.661143      19.661143      19.661143      7600.2223      4376.0865      510.73431      3954.3465      2947.0558    
        81   40.5           308.52493     -1723.7175      705.37478     -2429.0923     -1505.3722      1.0076164      19.661315      19.661315      19.661315      7600.4217      3311.7005     -499.81937      3097.6311      1969.8374    
        82   41             310.85479     -1723.3685      710.70151     -2434.07       -1613.527       1.0075896      19.661489      19.661489      19.661489      7600.6239      2175.5293     -1186.7819      1984.0303      990.92591    
        83   41.5           306.69386     -1722.6283      701.18844     -2423.8168     -1709.5196      1.0075626      19.661665      19.661665      19.661665      7600.8275      1113.8315     -1464.8166      705.75364      118.25618    
        84   42             298.66564     -1721.7335      682.83368     -2404.5672     -1791.6012      1.0075356      19.661841      19.661841      19.661841      7601.0313      191.28013     -1410.3859     -671.7097      -630.27184    
        85   42.5           290.56777     -1720.8629      664.31967     -2385.1826     -1864.0383      1.0075087      19.662016      19.662016      19.662016      7601.2342     -585.18604     -1206.3151     -2083.1225     -1291.5412    
        86   43             286.04131     -1720.1754      653.97089     -2374.1463     -1931.5532      1.0074821      19.662189      19.662189      19.662189      7601.4353     -1229.3212     -1052.8545     -3437.9988     -1906.7248    
        87   43.5           287.32271     -1719.8934      656.90055     -2376.7939     -1994.0361      1.0074558      19.66236       19.66236       19.66236       7601.6338     -1740.1836     -1071.0757     -4607.2228     -2472.8274    
        88   44             293.93249     -1720.072       672.01235     -2392.0843     -2042.7125      1.0074299      19.662528      19.662528      19.662528      7601.8289     -2072.5191     -1237.452      -5420.6702     -2910.2138    
        89   44.5           302.44804     -1720.4604      691.4813      -2411.9417     -2061.3347      1.0074046      19.662693      19.662693      19.662693      7602.0199     -2132.3484     -1395.3885     -5696.0792     -3074.6054    
        90   45             308.11692     -1720.6535      704.44196     -2425.0955     -2033.435       1.0073799      19.662854      19.662854      19.662854      7602.2067     -1815.6877     -1349.0178     -5298.7313     -2821.1456    
        91   45.5           307.46778     -1720.3444      702.95784     -2423.3023     -1952.0845      1.0073556      19.663012      19.663012      19.663012      7602.3896     -1082.9546     -981.65332     -4205.8074     -2090.1384    
        92   46             300.32849     -1719.5029      686.63541     -2406.1383     -1826.5567      1.0073318      19.663167      19.663167      19.663167      7602.5696     -25.529838     -329.40046     -2541.6596     -965.52997    
        93   46.5           290.03964     -1718.4162      663.11221     -2381.5284     -1681.7845      1.0073081      19.663321      19.663321      19.663321      7602.7482      1125.6382      426.11466     -560.61955      330.37777    
        94   47             281.61831     -1717.5356      643.85867     -2361.3943     -1550.0825      1.0072844      19.663475      19.663475      19.663475      7602.9274      2068.1821      1040.749       1421.6884      1510.2065    
        95   47.5           278.9009      -1717.1693      637.64592     -2354.8153     -1459.0611      1.0072603      19.663632      19.663632      19.663632      7603.1086      2542.2942      1323.8671      3117.0636      2327.7416    
        96   48             282.55221     -1717.2663      645.99384     -2363.2602     -1422.2892      1.0072359      19.663791      19.663791      19.663791      7603.2931      2428.2253      1224.8086      4327.4998      2660.1779    
        97   48.5           290.22947     -1717.5166      663.54621     -2381.0628     -1437.3924      1.007211       19.663953      19.663953      19.663953      7603.4814      1774.0171      845.9278       4958.5578      2526.1676    
        98   49             298.3444      -1717.6699      682.09923     -2399.7691     -1490.8738      1.0071856      19.664118      19.664118      19.664118      7603.6731      749.7945       383.51787      5002.295       2045.2025    
        99   49.5           303.69032     -1717.6577      694.3215      -2411.9792     -1565.0541      1.0071598      19.664286      19.664286      19.664286      7603.8677     -428.98746      35.109599      4522.2203      1376.1141    
       100   50             304.19917     -1717.4072      695.48487     -2412.8921     -1643.8597      1.0071338      19.664455      19.664455      19.664455      7604.0642     -1562.6018     -82.581449      3634.7925      663.20306    
Loop time of 77.2314 on 1 procs for 100 steps with 768 atoms

Performance: 0.056 ns/day, 429.063 hours/ns, 1.295 timesteps/s, 994.414 atom-step/s
99.5% CPU use with 1 MPI tasks x 1 OpenMP threads

MPI task timing breakdown:
Section |  min time  |  avg time  |  max time  |%varavg| %total
---------------------------------------------------------------
Pair    | 76.637     | 76.637     | 76.637     |   0.0 | 99.23
Bond    | 2.2652e-05 | 2.2652e-05 | 2.2652e-05 |   0.0 |  0.00
Neigh   | 0.055122   | 0.055122   | 0.055122   |   0.0 |  0.07
Comm    | 0.0067513  | 0.0067513  | 0.0067513  |   0.0 |  0.01
Output  | 0.17812    | 0.17812    | 0.17812    |   0.0 |  0.23
Modify  | 0.35286    | 0.35286    | 0.35286    |   0.0 |  0.46
Other   |            | 0.001312   |            |       |  0.00

Nlocal:            768 ave         768 max         768 min
Histogram: 1 0 0 0 0 0 0 0 0 0
Nghost:           6621 ave        6621 max        6621 min
Histogram: 1 0 0 0 0 0 0 0 0 0
Neighs:         215635 ave      215635 max      215635 min
Histogram: 1 0 0 0 0 0 0 0 0 0

Total # of neighbors = 215635
Ave neighs/atom = 280.77474
Ave special neighs/atom = 2
Neighbor list builds = 10
Dangerous builds = 0

write_data      final.data nocoeff
System init for write_data ...
Generated 0 of 1 mixed pair_coeff terms from arithmetic mixing rule
WARNING: Bonds are defined but no bond style is set (src/force.cpp:198)
WARNING: Likewise 1-2 special neighbor interactions != 1.0 (src/force.cpp:200)
WARNING: Angles are defined but no angle style is set (src/force.cpp:203)
WARNING: Likewise 1-3 special neighbor interactions != 1.0 (src/force.cpp:205)
write_restart   restart.new
System init for write_restart ...
Generated 0 of 1 mixed pair_coeff terms from arithmetic mixing rule
WARNING: Bonds are defined but no bond style is set (src/force.cpp:198)
WARNING: Likewise 1-2 special neighbor interactions != 1.0 (src/force.cpp:200)
WARNING: Angles are defined but no angle style is set (src/force.cpp:203)
WARNING: Likewise 1-3 special neighbor interactions != 1.0 (src/force.cpp:205)

[MBX] Total MBX fix/pair time= 78.429196 seconds
[MBX] Timing Summary
[MBX] kernel                      tmin          tavg          tmax         count   %total
[MBX] -----------------------------------------------------------------------------------
[MBX] INIT                :       0.37752       0.37752       0.37752        11     0.48%
[MBX] UPDATE_XYZ          :      0.026397      0.026397      0.026397       101     0.03%
[MBX] ACCUMULATE_F        :      0.055558      0.055558      0.055558       505     0.07%
[MBX] E1B                 :       0.23906       0.23906       0.23906       101     0.30%
[MBX] E2B_LOCAL           :             0             0             0         0     0.00%
[MBX] E2B_GHOST           :        4.3497        4.3497        4.3497       101     5.55%
[MBX] E3B_LOCAL           :             0             0             0         0     0.00%
[MBX] E3B_GHOST           :        33.061        33.061        33.061       101    42.15%
[MBX] E4B_LOCAL           :             0             0             0         0     0.00%
[MBX] E4B_GHOST           :       0.18902       0.18902       0.18902       101     0.24%
[MBX] DISP                :        3.7096        3.7096        3.7096       101     4.73%
[MBX] DISP_PME            :        1.3976        1.3976        1.3976       101     1.78%
[MBX] BUCK                :         3.285         3.285         3.285       202     4.19%
[MBX] ELE                 :        31.258        31.258        31.258       101    39.85%
[MBX] INIT_FULL           :             0             0             0         0     0.00%
[MBX] UPDATE_XYZ_FULL     :             0             0             0         0     0.00%
[MBX] ACCUMULATE_F_FULL   :             0             0             0         0     0.00%
[MBX] INIT_LOCAL          :      0.080013      0.080013      0.080013        11     0.10%
[MBX] UPDATE_XYZ_LOCAL    :      0.029005      0.029005      0.029005       101     0.04%
[MBX] ACCUMULATE_F_LOCAL  :      0.025903      0.025903      0.025903       404     0.03%


[MBX] Electrostatics Summary
[MBX] kernel                      tmin          tavg          tmax         count   %total
[MBX] -----------------------------------------------------------------------------------
[MBX] ELE_PERMDIP_REAL    :        2.6335        2.6335        2.6335       101     3.36%
[MBX] ELE_PERMDIP_PME     :       0.95342       0.95342       0.95342       101     1.22%
[MBX] ELE_DIPFIELD_REAL   :        9.5619        9.5619        9.5619      1144    12.19%
[MBX] ELE_DIPFIELD_PME    :        11.025        11.025        11.025      1144    14.06%
[MBX] ELE_GRAD_REAL       :        2.5843        2.5843        2.5843       101     3.30%
[MBX] ELE_GRAD_PME        :        3.2383        3.2383        3.2383       101     4.13%
[MBX] ELE_GRAD_FIN        :      0.040874      0.040874      0.040874       101     0.05%
[MBX] ELE_PME_SETUP       :     0.0001232     0.0001232     0.0001232      1346     0.00%
[MBX] ELE_PME_C           :         1.903         1.903         1.903       202     2.43%
[MBX] ELE_PME_D           :         12.11         12.11         12.11      1245    15.44%
[MBX] ELE_PME_E           :        1.1717        1.1717        1.1717       101     1.49%
[MBX] DISP_PME_SETUP      :       0.11544       0.11544       0.11544       101     0.15%
[MBX] DISP_PME_E          :        1.2303        1.2303        1.2303       101     1.57%
[MBX] ELE_COMM_REVFOR     :      0.013341      0.013341      0.013341      1245     0.02%
[MBX] ELE_COMM_REVSET     :    0.00021304    0.00021304    0.00021304        11     0.00%
[MBX] ELE_COMM_REV        :    0.00054812    0.00054812    0.00054812      1234     0.00%
[MBX] ELE_COMM_FORSET     :    0.00094951    0.00094951    0.00094951        11     0.00%
[MBX] ELE_COMM_FOR        :      0.008861      0.008861      0.008861      1234     0.01%
Total wall time: 0:01:18
