# Depositing TIP3P water into MOF with QeQ charges obtained with Ongari scheme
# Variable defiition
variable        mu index -5.0  #chemical potential of reservoir for gcmc (in kcal/mol for real units)
variable        disp index 0.1  # max MC translation distance for random molecular move
variable        temp index 298.15  # simulation temperature
variable        dt  equal  0.2
variable        tfac equal 5.0/3.0 

processors * * * map xyz

units		real	
atom_style	full
boundary        p p p

read_data	data.system

group mof type 1 2 3 4 5 6 7 8 9 10 11
group h2o type 12 13
#molecule h2o H2Otip4p.txt

## LJ ##
#pair_style      lj/cut/coul/long 20.0
pair_style      mbx 9.0  #
pair_modify     tail yes


## MOF pair coefficients ##

#MBX-water
pair_coeff   * *   0.0 0.0

#coul exclude

## Non-bonded k-space ##
#kspace_style    ewald 0.000001
#kspace_style    pppm/tip4p 1.0e-5
#special_bonds   amber


neighbor        2.0 bin
neigh_modify	every 1 delay 1 check yes

timestep        ${dt}
compute         mbx all pair mbx
variable        e1bpip    equal c_mbx[1]
variable        e2bpip    equal c_mbx[2]
variable        e3bpip    equal c_mbx[3]
variable        e4bpip    equal c_mbx[4]
variable        edisp     equal c_mbx[5]
variable        ebuck     equal c_mbx[6]
variable        eele      equal c_mbx[7]
variable        etot      equal c_mbx[8]


#thermo_style    custom step time temp cella cellb cellc vol pe ke etotal
thermo_style    custom step time temp evdwl ecoul epair ebond eangle edihed eimp emol elong etail v_e1bpip v_e2bpip v_e3bpip v_e4bpip v_edisp v_ebuck v_eele v_etot pe etotal
thermo          1
thermo_modify   flush yes

#fix             wshake water shake 1e-5 50 0 b 14 a 24 mol h2o
fix		mynvt all nvt temp ${temp} ${temp} $(100.0*dt)
fix             1 all mbx 2 dp1 1 11 1 1 h2o 12 13 3 12 13 13 json mbx.json
#fix             3 all npt temp 298.15 298.15 $(250.0*dt) iso 1.0 1.0 $(1000.0*dt)
#fix            4 mof npt temp 298.15 298.15 $(250.0*dt) iso 1.0 1.0 $(1000.0*dt)
#fix             5 water gcmc 100 100 0 0 54341 ${temp} ${mu} ${disp} mol h2o tfac_insert ${tfac} group water shake wshake

#fix             nve all nve
#fix             nvt all nvt temp 300.0 300.0 1.0
#fix             3 all npt temp 298.15 298.15 $(10.0*dt) iso 1.0 1.0 $(100.0*dt)

velocity        all create 298.15 428879 rot yes dist gaussian
#velocity        all zero linear
#velocity        all zero angular

dump            1 all custom 1 traj.lammpstrj id type x y z fx fy fz
dump_modify     1 sort id

restart         5000 restart.inter.1 restart.inter.2

#run             1

write_data      final.data nocoeff
write_restart   restart.inter
