768
Lattice="19.655164497481472 0.0 0.0 0.0 19.655164497481472 0.0 0.0 0.0 19.655164497481472" Properties=species:S:1:pos:R:3:masses:R:1:momenta:R:3:id:I:1:type:I:1:mol-id:I:1:initial_charges:R:1:mmcharges:R:1:bonds:S:1:angles:S:1 comment="LAMMPS data file via write_data, version 2 Aug 2023, timestep = 100, units = real" pbc="T T T"
O       22.32478938       5.26093250      17.60809921      15.99940000      -0.00048285      -0.00069346      -0.00078139        1        1        1      -1.11280000      -1.11280000 1(1),2(1) 1-2(1)
H       21.89789003       5.93409379      17.06371168       1.00800000       0.00026119       0.00004006      -0.00011959        2        2        1       0.55640000       0.55640000 _  _ 
H       21.81515620       5.30272133      18.45965715       1.00800000       0.00015050       0.00012295       0.00018645        3        2        1       0.55640000       0.55640000 _  _ 
O       21.04473622       4.89722258      19.84607899      15.99940000       0.00124401      -0.00012626      -0.00033139        4        1        2      -1.11280000      -1.11280000 4(1),5(1) 4-5(1)
H       20.66318795       5.19078205      20.67127348       1.00800000      -0.00030254       0.00009947      -0.00025634        5        2        2       0.55640000       0.55640000 _  _ 
H       21.13456351       3.94384653      19.98044042       1.00800000       0.00039275      -0.00022254       0.00012283        6        2        2       0.55640000       0.55640000 _  _ 
O        8.84579432       5.31084056      20.53937558      15.99940000       0.00041279       0.00096486       0.00063913        7        1        3      -1.11280000      -1.11280000 7(1),8(1) 7-8(1)
H        9.51572710       5.77998509      21.02527531       1.00800000       0.00036653      -0.00011171       0.00009566        8        2        3       0.55640000       0.55640000 _  _ 
H        9.48657534       4.70104098      20.10635619       1.00800000      -0.00030791       0.00014415      -0.00028599        9        2        3       0.55640000       0.55640000 _  _ 
O       15.04181545      21.19628723       3.80803657      15.99940000       0.00030080       0.00111244      -0.00040832       10        1        4      -1.11280000      -1.11280000 10(1),11(1) 10-11(1)
H       14.36757566      21.53113916       3.18831725       1.00800000      -0.00019914      -0.00021101       0.00020515       11        2        4       0.55640000       0.55640000 _  _ 
H       15.83495965      21.59899538       3.44856296       1.00800000      -0.00004154       0.00008764      -0.00018342       12        2        4       0.55640000       0.55640000 _  _ 
O       17.32551832      22.81582848      19.73645487      15.99940000       0.00015991      -0.00004647      -0.00120886       13        1        5      -1.11280000      -1.11280000 13(1),14(1) 13-14(1)
H       17.36179397       4.11572976      19.74938404       1.00800000      -0.00021351       0.00015543      -0.00004417       14        2        5       0.55640000       0.55640000 _  _ 
H       17.61484488      22.63600051      20.65152708       1.00800000      -0.00021935      -0.00030231      -0.00002620       15        2        5       0.55640000       0.55640000 _  _ 
O        3.83286708       6.86854656       3.57103467      15.99940000      -0.00054280      -0.00058873       0.00065389       16        1        6      -1.11280000      -1.11280000 16(1),17(1) 16-17(1)
H        3.87735333       6.24929475       4.31690666       1.00800000      -0.00012986       0.00004841      -0.00005478       17        2        6       0.55640000       0.55640000 _  _ 
H        3.75741385       6.45300879      22.32826063       1.00800000      -0.00010524       0.00012923      -0.00015566       18        2        6       0.55640000       0.55640000 _  _ 
O       10.64297488      11.00361841       5.79988483      15.99940000      -0.00001022      -0.00034504       0.00005811       19        1        7      -1.11280000      -1.11280000 19(1),20(1) 19-20(1)
H       11.53878811      10.60682002       5.78827427       1.00800000       0.00008123       0.00015515      -0.00020626       20        2        7       0.55640000       0.55640000 _  _ 
H       10.02181638      10.26888934       5.74279746       1.00800000       0.00026012       0.00007438      -0.00004615       21        2        7       0.55640000       0.55640000 _  _ 
O        8.39483718       9.23403595       5.28956299      15.99940000      -0.00019877      -0.00008488       0.00085138       22        1        8      -1.11280000      -1.11280000 22(1),23(1) 22-23(1)
H        7.51661146       9.12689241       4.98973593       1.00800000      -0.00015985       0.00013394      -0.00007348       23        2        8       0.55640000       0.55640000 _  _ 
H        8.57988249       8.40162290       5.79046134       1.00800000       0.00004926      -0.00023169       0.00000712       24        2        8       0.55640000       0.55640000 _  _ 
O       13.68343563       5.80471712      21.24563306      15.99940000       0.00051191       0.00130342      -0.00033114       25        1        9      -1.11280000      -1.11280000 25(1),26(1) 25-26(1)
H       13.17282541       5.53936521      21.98457977       1.00800000      -0.00016897      -0.00001785      -0.00009532       26        2        9       0.55640000       0.55640000 _  _ 
H       13.12545585       5.63368014      20.45525770       1.00800000      -0.00016990       0.00027213      -0.00011801       27        2        9       0.55640000       0.55640000 _  _ 
O       15.66470876       8.79547426       5.59649255      15.99940000      -0.00007737      -0.00061561      -0.00089347       28        1       10      -1.11280000      -1.11280000 28(1),29(1) 28-29(1)
H       16.03160030       7.98615930       5.19250227       1.00800000      -0.00030171      -0.00017568      -0.00001153       29        2       10       0.55640000       0.55640000 _  _ 
H       15.22098736       9.35368748       4.93793883       1.00800000       0.00002848       0.00016866       0.00007571       30        2       10       0.55640000       0.55640000 _  _ 
O        5.60267127       9.14060106       4.47605647      15.99940000      -0.00081319      -0.00018873       0.00001247       31        1       11      -1.11280000      -1.11280000 31(1),32(1) 31-32(1)
H        5.09098149       8.31641065       4.48457326       1.00800000       0.00014537       0.00043247      -0.00002341       32        2       11       0.55640000       0.55640000 _  _ 
H        5.35777206       9.69150730       5.23585754       1.00800000       0.00005560      -0.00013357      -0.00008497       33        2       11       0.55640000       0.55640000 _  _ 
O       17.59985177      10.03821142      19.23977048      15.99940000      -0.00070368       0.00014229       0.00017675       34        1       12      -1.11280000      -1.11280000 34(1),35(1) 34-35(1)
H       16.68002174       9.91955623      18.92125368       1.00800000      -0.00012318      -0.00024235       0.00000357       35        2       12       0.55640000       0.55640000 _  _ 
H       17.39182996      10.70865965      19.88120542       1.00800000       0.00009698       0.00005678      -0.00002034       36        2       12       0.55640000       0.55640000 _  _ 
O       16.04828349       7.29495854      21.67572757      15.99940000      -0.00045741      -0.00025041       0.00003443       37        1       13      -1.11280000      -1.11280000 37(1),38(1) 37-38(1)
H       15.97210660       8.29856599      21.61799997       1.00800000       0.00018597      -0.00014539      -0.00031387       38        2       13       0.55640000       0.55640000 _  _ 
H       15.13850940       6.89216530      21.59392938       1.00800000       0.00003276      -0.00011228       0.00014620       39        2       13       0.55640000       0.55640000 _  _ 
O        9.88351759       8.67532418      20.88965727      15.99940000       0.00056681       0.00003944      -0.00079149       40        1       14      -1.11280000      -1.11280000 40(1),41(1) 40-41(1)
H        9.92675127       9.05065498      20.00148478       1.00800000      -0.00006298      -0.00000750      -0.00028057       41        2       14       0.55640000       0.55640000 _  _ 
H        9.00364337       8.80986333      21.24144882       1.00800000      -0.00011790      -0.00005205      -0.00006215       42        2       14       0.55640000       0.55640000 _  _ 
O       12.70245591       9.05466053      21.72270598      15.99940000      -0.00021252      -0.00038916       0.00057476       43        1       15      -1.11280000      -1.11280000 43(1),44(1) 43-44(1)
H       12.80408183       8.15534332      21.40612392       1.00800000      -0.00007707      -0.00002283      -0.00021644       44        2       15       0.55640000       0.55640000 _  _ 
H       11.90045584       9.49177126      21.36277957       1.00800000      -0.00003758      -0.00005191       0.00000846       45        2       15       0.55640000       0.55640000 _  _ 
O       15.27652980       9.76801060      22.21584004      15.99940000      -0.00022598      -0.00063015       0.00038209       46        1       16      -1.11280000      -1.11280000 46(1),47(1) 46-47(1)
H       14.37352196       9.91251876      21.90450379       1.00800000       0.00028641       0.00023975      -0.00006568       47        2       16       0.55640000       0.55640000 _  _ 
H       15.73381865      10.60061097      22.04011472       1.00800000       0.00015338      -0.00015335      -0.00003903       48        2       16       0.55640000       0.55640000 _  _ 
O       16.45501989      16.86321432       3.90094385      15.99940000       0.00072790       0.00012242      -0.00064731       49        1       17      -1.11280000      -1.11280000 49(1),50(1) 49-50(1)
H       16.07243906      17.48277043       4.54254003       1.00800000      -0.00016338      -0.00011645      -0.00029565       50        2       17       0.55640000       0.55640000 _  _ 
H       16.33410052      17.43707401      22.79289717       1.00800000      -0.00008080       0.00006106      -0.00023475       51        2       17       0.55640000       0.55640000 _  _ 
O       20.71537608      10.96558292      22.18921604      15.99940000      -0.00028696      -0.00039297       0.00107229       52        1       18      -1.11280000      -1.11280000 52(1),53(1) 52-53(1)
H       20.22151907      11.21460723      22.94952030       1.00800000      -0.00026494      -0.00016521      -0.00018748       53        2       18       0.55640000       0.55640000 _  _ 
H       21.09841677      10.12004787      22.51338948       1.00800000      -0.00022868      -0.00008796      -0.00016060       54        2       18       0.55640000       0.55640000 _  _ 
O        7.81194772      14.23837954       4.33287138      15.99940000      -0.00062156       0.00007608       0.00151959       55        1       19      -1.11280000      -1.11280000 55(1),56(1) 55-56(1)
H        7.31424704      13.74322301       4.95651817       1.00800000       0.00003221      -0.00021694       0.00007811       56        2       19       0.55640000       0.55640000 _  _ 
H        7.29830713      14.42346287       3.53390814       1.00800000       0.00005624       0.00002127      -0.00005591       57        2       19       0.55640000       0.55640000 _  _ 
O       13.70655966      12.97201942      21.00851756      15.99940000      -0.00018787       0.00019746      -0.00038959       58        1       20      -1.11280000      -1.11280000 58(1),59(1) 58-59(1)
H       13.52742449      13.67411234      21.72096767       1.00800000       0.00011738       0.00020885      -0.00010322       59        2       20       0.55640000       0.55640000 _  _ 
H       12.87927245      12.43704752      20.96279585       1.00800000       0.00000039      -0.00017356      -0.00017457       60        2       20       0.55640000       0.55640000 _  _ 
O        3.46515735      14.72050593      22.10368292      15.99940000       0.00015367      -0.00007575      -0.00060778       61        1       21      -1.11280000      -1.11280000 61(1),62(1) 61-62(1)
H       22.66300331      14.24009388      21.35885332       1.00800000      -0.00001583      -0.00025623       0.00006583       62        2       21       0.55640000       0.55640000 _  _ 
H        4.17802095      15.31101806      21.83542433       1.00800000      -0.00012740      -0.00016975       0.00000711       63        2       21       0.55640000       0.55640000 _  _ 
O        8.72892425      15.74004162       7.97003384      15.99940000      -0.00022468       0.00041597      -0.00105353       64        1       22      -1.11280000      -1.11280000 64(1),65(1) 64-65(1)
H        8.68383626      15.53146557       8.90695156       1.00800000       0.00003040      -0.00011823      -0.00001657       65        2       22       0.55640000       0.55640000 _  _ 
H        9.14880082      14.91936145       7.62312478       1.00800000       0.00018335      -0.00011918      -0.00001572       66        2       22       0.55640000       0.55640000 _  _ 
O        9.91264259       9.50877824      18.25529043      15.99940000      -0.00020481       0.00099345      -0.00090718       67        1       23      -1.11280000      -1.11280000 67(1),68(1) 67-68(1)
H        9.75488162       8.59682236      17.98873055       1.00800000      -0.00013965       0.00026429      -0.00002989       68        2       23       0.55640000       0.55640000 _  _ 
H       10.57838292       9.79448530      17.60884281       1.00800000      -0.00020503       0.00023681       0.00010105       69        2       23       0.55640000       0.55640000 _  _ 
O       13.46197273      16.86730782      21.82854747      15.99940000       0.00035139       0.00185758      -0.00025412       70        1       24      -1.11280000      -1.11280000 70(1),71(1) 70-71(1)
H       14.08128254      17.64234535      21.96106848       1.00800000      -0.00015681      -0.00000623       0.00028140       71        2       24       0.55640000       0.55640000 _  _ 
H       13.67898337      16.34042732      22.51374424       1.00800000       0.00015610      -0.00003302       0.00016741       72        2       24       0.55640000       0.55640000 _  _ 
O       18.05865268      17.88383528      20.57941661      15.99940000      -0.00015650       0.00068754      -0.00016407       73        1       25      -1.11280000      -1.11280000 73(1),74(1) 73-74(1)
H       17.18736117      18.11659563      20.84046548       1.00800000       0.00008328      -0.00027955      -0.00021402       74        2       25       0.55640000       0.55640000 _  _ 
H       18.11022710      17.74567463      19.60269473       1.00800000      -0.00007175       0.00013793      -0.00016238       75        2       25       0.55640000       0.55640000 _  _ 
O        7.30054083      17.00373527       3.69772929      15.99940000      -0.00129045       0.00060576      -0.00151691       76        1       26      -1.11280000      -1.11280000 76(1),77(1) 76-77(1)
H        8.11614932      17.35299925       3.34595802       1.00800000      -0.00007277       0.00008139      -0.00008712       77        2       26       0.55640000       0.55640000 _  _ 
H        7.55691114      16.36801981       4.34437205       1.00800000      -0.00012747      -0.00025193      -0.00001597       78        2       26       0.55640000       0.55640000 _  _ 
O       10.63467570      12.68224984      18.11478626      15.99940000       0.00142716      -0.00016966       0.00139996       79        1       27      -1.11280000      -1.11280000 79(1),80(1) 79-80(1)
H       11.36638396      13.26945228      17.99059795       1.00800000       0.00010546       0.00001220       0.00023958       80        2       27       0.55640000       0.55640000 _  _ 
H       10.08635985      13.18322879      18.75524543       1.00800000       0.00010434       0.00005056       0.00022394       81        2       27       0.55640000       0.55640000 _  _ 
O       16.81306045      17.35696783       8.36405792      15.99940000      -0.00074037       0.00028768      -0.00098485       82        1       28      -1.11280000      -1.11280000 82(1),83(1) 82-83(1)
H       16.59598525      17.74490723       7.49982814       1.00800000       0.00013223      -0.00013693       0.00025663       83        2       28       0.55640000       0.55640000 _  _ 
H       15.97005046      17.48832986       8.86851867       1.00800000      -0.00016836       0.00013176       0.00019687       84        2       28       0.55640000       0.55640000 _  _ 
O       18.65872226      20.33770820      18.33380814      15.99940000       0.00059595       0.00037791      -0.00143282       85        1       29      -1.11280000      -1.11280000 85(1),86(1) 85-86(1)
H       18.31873105      21.15617145      18.70225875       1.00800000      -0.00011368       0.00015231      -0.00003785       86        2       29       0.55640000       0.55640000 _  _ 
H       17.86375465      19.82158898      18.22455095       1.00800000      -0.00001643       0.00002550      -0.00019936       87        2       29       0.55640000       0.55640000 _  _ 
O       22.32430900      19.15975453      19.38281116      15.99940000      -0.00069489      -0.00014893      -0.00007748       88        1       30      -1.11280000      -1.11280000 88(1),89(1) 88-89(1)
H       21.94760987      18.25889082      19.30337053       1.00800000      -0.00005513       0.00007080       0.00016331       89        2       30       0.55640000       0.55640000 _  _ 
H        3.07094605      19.27185314      18.51370807       1.00800000       0.00001529      -0.00020707      -0.00005454       90        2       30       0.55640000       0.55640000 _  _ 
O        7.39954588       6.14648799       3.77822252      15.99940000       0.00041027       0.00025917      -0.00012064       91        1       31      -1.11280000      -1.11280000 91(1),92(1) 91-92(1)
H        8.34373702       6.06496913       3.96683618       1.00800000       0.00011046      -0.00001173      -0.00003305       92        2       31       0.55640000       0.55640000 _  _ 
H        7.27828813       6.85790082       3.10593526       1.00800000      -0.00010181      -0.00006043      -0.00028202       93        2       31       0.55640000       0.55640000 _  _ 
O       15.39551174      19.00543699      21.79932023      15.99940000      -0.00075262       0.00002232       0.00151454       94        1       32      -1.11280000      -1.11280000 94(1),95(1) 94-95(1)
H       15.00627243      19.21586653      20.92245424       1.00800000      -0.00001830       0.00000641       0.00010088       95        2       32       0.55640000       0.55640000 _  _ 
H       15.27741338      19.76662402      22.39644654       1.00800000       0.00023892       0.00015564      -0.00017202       96        2       32       0.55640000       0.55640000 _  _ 
O       19.22164618      20.71871302      21.79644556      15.99940000      -0.00065552       0.00056179      -0.00062546       97        1       33      -1.11280000      -1.11280000 97(1),98(1) 97-98(1)
H       19.88559372      21.20853413      21.25482502       1.00800000      -0.00019060      -0.00003244      -0.00006369       98        2       33       0.55640000       0.55640000 _  _ 
H       19.01500660      19.99168215      21.20824940       1.00800000       0.00012108      -0.00005961      -0.00050750       99        2       33       0.55640000       0.55640000 _  _ 
O       21.18800823      19.30778787       8.19315929      15.99940000      -0.00083655       0.00066507      -0.00025125      100        1       34      -1.11280000      -1.11280000 100(1),101(1) 100-101(1)
H       20.35122369      19.12324331       8.65886061       1.00800000      -0.00027521      -0.00031597      -0.00003401      101        2       34       0.55640000       0.55640000 _  _ 
H       21.14644545      20.25572012       7.97001380       1.00800000      -0.00002497      -0.00005098       0.00017119      102        2       34       0.55640000       0.55640000 _  _ 
O       22.41685765      22.32314152       4.77485766      15.99940000       0.00031853      -0.00031410       0.00035670      103        1       35      -1.11280000      -1.11280000 103(1),104(1) 103-104(1)
H        2.92241148      22.02182893       3.85923491       1.00800000       0.00025238       0.00001146      -0.00001297      104        2       35       0.55640000       0.55640000 _  _ 
H       22.05237907      21.50061203       5.16293758       1.00800000       0.00000280       0.00015197       0.00002827      105        2       35       0.55640000       0.55640000 _  _ 
O       16.37221546       3.67326406       9.97554881      15.99940000       0.00110802      -0.00023625       0.00007182      106        1       36      -1.11280000      -1.11280000 106(1),107(1) 106-107(1)
H       16.33270771      22.66458794       9.22600354       1.00800000      -0.00026156       0.00006104       0.00014205      107        2       36       0.55640000       0.55640000 _  _ 
H       15.40198006       3.85637988      10.11698799       1.00800000       0.00028364       0.00009797      -0.00011322      108        2       36       0.55640000       0.55640000 _  _ 
O       12.29122165       4.47928945       3.49818238      15.99940000      -0.00052267      -0.00046445       0.00040879      109        1       37      -1.11280000      -1.11280000 109(1),110(1) 109-110(1)
H       11.38645899       4.75428413      23.10093861       1.00800000       0.00020482      -0.00022154       0.00006044      110        2       37       0.55640000       0.55640000 _  _ 
H       12.42722025       4.91532454       4.37199588       1.00800000       0.00002907      -0.00027389       0.00005633      111        2       37       0.55640000       0.55640000 _  _ 
O       20.12383842       5.64723662      22.26818265      15.99940000       0.00025309      -0.00053043      -0.00007101      112        1       38      -1.11280000      -1.11280000 112(1),113(1) 112-113(1)
H       19.99497630       5.30496987       3.52637247       1.00800000       0.00008451      -0.00004824       0.00016134      113        2       38       0.55640000       0.55640000 _  _ 
H       20.29637802       6.60514874      22.33564366       1.00800000      -0.00027487       0.00023857       0.00012997      114        2       38       0.55640000       0.55640000 _  _ 
O        3.88583248       5.01900603       5.84911255      15.99940000       0.00030046       0.00006653       0.00036354      115        1       39      -1.11280000      -1.11280000 115(1),116(1) 115-116(1)
H        4.61439215       4.63764974       6.41401884       1.00800000      -0.00002066      -0.00002316       0.00002736      116        2       39       0.55640000       0.55640000 _  _ 
H        3.49384322       4.20645491       5.44449494       1.00800000       0.00003957       0.00016157       0.00010262      117        2       39       0.55640000       0.55640000 _  _ 
O        9.94682251       6.52732447       5.46014570      15.99940000      -0.00056391       0.00045273       0.00048251      118        1       40      -1.11280000      -1.11280000 118(1),119(1) 118-119(1)
H       10.42275539       7.18440410       5.92543359       1.00800000      -0.00010407      -0.00036020       0.00011716      119        2       40       0.55640000       0.55640000 _  _ 
H       10.31596089       5.72047100       5.90639906       1.00800000      -0.00015431      -0.00013870      -0.00023177      120        2       40       0.55640000       0.55640000 _  _ 
O       21.99291277      10.81839792       8.30958246      15.99940000      -0.00037987       0.00026016       0.00023956      121        1       41      -1.11280000      -1.11280000 121(1),122(1) 121-122(1)
H       21.36961265      10.45238612       7.67241503       1.00800000       0.00006670      -0.00029357      -0.00009461      122        2       41       0.55640000       0.55640000 _  _ 
H       21.72743111      11.73977595       8.55423765       1.00800000      -0.00010339       0.00043882      -0.00011249      123        2       41       0.55640000       0.55640000 _  _ 
O       19.83391567       4.20016359       4.77759964      15.99940000       0.00066411      -0.00062543      -0.00002058      124        1       42      -1.11280000      -1.11280000 124(1),125(1) 124-125(1)
H       19.44480937       4.02921638       5.63897097       1.00800000      -0.00003015      -0.00013144       0.00023588      125        2       42       0.55640000       0.55640000 _  _ 
H       20.67912130       3.74823862       4.84867971       1.00800000       0.00010899       0.00023339       0.00004268      126        2       42       0.55640000       0.55640000 _  _ 
O       11.05706078       8.08957409       7.91049573      15.99940000      -0.00034747       0.00044226       0.00001108      127        1       43      -1.11280000      -1.11280000 127(1),128(1) 127-128(1)
H       11.37760711       8.94255733       7.50715383       1.00800000       0.00007048      -0.00003640      -0.00007473      128        2       43       0.55640000       0.55640000 _  _ 
H       10.26973925       8.25799373       8.48568893       1.00800000       0.00012870       0.00013956      -0.00001181      129        2       43       0.55640000       0.55640000 _  _ 
O       16.17978524      12.06553076      20.74971629      15.99940000      -0.00060447       0.00114223       0.00046913      130        1       44      -1.11280000      -1.11280000 130(1),131(1) 130-131(1)
H       16.77618985      12.62143918      21.24456556       1.00800000      -0.00026293      -0.00021358      -0.00011086      131        2       44       0.55640000       0.55640000 _  _ 
H       15.26615209      12.39556747      20.83362679       1.00800000       0.00018691      -0.00027255       0.00008120      132        2       44       0.55640000       0.55640000 _  _ 
O       21.44124731      13.56114660       6.25400174      15.99940000       0.00019450       0.00029997      -0.00028296      133        1       45      -1.11280000      -1.11280000 133(1),134(1) 133-134(1)
H       21.17665805      14.30477132       5.63192055       1.00800000       0.00002551       0.00010012      -0.00006400      134        2       45       0.55640000       0.55640000 _  _ 
H       21.84136395      14.06296299       6.94438939       1.00800000       0.00040089      -0.00012680       0.00029141      135        2       45       0.55640000       0.55640000 _  _ 
O       20.73747540       7.48170448       6.38344548      15.99940000      -0.00037884       0.00040326      -0.00021499      136        1       46      -1.11280000      -1.11280000 136(1),137(1) 136-137(1)
H       21.50742173       6.89135461       6.18753346       1.00800000       0.00002646       0.00009258       0.00002997      137        2       46       0.55640000       0.55640000 _  _ 
H       20.96276150       8.28380163       6.00331601       1.00800000       0.00008630      -0.00022592      -0.00009894      138        2       46       0.55640000       0.55640000 _  _ 
O        7.79769750      12.14028174       6.63540835      15.99940000       0.00094149       0.00024136      -0.00096968      139        1       47      -1.11280000      -1.11280000 139(1),140(1) 139-140(1)
H        8.09259849      12.08684185       7.56677016       1.00800000       0.00006508      -0.00005958       0.00006677      140        2       47       0.55640000       0.55640000 _  _ 
H        8.03398177      11.24125375       6.29815099       1.00800000       0.00005486      -0.00023340      -0.00002688      141        2       47       0.55640000       0.55640000 _  _ 
O       17.27425308      10.80618295       6.71008133      15.99940000      -0.00078014       0.00015522       0.00009160      142        1       48      -1.11280000      -1.11280000 142(1),143(1) 142-143(1)
H       17.55562049      10.68438167       7.67235518       1.00800000      -0.00013973      -0.00013052       0.00013366      143        2       48       0.55640000       0.55640000 _  _ 
H       16.87427172       9.94452128       6.47483488       1.00800000      -0.00019688       0.00016361      -0.00006441      144        2       48       0.55640000       0.55640000 _  _ 
O       18.30130179      15.29891199       5.04372923      15.99940000      -0.00186524       0.00095447      -0.00011021      145        1       49      -1.11280000      -1.11280000 145(1),146(1) 145-146(1)
H       17.74156641      16.04128908       4.67077390       1.00800000       0.00005296       0.00010885      -0.00009723      146        2       49       0.55640000       0.55640000 _  _ 
H       19.22091358      15.63338637       4.91720914       1.00800000      -0.00006519      -0.00008862       0.00022202      147        2       49       0.55640000       0.55640000 _  _ 
O        5.06022009      10.44215973       7.55949271      15.99940000      -0.00026298      -0.00012323       0.00019092      148        1       50      -1.11280000      -1.11280000 148(1),149(1) 148-149(1)
H        5.50786979       9.77814574       8.06046776       1.00800000      -0.00023207       0.00000506      -0.00000312      149        2       50       0.55640000       0.55640000 _  _ 
H        4.15099970      10.41354106       7.90855441       1.00800000      -0.00020374       0.00009589       0.00000124      150        2       50       0.55640000       0.55640000 _  _ 
O       11.55495495      11.41996779      20.97946212      15.99940000      -0.00052433       0.00026213      -0.00001629      151        1       51      -1.11280000      -1.11280000 151(1),152(1) 151-152(1)
H       11.13759518      11.72667427      21.81517704       1.00800000      -0.00023170      -0.00010038      -0.00024938      152        2       51       0.55640000       0.55640000 _  _ 
H       10.85699926      11.81021212      20.43540476       1.00800000       0.00010492      -0.00009882       0.00002032      153        2       51       0.55640000       0.55640000 _  _ 
O       17.02287050      13.48787550       6.71235509      15.99940000      -0.00032484       0.00076145       0.00024432      154        1       52      -1.11280000      -1.11280000 154(1),155(1) 154-155(1)
H       17.77155496      13.98300614       6.38897349       1.00800000       0.00005448      -0.00031367      -0.00000184      155        2       52       0.55640000       0.55640000 _  _ 
H       17.13673523      12.63440401       6.30402252       1.00800000      -0.00006643       0.00014451       0.00003609      156        2       52       0.55640000       0.55640000 _  _ 
O        3.11068610      18.66046642       4.00101523      15.99940000      -0.00078249       0.00046515      -0.00005550      157        1       53      -1.11280000      -1.11280000 157(1),158(1) 157-158(1)
H        3.68114197      18.61094808       3.19393023       1.00800000       0.00024371      -0.00004097      -0.00009452      158        2       53       0.55640000       0.55640000 _  _ 
H        3.61558695      18.49503672       4.80344860       1.00800000       0.00019952      -0.00012253      -0.00019763      159        2       53       0.55640000       0.55640000 _  _ 
O        9.63145873      18.30910409       7.13477594      15.99940000       0.00009418       0.00019708      -0.00138323      160        1       54      -1.11280000      -1.11280000 160(1),161(1) 160-161(1)
H        9.46606893      17.39796532       7.26654713       1.00800000       0.00009098       0.00030567       0.00033899      161        2       54       0.55640000       0.55640000 _  _ 
H       10.24192820      18.35759925       6.40298512       1.00800000       0.00015933      -0.00007105       0.00008526      162        2       54       0.55640000       0.55640000 _  _ 
O       11.19014989      15.12317702       4.62901521      15.99940000       0.00014634       0.00026534      -0.00047615      163        1       55      -1.11280000      -1.11280000 163(1),164(1) 163-164(1)
H       11.23253585      16.12014429       4.71708480       1.00800000      -0.00005426       0.00021838       0.00000730      164        2       55       0.55640000       0.55640000 _  _ 
H       10.29218213      14.88897466       4.44497517       1.00800000      -0.00009174       0.00018269       0.00003291      165        2       55       0.55640000       0.55640000 _  _ 
O       10.84503396      17.10974383      20.43380521      15.99940000       0.00024721       0.00008876      -0.00023822      166        1       56      -1.11280000      -1.11280000 166(1),167(1) 166-167(1)
H       11.59529877      17.13442672      21.12219102       1.00800000       0.00005319       0.00011975      -0.00017202      167        2       56       0.55640000       0.55640000 _  _ 
H       11.21095298      17.08906133      19.58615419       1.00800000      -0.00005004      -0.00006250      -0.00017469      168        2       56       0.55640000       0.55640000 _  _ 
O       17.28249169      22.48651830      22.78678130      15.99940000      -0.00064226      -0.00102943       0.00129002      169        1       57      -1.11280000      -1.11280000 169(1),170(1) 169-170(1)
H       17.58137400       3.54183951       3.67578620       1.00800000      -0.00003028      -0.00006709       0.00008753      170        2       57       0.55640000       0.55640000 _  _ 
H       17.97636626      21.82227005      22.78454497       1.00800000       0.00007402      -0.00000555       0.00017226      171        2       57       0.55640000       0.55640000 _  _ 
O        6.01716434      19.43245907       4.23187460      15.99940000       0.00170629      -0.00108604      -0.00051494      172        1       58      -1.11280000      -1.11280000 172(1),173(1) 172-173(1)
H        5.38555514      19.59969798       3.54361542       1.00800000       0.00018726      -0.00013039       0.00002158      173        2       58       0.55640000       0.55640000 _  _ 
H        6.28984916      18.47828328       4.08813249       1.00800000      -0.00009205       0.00008286      -0.00002908      174        2       58       0.55640000       0.55640000 _  _ 
O       11.73900590      17.56280766       5.20893289      15.99940000      -0.00043987       0.00041459       0.00035720      175        1       59      -1.11280000      -1.11280000 175(1),176(1) 175-176(1)
H       11.70711039      18.36455577       4.56294236       1.00800000      -0.00005182      -0.00022273      -0.00033620      176        2       59       0.55640000       0.55640000 _  _ 
H       12.40649979      17.59354036       5.91362003       1.00800000      -0.00015382      -0.00019522      -0.00012664      177        2       59       0.55640000       0.55640000 _  _ 
O       11.30454130      20.03989056       3.95446874      15.99940000      -0.00037653       0.00075310       0.00090565      178        1       60      -1.11280000      -1.11280000 178(1),179(1) 178-179(1)
H       11.94605886      20.51202584       3.41628931       1.00800000       0.00001289       0.00000343      -0.00000872      179        2       60       0.55640000       0.55640000 _  _ 
H       10.76575322      20.70710377       4.40344471       1.00800000       0.00027222       0.00003386      -0.00007400      180        2       60       0.55640000       0.55640000 _  _ 
O       18.27243119      20.23518133       6.48450503      15.99940000      -0.00014848      -0.00035674       0.00159809      181        1       61      -1.11280000      -1.11280000 181(1),182(1) 181-182(1)
H       17.77284096      19.43023307       6.21787719       1.00800000       0.00011094      -0.00006533       0.00002323      182        2       61       0.55640000       0.55640000 _  _ 
H       19.15320290      20.11567239       6.10111664       1.00800000      -0.00008501       0.00025130      -0.00009450      183        2       61       0.55640000       0.55640000 _  _ 
O       20.29366203      19.59726276       4.39184978      15.99940000      -0.00136805      -0.00005799      -0.00001718      184        1       62      -1.11280000      -1.11280000 184(1),185(1) 184-185(1)
H       21.13903562      19.33532056       4.02449286       1.00800000      -0.00009604      -0.00011196       0.00001961      185        2       62       0.55640000       0.55640000 _  _ 
H       19.77644503      19.84640639       3.62232889       1.00800000       0.00013484       0.00001943      -0.00028517      186        2       62       0.55640000       0.55640000 _  _ 
O       12.98179361      21.81234983      21.99703173      15.99940000      -0.00090559      -0.00004737       0.00045160      187        1       63      -1.11280000      -1.11280000 187(1),188(1) 187-188(1)
H       12.88268817      22.74855304      22.32696529       1.00800000       0.00025981      -0.00002138      -0.00030533      188        2       63       0.55640000       0.55640000 _  _ 
H       13.33238248      21.96054339      21.08919910       1.00800000       0.00011858       0.00015823       0.00027078      189        2       63       0.55640000       0.55640000 _  _ 
O       15.53944425      18.16027421       5.74776408      15.99940000       0.00010584      -0.00107412      -0.00002503      190        1       64      -1.11280000      -1.11280000 190(1),191(1) 190-191(1)
H       15.13761714      19.05677897       6.07221230       1.00800000       0.00033879       0.00005088       0.00010219      191        2       64       0.55640000       0.55640000 _  _ 
H       15.01204648      17.56811002       6.28161904       1.00800000      -0.00000074       0.00024713       0.00022695      192        2       64       0.55640000       0.55640000 _  _ 
O       16.53712516      21.08796559       8.69800489      15.99940000      -0.00006594      -0.00116864       0.00006126      193        1       65      -1.11280000      -1.11280000 193(1),194(1) 193-194(1)
H       17.33658421      20.62011403       8.89436864       1.00800000      -0.00008565      -0.00019675      -0.00015624      194        2       65       0.55640000       0.55640000 _  _ 
H       16.33622423      21.03641399       7.74546071       1.00800000      -0.00031834       0.00017285       0.00000418      195        2       65       0.55640000       0.55640000 _  _ 
O        3.45836427      19.55799144       9.99749602      15.99940000       0.00059214      -0.00048789       0.00052716      196        1       66      -1.11280000      -1.11280000 196(1),197(1) 196-197(1)
H       22.71105169      20.25717159      10.54532615       1.00800000      -0.00001985      -0.00006190       0.00010062      197        2       66       0.55640000       0.55640000 _  _ 
H       22.44173024      19.29562240       9.31080780       1.00800000       0.00018118      -0.00000604      -0.00004542      198        2       66       0.55640000       0.55640000 _  _ 
O        5.87471083       5.31894014      10.12008824      15.99940000      -0.00021123      -0.00005822       0.00050975      199        1       67      -1.11280000      -1.11280000 199(1),200(1) 199-200(1)
H        5.95045042       5.62209467       9.19747430       1.00800000       0.00013607       0.00017682       0.00002735      200        2       67       0.55640000       0.55640000 _  _ 
H        5.83773419       4.34752515      10.02732181       1.00800000       0.00008682       0.00008811      -0.00012180      201        2       67       0.55640000       0.55640000 _  _ 
O        9.50446876      21.91554063       5.52633293      15.99940000      -0.00022666      -0.00031101       0.00021141      202        1       68      -1.11280000      -1.11280000 202(1),203(1) 202-203(1)
H        9.02929341      21.16691798       5.88942815       1.00800000      -0.00011015       0.00005090      -0.00024676      203        2       68       0.55640000       0.55640000 _  _ 
H        8.84495282      22.39089862       4.96012424       1.00800000       0.00001178      -0.00028106      -0.00028552      204        2       68       0.55640000       0.55640000 _  _ 
O       13.80532494       6.34020291       5.14202833      15.99940000      -0.00013572       0.00002318      -0.00060260      205        1       69      -1.11280000      -1.11280000 205(1),206(1) 205-206(1)
H       14.69087174       6.09951248       4.87026726       1.00800000      -0.00002770      -0.00024291      -0.00006734      206        2       69       0.55640000       0.55640000 _  _ 
H       13.85415560       6.18485682       6.08939341       1.00800000      -0.00005954      -0.00012250      -0.00013283      207        2       69       0.55640000       0.55640000 _  _ 
O       18.58890311       3.74643530       7.39882297      15.99940000       0.00078459      -0.00041399       0.00038072      208        1       70      -1.11280000      -1.11280000 208(1),209(1) 208-209(1)
H       17.94604252      22.70128165       7.64036646       1.00800000       0.00000080       0.00015658       0.00023907      209        2       70       0.55640000       0.55640000 _  _ 
H       18.08542782       4.61525310       7.31244325       1.00800000      -0.00016389      -0.00004450       0.00001786      210        2       70       0.55640000       0.55640000 _  _ 
O        8.53578589       5.21065243       8.62401416      15.99940000      -0.00001106      -0.00066883       0.00015570      211        1       71      -1.11280000      -1.11280000 211(1),212(1) 211-212(1)
H        8.11360823       5.42522881       7.77637774       1.00800000       0.00029921      -0.00025944      -0.00018087      212        2       71       0.55640000       0.55640000 _  _ 
H        8.67152571       6.01527435       9.11954158       1.00800000       0.00001845       0.00019754       0.00007763      213        2       71       0.55640000       0.55640000 _  _ 
O       14.75484375       9.02726861       7.98408162      15.99940000       0.00004638      -0.00063426       0.00061106      214        1       72      -1.11280000      -1.11280000 214(1),215(1) 214-215(1)
H       14.23320695       9.82004356       8.04454738       1.00800000       0.00002434      -0.00024618      -0.00009091      215        2       72       0.55640000       0.55640000 _  _ 
H       14.88199212       8.75306089       7.06168972       1.00800000       0.00022917      -0.00001725       0.00002021      216        2       72       0.55640000       0.55640000 _  _ 
O       19.10198256       7.64291671       8.90134467      15.99940000      -0.00025746      -0.00022991      -0.00041932      217        1       73      -1.11280000      -1.11280000 217(1),218(1) 217-218(1)
H       18.78207207       6.88021897       9.43823524       1.00800000       0.00002787      -0.00009343       0.00006588      218        2       73       0.55640000       0.55640000 _  _ 
H       19.97034086       7.40996961       8.59917044       1.00800000       0.00021035      -0.00026199       0.00003954      219        2       73       0.55640000       0.55640000 _  _ 
O        6.27443589       8.52827546       9.99838450      15.99940000       0.00058060      -0.00005920       0.00066189      220        1       74      -1.11280000      -1.11280000 220(1),221(1) 220-221(1)
H        6.54217849       8.19881901      10.84894939       1.00800000       0.00029541       0.00002374       0.00022320      221        2       74       0.55640000       0.55640000 _  _ 
H        5.34399514       8.79809082      10.18924937       1.00800000      -0.00003606      -0.00029777      -0.00037018      222        2       74       0.55640000       0.55640000 _  _ 
O       11.09728619      11.77888442       9.73231390      15.99940000       0.00036508       0.00193290      -0.00048588      223        1       75      -1.11280000      -1.11280000 223(1),224(1) 223-224(1)
H       10.81267887      11.00111278      10.15937506       1.00800000      -0.00013264       0.00002266       0.00009059      224        2       75       0.55640000       0.55640000 _  _ 
H       11.59085046      12.27973969      10.36333077       1.00800000       0.00041953       0.00000683      -0.00003501      225        2       75       0.55640000       0.55640000 _  _ 
O       16.26540133      11.91210788      11.61062134      15.99940000       0.00065204       0.00010980       0.00055292      226        1       76      -1.11280000      -1.11280000 226(1),227(1) 226-227(1)
H       16.20207215      12.21705978      10.67000216       1.00800000      -0.00034988      -0.00000498       0.00006418      227        2       76       0.55640000       0.55640000 _  _ 
H       15.54048487      11.26416006      11.71043856       1.00800000      -0.00024172       0.00013797      -0.00031632      228        2       76       0.55640000       0.55640000 _  _ 
O       16.38778540       5.93218052       4.39633289      15.99940000      -0.00105788       0.00081861       0.00072338      229        1       77      -1.11280000      -1.11280000 229(1),230(1) 229-230(1)
H       17.08612097       6.03710329       5.03180685       1.00800000       0.00015219      -0.00001517       0.00013740      230        2       77       0.55640000       0.55640000 _  _ 
H       16.41887832       6.61295030       3.71753195       1.00800000       0.00003721       0.00003505       0.00004649      231        2       77       0.55640000       0.55640000 _  _ 
O        8.72407801      13.16087100       9.07392902      15.99940000       0.00063941       0.00021373      -0.00062370      232        1       78      -1.11280000      -1.11280000 232(1),233(1) 232-233(1)
H        8.05423268      13.05541142       9.76228223       1.00800000      -0.00008182       0.00017729      -0.00025060      233        2       78       0.55640000       0.55640000 _  _ 
H        9.49820015      12.75161708       9.43387032       1.00800000      -0.00012550      -0.00000334      -0.00000906      234        2       78       0.55640000       0.55640000 _  _ 
O       13.29536484      11.52273468       8.12377101      15.99940000      -0.00023946       0.00081291       0.00004345      235        1       79      -1.11280000      -1.11280000 235(1),236(1) 235-236(1)
H       12.55785658      11.52200660       8.81544572       1.00800000      -0.00016412       0.00005381      -0.00016081      236        2       79       0.55640000       0.55640000 _  _ 
H       13.10660339      12.17106988       7.44519412       1.00800000      -0.00005958       0.00037943      -0.00001972      237        2       79       0.55640000       0.55640000 _  _ 
O       15.46188563      12.83665260       8.96109536      15.99940000       0.00039385      -0.00055753       0.00054054      238        1       80      -1.11280000      -1.11280000 238(1),239(1) 238-239(1)
H       14.76758546      12.15388494       8.77047549       1.00800000       0.00011665      -0.00015853      -0.00032991      239        2       80       0.55640000       0.55640000 _  _ 
H       15.96673925      12.89832895       8.14983293       1.00800000       0.00013801      -0.00009492       0.00007003      240        2       80       0.55640000       0.55640000 _  _ 
O       19.81973305      11.72249393       5.12182958      15.99940000      -0.00051752       0.00049895      -0.00017351      241        1       81      -1.11280000      -1.11280000 241(1),242(1) 241-242(1)
H       19.01774221      11.26836768       5.42086172       1.00800000      -0.00013198      -0.00004499       0.00011359      242        2       81       0.55640000       0.55640000 _  _ 
H       20.21183827      12.28784479       5.80387582       1.00800000       0.00019520       0.00001708       0.00017250      243        2       81       0.55640000       0.55640000 _  _ 
O        5.87607765      17.16723243       9.38808325      15.99940000       0.00080984       0.00128328      -0.00053144      244        1       82      -1.11280000      -1.11280000 244(1),245(1) 244-245(1)
H        4.95782300      17.04193904       9.72324989       1.00800000       0.00021261       0.00008508      -0.00006634      245        2       82       0.55640000       0.55640000 _  _ 
H        5.90706612      16.86225328       8.47238047       1.00800000       0.00013132       0.00015423      -0.00020838      246        2       82       0.55640000       0.55640000 _  _ 
O       10.70011538      13.51060033       6.98459145      15.99940000       0.00025781      -0.00015598       0.00009064      247        1       83      -1.11280000      -1.11280000 247(1),248(1) 247-248(1)
H       10.32769767      12.63686955       6.72830555       1.00800000      -0.00016247       0.00016672       0.00023471      248        2       83       0.55640000       0.55640000 _  _ 
H       10.82732529      14.01679489       6.15688554       1.00800000       0.00005489       0.00014332       0.00005607      249        2       83       0.55640000       0.55640000 _  _ 
O       19.00813227      15.96079757       9.26728827      15.99940000       0.00043623      -0.00039278      -0.00000262      250        1       84      -1.11280000      -1.11280000 250(1),251(1) 250-251(1)
H       19.83444832      16.24751148       8.78653672       1.00800000      -0.00009125       0.00008601      -0.00004909      251        2       84       0.55640000       0.55640000 _  _ 
H       18.32807891      16.48841963       8.82552443       1.00800000      -0.00012201       0.00024269      -0.00000760      252        2       84       0.55640000       0.55640000 _  _ 
O        5.43434135      13.40532509       6.29046598      15.99940000      -0.00027175      -0.00081520      -0.00054896      253        1       85      -1.11280000      -1.11280000 253(1),254(1) 253-254(1)
H        6.02080354      12.65452851       6.45762072       1.00800000       0.00022887      -0.00031840      -0.00027029      254        2       85       0.55640000       0.55640000 _  _ 
H        4.86772694      13.00169249       5.55305219       1.00800000       0.00019832      -0.00007006      -0.00022575      255        2       85       0.55640000       0.55640000 _  _ 
O       10.89172130      15.80985838      11.12872994      15.99940000       0.00047265      -0.00028454      -0.00109988      256        1       86      -1.11280000      -1.11280000 256(1),257(1) 256-257(1)
H       11.36533141      15.64237998      10.27657652       1.00800000      -0.00005265      -0.00010488      -0.00007493      257        2       86       0.55640000       0.55640000 _  _ 
H       10.00905891      16.13683455      10.98227740       1.00800000      -0.00006772      -0.00000271       0.00002766      258        2       86       0.55640000       0.55640000 _  _ 
O       15.11580668      17.92965848      10.48851594      15.99940000       0.00004044      -0.00004596       0.00085680      259        1       87      -1.11280000      -1.11280000 259(1),260(1) 259-260(1)
H       15.87172425      18.08564560      11.11772479       1.00800000      -0.00044644       0.00001418       0.00013490      260        2       87       0.55640000       0.55640000 _  _ 
H       14.96927189      16.96695140      10.53207538       1.00800000       0.00025562      -0.00015972      -0.00012551      261        2       87       0.55640000       0.55640000 _  _ 
O       14.65704797      15.27657652       6.54602927      15.99940000       0.00035692       0.00119087       0.00095777      262        1       88      -1.11280000      -1.11280000 262(1),263(1) 262-263(1)
H       15.49260848      14.79616971       6.73142711       1.00800000       0.00025404       0.00003571       0.00019083      263        2       88       0.55640000       0.55640000 _  _ 
H       14.08961691      15.11015961       7.32946643       1.00800000       0.00018564      -0.00015604       0.00005543      264        2       88       0.55640000       0.55640000 _  _ 
O       21.63809662      16.23418596       8.44973037      15.99940000       0.00104300       0.00034506       0.00128513      265        1       89      -1.11280000      -1.11280000 265(1),266(1) 265-266(1)
H       22.13117169      16.82302808       7.83936451       1.00800000      -0.00039956       0.00040438      -0.00008915      266        2       89       0.55640000       0.55640000 _  _ 
H       22.12260692      16.45399264       9.29679632       1.00800000       0.00005585       0.00004954       0.00024528      267        2       89       0.55640000       0.55640000 _  _ 
O       21.38311016      15.78715999       4.30738567      15.99940000       0.00088850      -0.00074499       0.00019839      268        1       90      -1.11280000      -1.11280000 268(1),269(1) 268-269(1)
H       22.12824640      15.32149396       3.78741227       1.00800000      -0.00031139       0.00004528      -0.00023258      269        2       90       0.55640000       0.55640000 _  _ 
H       21.85766113      16.62195481       4.52187697       1.00800000       0.00020948       0.00003386      -0.00012761      270        2       90       0.55640000       0.55640000 _  _ 
O       13.08660796      17.53558258       7.45125212      15.99940000      -0.00006345       0.00011483       0.00040362      271        1       91      -1.11280000      -1.11280000 271(1),272(1) 271-272(1)
H       12.91863892      16.80675446       8.02125136       1.00800000       0.00022400      -0.00018659      -0.00010924      272        2       91       0.55640000       0.55640000 _  _ 
H       13.06814593      18.32487008       8.06203766       1.00800000      -0.00000137       0.00000769       0.00001914      273        2       91       0.55640000       0.55640000 _  _ 
O       12.75833738      20.47167704       8.36514038      15.99940000      -0.00088689      -0.00010291      -0.00080375      274        1       92      -1.11280000      -1.11280000 274(1),275(1) 274-275(1)
H       13.05387508      20.77717273       9.24191584       1.00800000       0.00011114       0.00007397       0.00011480      275        2       92       0.55640000       0.55640000 _  _ 
H       11.79312555      20.37591480       8.46209368       1.00800000      -0.00007582       0.00008264       0.00006393      276        2       92       0.55640000       0.55640000 _  _ 
O       20.10800675      16.89800385      11.60252992      15.99940000       0.00197476       0.00005818      -0.00014535      277        1       93      -1.11280000      -1.11280000 277(1),278(1) 277-278(1)
H       20.27174618      17.70298848      12.12547119       1.00800000       0.00009333      -0.00007746       0.00017933      278        2       93       0.55640000       0.55640000 _  _ 
H       19.76172652      17.13719270      10.72990459       1.00800000       0.00011724       0.00024886      -0.00006913      279        2       93       0.55640000       0.55640000 _  _ 
O        6.18801370      22.95908170       5.85700102      15.99940000       0.00073545       0.00019812       0.00020844      280        1       94      -1.11280000      -1.11280000 280(1),281(1) 280-281(1)
H        6.55961788      22.15558606       6.23275628       1.00800000       0.00015396       0.00013193       0.00000279      281        2       94       0.55640000       0.55640000 _  _ 
H        6.59492789      23.07673807       4.98661085       1.00800000       0.00013165      -0.00017268       0.00023313      282        2       94       0.55640000       0.55640000 _  _ 
O        6.43714700       6.07590141       6.58919699      15.99940000       0.00028329       0.00009025      -0.00045630      283        1       95      -1.11280000      -1.11280000 283(1),284(1) 283-284(1)
H        6.60921410       5.79518324       5.64598195       1.00800000       0.00008237       0.00017305       0.00018082      284        2       95       0.55640000       0.55640000 _  _ 
H        6.21558240       6.99683754       6.45137926       1.00800000       0.00019447       0.00016639       0.00008543      285        2       95       0.55640000       0.55640000 _  _ 
O       14.84177752      20.53793137       6.32351351      15.99940000       0.00004502      -0.00082842       0.00003561      286        1       96      -1.11280000      -1.11280000 286(1),287(1) 286-287(1)
H       13.99871962      20.56689419       6.80983659       1.00800000      -0.00006098       0.00007430      -0.00026672      287        2       96       0.55640000       0.55640000 _  _ 
H       14.88895055      21.01874200       5.48076876       1.00800000      -0.00010956      -0.00006571       0.00019142      288        2       96       0.55640000       0.55640000 _  _ 
O       14.24686330      18.17287354      13.72554875      15.99940000      -0.00068451      -0.00001168      -0.00143169      289        1       97      -1.11280000      -1.11280000 289(1),290(1) 289-290(1)
H       14.23215042      18.90733415      13.14070489       1.00800000       0.00010409      -0.00015446      -0.00017712      290        2       97       0.55640000       0.55640000 _  _ 
H       15.15722659      17.72943590      13.60613862       1.00800000       0.00022196      -0.00002272      -0.00004312      291        2       97       0.55640000       0.55640000 _  _ 
O       18.57633060      19.43406816       9.73051567      15.99940000       0.00064405       0.00050715       0.00063681      292        1       98      -1.11280000      -1.11280000 292(1),293(1) 292-293(1)
H       17.98015320      18.79666500       9.33904976       1.00800000      -0.00025936       0.00001957       0.00006723      293        2       98       0.55640000       0.55640000 _  _ 
H       18.17518814      19.57615729      10.59245058       1.00800000      -0.00012628       0.00004667      -0.00024706      294        2       98       0.55640000       0.55640000 _  _ 
O        7.99229297      22.13197597       9.73439735      15.99940000       0.00037834       0.00062882       0.00098938      295        1       99      -1.11280000      -1.11280000 295(1),296(1) 295-296(1)
H        8.18108816       3.31734156       9.26231269       1.00800000      -0.00003381       0.00000658       0.00004959      296        2       99       0.55640000       0.55640000 _  _ 
H        7.04586616      22.07043383       9.84154899       1.00800000       0.00012283      -0.00000967       0.00017372      297        2       99       0.55640000       0.55640000 _  _ 
O       10.86952662       4.43397628       6.65535277      15.99940000      -0.00026733      -0.00040315      -0.00098749      298        1      100      -1.11280000      -1.11280000 298(1),299(1) 298-299(1)
H       10.57232867       4.70548345       7.49455704       1.00800000      -0.00000732      -0.00002702      -0.00009331      299        2      100       0.55640000       0.55640000 _  _ 
H       10.60261812       3.50406267       6.51994382       1.00800000       0.00009118       0.00000207       0.00016955      300        2      100       0.55640000       0.55640000 _  _ 
O       15.21920989      21.94932038      12.69264998      15.99940000      -0.00018108       0.00019358       0.00008028      301        1      101      -1.11280000      -1.11280000 301(1),302(1) 301-302(1)
H       16.06181210      21.80584091      12.20892585       1.00800000      -0.00001481       0.00013932       0.00017701      302        2      101       0.55640000       0.55640000 _  _ 
H       14.56964936      21.33293099      12.27601208       1.00800000      -0.00012505       0.00000471       0.00018188      303        2      101       0.55640000       0.55640000 _  _ 
O       20.78647339      22.19630943       8.59089420      15.99940000      -0.00040015       0.00035842      -0.00078945      304        1      102      -1.11280000      -1.11280000 304(1),305(1) 304-305(1)
H       20.56560510      21.76323944       9.38500932       1.00800000      -0.00002918      -0.00014086       0.00016840      305        2      102       0.55640000       0.55640000 _  _ 
H       19.96340440      22.60894802       8.30416723       1.00800000      -0.00001318       0.00004298       0.00006616      306        2      102       0.55640000       0.55640000 _  _ 
O        8.98245521       8.01552715       9.51819561      15.99940000      -0.00096177       0.00031041      -0.00021153      307        1      103      -1.11280000      -1.11280000 307(1),308(1) 307-308(1)
H        8.08521345       8.39140237       9.54124541       1.00800000      -0.00024974      -0.00038461       0.00005993      308        2      103       0.55640000       0.55640000 _  _ 
H        9.41045924       8.46948074      10.22008126       1.00800000       0.00003620       0.00002029       0.00006718      309        2      103       0.55640000       0.55640000 _  _ 
O       15.36485233       8.03584085      10.49673608      15.99940000      -0.00031300       0.00102313      -0.00101167      310        1      104      -1.11280000      -1.11280000 310(1),311(1) 310-311(1)
H       15.37534922       8.21206051       9.51410162       1.00800000      -0.00015731      -0.00033779       0.00005912      311        2      104       0.55640000       0.55640000 _  _ 
H       16.20625887       7.70050339      10.74859626       1.00800000      -0.00025206       0.00022061       0.00023233      312        2      104       0.55640000       0.55640000 _  _ 
O       17.78200558       6.64241764       6.71056120      15.99940000      -0.00038788      -0.00067036       0.00029597      313        1      105      -1.11280000      -1.11280000 313(1),314(1) 313-314(1)
H       18.71139603       6.98348007       6.66562708       1.00800000       0.00000107       0.00025817      -0.00000860      314        2      105       0.55640000       0.55640000 _  _ 
H       17.47843230       7.16724952       7.43559100       1.00800000       0.00024914      -0.00024905      -0.00012249      315        2      105       0.55640000       0.55640000 _  _ 
O        3.32071065       6.48947315      10.29231588      15.99940000      -0.00019356       0.00027692      -0.00102209      316        1      106      -1.11280000      -1.11280000 316(1),317(1) 316-317(1)
H        3.39106305       7.42256896      10.56011608       1.00800000       0.00019068      -0.00028861       0.00016339      317        2      106       0.55640000       0.55640000 _  _ 
H        4.25606116       6.16729136      10.31307766       1.00800000      -0.00010509       0.00022790       0.00029750      318        2      106       0.55640000       0.55640000 _  _ 
O       15.60778532       5.10947315      13.52796294      15.99940000       0.00053559      -0.00178415      -0.00038198      319        1      107      -1.11280000      -1.11280000 319(1),320(1) 319-320(1)
H       15.46339282       4.19241839      13.25865843       1.00800000       0.00002728      -0.00012327      -0.00027095      320        2      107       0.55640000       0.55640000 _  _ 
H       14.99883159       5.13809332      14.30809776       1.00800000       0.00027224      -0.00042304      -0.00007769      321        2      107       0.55640000       0.55640000 _  _ 
O       13.44807449       6.61004229      12.12783210      15.99940000       0.00088464      -0.00073704       0.00005854      322        1      108      -1.11280000      -1.11280000 322(1),323(1) 322-323(1)
H       14.24550307       6.07292659      12.19285216       1.00800000      -0.00005266      -0.00020892       0.00001841      323        2      108       0.55640000       0.55640000 _  _ 
H       13.71797425       7.42711815      11.65981482       1.00800000      -0.00033045      -0.00027341      -0.00007320      324        2      108       0.55640000       0.55640000 _  _ 
O       17.89779602      21.55668771      11.76451532      15.99940000      -0.00046704      -0.00089671      -0.00061713      325        1      109      -1.11280000      -1.11280000 325(1),326(1) 325-326(1)
H       18.74137969      22.12012330      11.83116591       1.00800000      -0.00004896       0.00003806       0.00000568      326        2      109       0.55640000       0.55640000 _  _ 
H       17.50291652      22.01603669      10.96790767       1.00800000      -0.00010889      -0.00007226       0.00001029      327        2      109       0.55640000       0.55640000 _  _ 
O        3.52929524       9.32151535      10.25849049      15.99940000       0.00084200      -0.00061350       0.00087083      328        1      110      -1.11280000      -1.11280000 328(1),329(1) 328-329(1)
H       22.59496366       9.84361013       9.73451504       1.00800000       0.00014720      -0.00006771       0.00002186      329        2      110       0.55640000       0.55640000 _  _ 
H        3.59124814       9.81461691      11.13766689       1.00800000       0.00023146      -0.00000988       0.00000466      330        2      110       0.55640000       0.55640000 _  _ 
O       12.61739369       9.12874433      10.66424329      15.99940000       0.00033622       0.00048136      -0.00028841      331        1      111      -1.11280000      -1.11280000 331(1),332(1) 331-332(1)
H       11.76490865       9.35494207      10.96941622       1.00800000       0.00026380       0.00001564       0.00001266      332        2      111       0.55640000       0.55640000 _  _ 
H       12.41673114       8.80857476       9.75265808       1.00800000      -0.00036937      -0.00003233      -0.00005620      333        2      111       0.55640000       0.55640000 _  _ 
O       18.08955234      10.29771402       9.26202741      15.99940000       0.00050507       0.00025374      -0.00108069      334        1      112      -1.11280000      -1.11280000 334(1),335(1) 334-335(1)
H       17.62771339      10.35156516      10.14115085       1.00800000       0.00008289      -0.00011347       0.00005473      335        2      112       0.55640000       0.55640000 _  _ 
H       18.36150250       9.39115238       9.08300433       1.00800000       0.00004313      -0.00005508       0.00008728      336        2      112       0.55640000       0.55640000 _  _ 
O       19.97595174       3.84463155      12.61132128      15.99940000      -0.00021436      -0.00108905       0.00052921      337        1      113      -1.11280000      -1.11280000 337(1),338(1) 337-338(1)
H       20.72572688       3.94862157      12.06438483       1.00800000      -0.00024174      -0.00006462       0.00001579      338        2      113       0.55640000       0.55640000 _  _ 
H       19.64665128       4.80282166      12.64591495       1.00800000       0.00003191       0.00006240      -0.00007722      339        2      113       0.55640000       0.55640000 _  _ 
O       21.30358214      13.39250643       9.15867382      15.99940000      -0.00104921       0.00021201      -0.00027973      340        1      114      -1.11280000      -1.11280000 340(1),341(1) 340-341(1)
H       21.18108716      14.24284022       8.71491062       1.00800000       0.00027865      -0.00003222      -0.00033494      341        2      114       0.55640000       0.55640000 _  _ 
H       20.45433685      13.25667560       9.52798598       1.00800000      -0.00007531      -0.00002443       0.00009367      342        2      114       0.55640000       0.55640000 _  _ 
O       15.54497915      15.24233134      10.67462678      15.99940000      -0.00015778      -0.00069574       0.00013567      343        1      115      -1.11280000      -1.11280000 343(1),344(1) 343-344(1)
H       16.35873576      15.14046371      11.20300361       1.00800000       0.00024325       0.00006840       0.00015134      344        2      115       0.55640000       0.55640000 _  _ 
H       15.75482028      14.71178171       9.88937068       1.00800000       0.00002477       0.00015765      -0.00011846      345        2      115       0.55640000       0.55640000 _  _ 
O       19.04977630      12.83349296      10.16536132      15.99940000       0.00012406       0.00085115       0.00017064      346        1      116      -1.11280000      -1.11280000 346(1),347(1) 346-347(1)
H       18.65449321      12.14909341       9.64697766       1.00800000       0.00001792       0.00007798       0.00013137      347        2      116       0.55640000       0.55640000 _  _ 
H       18.30775845      13.33417547      10.56207517       1.00800000       0.00000674       0.00010339       0.00014073      348        2      116       0.55640000       0.55640000 _  _ 
O        6.44726028      15.92849623       6.57785046      15.99940000       0.00040802      -0.00067858      -0.00074222      349        1      117      -1.11280000      -1.11280000 349(1),350(1) 349-350(1)
H        6.07334829      15.02495703       6.48938925       1.00800000      -0.00003844       0.00007397      -0.00001544      350        2      117       0.55640000       0.55640000 _  _ 
H        7.24946975      15.76333361       7.10529055       1.00800000       0.00026734       0.00000051      -0.00014643      351        2      117       0.55640000       0.55640000 _  _ 
O        7.58615607      15.88731210      10.89173671      15.99940000       0.00006127      -0.00025325       0.00038004      352        1      118      -1.11280000      -1.11280000 352(1),353(1) 352-353(1)
H        7.50169172      14.99878264      11.37574542       1.00800000      -0.00002385       0.00006741      -0.00024314      353        2      118       0.55640000       0.55640000 _  _ 
H        6.78151904      16.05832858      10.36977822       1.00800000      -0.00020558       0.00023030       0.00024247      354        2      118       0.55640000       0.55640000 _  _ 
O       12.53182668      14.90284717       8.73725994      15.99940000      -0.00033294      -0.00009793      -0.00056084      355        1      119      -1.11280000      -1.11280000 355(1),356(1) 355-356(1)
H       11.95910057      14.30480935       8.21970578       1.00800000       0.00002361       0.00000532       0.00004579      356        2      119       0.55640000       0.55640000 _  _ 
H       13.15681514      14.40153288       9.28727172       1.00800000       0.00007311       0.00000852      -0.00016328      357        2      119       0.55640000       0.55640000 _  _ 
O       17.97335057      14.82926435      12.07946261      15.99940000       0.00057762       0.00071247      -0.00022402      358        1      120      -1.11280000      -1.11280000 358(1),359(1) 358-359(1)
H       17.64428057      15.35239687      12.82885040       1.00800000      -0.00012277       0.00002439      -0.00014050      359        2      120       0.55640000       0.55640000 _  _ 
H       18.77155992      15.31974109      11.83781960       1.00800000       0.00001572       0.00002764       0.00049138      360        2      120       0.55640000       0.55640000 _  _ 
O       12.99363548      15.64673823      12.95949329      15.99940000      -0.00058867       0.00066983      -0.00047328      361        1      121      -1.11280000      -1.11280000 361(1),362(1) 361-362(1)
H       12.25846743      15.92299583      12.38179651       1.00800000       0.00016480      -0.00012693       0.00012101      362        2      121       0.55640000       0.55640000 _  _ 
H       13.41717051      16.45696841      13.16963967       1.00800000       0.00004302      -0.00024948       0.00009716      363        2      121       0.55640000       0.55640000 _  _ 
O        3.93613276      17.65207387       6.74220807      15.99940000      -0.00065683       0.00055149      -0.00081725      364        1      122      -1.11280000      -1.11280000 364(1),365(1) 364-365(1)
H        4.21225393      18.53775783       7.05520678       1.00800000       0.00002982       0.00003900      -0.00026420      365        2      122       0.55640000       0.55640000 _  _ 
H        4.74316172      17.11204841       6.69837573       1.00800000       0.00001549       0.00009493      -0.00019175      366        2      122       0.55640000       0.55640000 _  _ 
O        3.87885016      20.46552241       7.27329898      15.99940000       0.00015979      -0.00096425      -0.00116054      367        1      123      -1.11280000      -1.11280000 367(1),368(1) 367-368(1)
H        3.97060815      20.27711434       8.23118861       1.00800000       0.00000578       0.00009005      -0.00010776      368        2      123       0.55640000       0.55640000 _  _ 
H        4.62135563      21.00032750       7.06082477       1.00800000      -0.00009735      -0.00019025       0.00023721      369        2      123       0.55640000       0.55640000 _  _ 
O       13.89586034      20.03784917      11.52176942      15.99940000       0.00088958      -0.00061351      -0.00010310      370        1      124      -1.11280000      -1.11280000 370(1),371(1) 370-371(1)
H       12.95588641      19.71636629      11.59426556       1.00800000      -0.00016600      -0.00000562      -0.00005978      371        2      124       0.55640000       0.55640000 _  _ 
H       14.18037713      19.44069816      10.80348245       1.00800000       0.00019448      -0.00001342       0.00012092      372        2      124       0.55640000       0.55640000 _  _ 
O       13.99836893      19.59852088      19.11730816      15.99940000      -0.00028431       0.00058601      -0.00032551      373        1      125      -1.11280000      -1.11280000 373(1),374(1) 373-374(1)
H       14.61669296      19.44461938      18.44012950       1.00800000       0.00025170      -0.00007429      -0.00004272      374        2      125       0.55640000       0.55640000 _  _ 
H       13.08917791      19.39412096      18.78958413       1.00800000      -0.00005631       0.00005356       0.00009698      375        2      125       0.55640000       0.55640000 _  _ 
O        3.89772296      17.20242747      11.41266919      15.99940000       0.00068167      -0.00023093      -0.00087844      376        1      126      -1.11280000      -1.11280000 376(1),377(1) 376-377(1)
H        3.60968503      18.16507222      11.45424312       1.00800000       0.00006845      -0.00003601       0.00017014      377        2      126       0.55640000       0.55640000 _  _ 
H        4.23600117      16.96304671      12.25162103       1.00800000       0.00002412       0.00007399      -0.00023467      378        2      126       0.55640000       0.55640000 _  _ 
O        6.59594423      19.76456695      10.30904480      15.99940000      -0.00018501      -0.00015478      -0.00074494      379        1      127      -1.11280000      -1.11280000 379(1),380(1) 379-380(1)
H        6.79282451      18.79339702      10.26502417       1.00800000      -0.00027169       0.00017245       0.00005258      380        2      127       0.55640000       0.55640000 _  _ 
H        7.49210321      20.16323537      10.30635223       1.00800000       0.00014831      -0.00000191      -0.00011516      381        2      127       0.55640000       0.55640000 _  _ 
O        7.44404886      20.27231726       6.68833815      15.99940000       0.00093920      -0.00072300       0.00002230      382        1      128      -1.11280000      -1.11280000 382(1),383(1) 382-383(1)
H        6.92312947      19.81784998       5.98452917       1.00800000       0.00026480      -0.00005780      -0.00010752      383        2      128       0.55640000       0.55640000 _  _ 
H        7.64943411      19.63476322       7.34509458       1.00800000      -0.00011350      -0.00007619       0.00015554      384        2      128       0.55640000       0.55640000 _  _ 
O       14.40091677      22.15547302      19.70041681      15.99940000       0.00088156      -0.00006969      -0.00076494      385        1      129      -1.11280000      -1.11280000 385(1),386(1) 385-386(1)
H       15.29241086      22.44222121      19.79316872       1.00800000      -0.00009296      -0.00026565       0.00004838      386        2      129       0.55640000       0.55640000 _  _ 
H       14.46035373      21.26292558      19.29854392       1.00800000      -0.00011244       0.00004349      -0.00008282      387        2      129       0.55640000       0.55640000 _  _ 
O       17.10832815      18.86431386      12.14514757      15.99940000      -0.00119784      -0.00052210      -0.00045877      388        1      130      -1.11280000      -1.11280000 388(1),389(1) 388-389(1)
H       17.63162118      18.09807543      12.43589178       1.00800000       0.00000621       0.00005236      -0.00001508      389        2      130       0.55640000       0.55640000 _  _ 
H       17.51269092      19.59547992      12.61624848       1.00800000      -0.00001472      -0.00002823       0.00010471      390        2      130       0.55640000       0.55640000 _  _ 
O       21.32152405      20.95378553      11.60251942      15.99940000      -0.00010008      -0.00107246       0.00022753      391        1      131      -1.11280000      -1.11280000 391(1),392(1) 391-392(1)
H       20.92470307      20.47725382      12.30213947       1.00800000      -0.00005503      -0.00003582      -0.00010559      392        2      131       0.55640000       0.55640000 _  _ 
H       21.74681573      21.66317097      12.09700250       1.00800000       0.00019144      -0.00009199      -0.00002611      393        2      131       0.55640000       0.55640000 _  _ 
O       11.18404059      19.43650370      11.88997888      15.99940000      -0.00017904      -0.00052452      -0.00018546      394        1      132      -1.11280000      -1.11280000 394(1),395(1) 394-395(1)
H       10.77046759      19.16227414      12.71100592       1.00800000      -0.00011646      -0.00011400       0.00000859      395        2      132       0.55640000       0.55640000 _  _ 
H       10.72005918      19.08629234      11.10846933       1.00800000       0.00022216      -0.00023488      -0.00000601      396        2      132       0.55640000       0.55640000 _  _ 
O       15.82254523       4.07520308      16.84104524      15.99940000      -0.00000293      -0.00106610      -0.00037937      397        1      133      -1.11280000      -1.11280000 397(1),398(1) 397-398(1)
H       15.12807416       3.39828957      16.79780489       1.00800000      -0.00010931       0.00007742      -0.00005157      398        2      133       0.55640000       0.55640000 _  _ 
H       16.37119554       3.90067552      17.64243606       1.00800000      -0.00001626       0.00020549       0.00008415      399        2      133       0.55640000       0.55640000 _  _ 
O        5.04399879      22.15531143      10.36061044      15.99940000      -0.00028604      -0.00056699      -0.00063563      400        1      134      -1.11280000      -1.11280000 400(1),401(1) 400-401(1)
H        4.94599758      21.26796968       9.95420270       1.00800000      -0.00000249      -0.00014882      -0.00019771      401        2      134       0.55640000       0.55640000 _  _ 
H        4.15097943      22.52578469      10.43896600       1.00800000      -0.00016279      -0.00001393       0.00006338      402        2      134       0.55640000       0.55640000 _  _ 
O       13.26808008       4.37734311      10.25861404      15.99940000      -0.00110577       0.00065415       0.00011793      403        1      135      -1.11280000      -1.11280000 403(1),404(1) 403-404(1)
H       12.99209696       4.93384862      11.00943697       1.00800000       0.00019351      -0.00013076      -0.00014511      404        2      135       0.55640000       0.55640000 _  _ 
H       12.75770985       4.63105514       9.46518846       1.00800000      -0.00011447      -0.00005323       0.00002407      405        2      135       0.55640000       0.55640000 _  _ 
O       13.34204992       6.26707496       8.09656678      15.99940000      -0.00027299       0.00049404      -0.00102464      406        1      136      -1.11280000      -1.11280000 406(1),407(1) 406-407(1)
H       13.87333344       6.50536170       8.87786100       1.00800000       0.00012221       0.00013641       0.00016937      407        2      136       0.55640000       0.55640000 _  _ 
H       12.63278796       6.90067612       8.09834186       1.00800000       0.00003424      -0.00011154      -0.00005792      408        2      136       0.55640000       0.55640000 _  _ 
O       18.19438300       6.01757015      13.26599095      15.99940000       0.00020332       0.00117489      -0.00036873      409        1      137      -1.11280000      -1.11280000 409(1),410(1) 409-410(1)
H       18.50217405       6.55955882      14.00146540       1.00800000      -0.00002864      -0.00002927      -0.00035030      410        2      137       0.55640000       0.55640000 _  _ 
H       17.25922643       5.64909027      13.46807153       1.00800000       0.00000824       0.00006541       0.00022732      411        2      137       0.55640000       0.55640000 _  _ 
O       22.13718747       3.85352332      10.49872123      15.99940000      -0.00016019      -0.00102274      -0.00014143      412        1      138      -1.11280000      -1.11280000 412(1),413(1) 412-413(1)
H       22.13185884       4.80014881      10.42486815       1.00800000       0.00016548       0.00034253      -0.00007814      413        2      138       0.55640000       0.55640000 _  _ 
H       21.62031459       3.43813101       9.79774873       1.00800000      -0.00004224      -0.00026805       0.00028491      414        2      138       0.55640000       0.55640000 _  _ 
O       11.29695414       6.91540936      13.83347210      15.99940000       0.00003299      -0.00010316      -0.00039348      415        1      139      -1.11280000      -1.11280000 415(1),416(1) 415-416(1)
H       11.97250664       6.80413685      13.11620740       1.00800000      -0.00019546      -0.00025287      -0.00010757      416        2      139       0.55640000       0.55640000 _  _ 
H       10.55904403       6.35865650      13.56261686       1.00800000      -0.00021176       0.00025890      -0.00007416      417        2      139       0.55640000       0.55640000 _  _ 
O       17.53878343       6.13408070      10.53741756      15.99940000      -0.00030488       0.00063851       0.00002713      418        1      140      -1.11280000      -1.11280000 418(1),419(1) 418-419(1)
H       17.16094757       5.27528909      10.38068366       1.00800000       0.00006435      -0.00015760      -0.00007938      419        2      140       0.55640000       0.55640000 _  _ 
H       17.88358325       6.13152810      11.43611331       1.00800000      -0.00017102       0.00004692      -0.00021936      420        2      140       0.55640000       0.55640000 _  _ 
O       18.59156105      12.34774325      13.72299317      15.99940000      -0.00010999       0.00003776      -0.00009029      421        1      141      -1.11280000      -1.11280000 421(1),422(1) 421-422(1)
H       18.41606826      12.91815784      13.00086735       1.00800000       0.00007428      -0.00002147       0.00013090      422        2      141       0.55640000       0.55640000 _  _ 
H       18.04649598      11.56947857      13.66056932       1.00800000      -0.00009121      -0.00029711      -0.00006609      423        2      141       0.55640000       0.55640000 _  _ 
O       17.24086410       9.65363609      13.46684710      15.99940000      -0.00091944      -0.00018483       0.00027208      424        1      142      -1.11280000      -1.11280000 424(1),425(1) 424-425(1)
H       16.48300448       9.27966905      14.02056632       1.00800000      -0.00012733       0.00024640       0.00009706      425        2      142       0.55640000       0.55640000 _  _ 
H       17.92437320       8.97023056      13.52253077       1.00800000       0.00007504       0.00015792      -0.00024074      426        2      142       0.55640000       0.55640000 _  _ 
O        7.25594380      10.69416336      12.18380407      15.99940000      -0.00121679      -0.00013731       0.00082872      427        1      143      -1.11280000      -1.11280000 427(1),428(1) 427-428(1)
H        6.85033689      10.37162586      11.40255660       1.00800000      -0.00009184      -0.00012532      -0.00023479      428        2      143       0.55640000       0.55640000 _  _ 
H        7.17330149      11.64041822      12.01485480       1.00800000       0.00001207      -0.00008350      -0.00016539      429        2      143       0.55640000       0.55640000 _  _ 
O       17.19776662      13.03611375      18.22885433      15.99940000       0.00007501       0.00150027      -0.00008010      430        1      144      -1.11280000      -1.11280000 430(1),431(1) 430-431(1)
H       16.71288264      12.89704950      19.05345216       1.00800000      -0.00018184      -0.00012964       0.00004586      431        2      144       0.55640000       0.55640000 _  _ 
H       16.70223837      13.70935494      17.71176926       1.00800000       0.00008524      -0.00002104      -0.00008257      432        2      144       0.55640000       0.55640000 _  _ 
O        3.77317895      11.13009181      12.41096965      15.99940000       0.00087145      -0.00057481      -0.00015475      433        1      145      -1.11280000      -1.11280000 433(1),434(1) 433-434(1)
H        3.95430861      11.98644544      12.00252252       1.00800000       0.00017159      -0.00039241      -0.00005292      434        2      145       0.55640000       0.55640000 _  _ 
H        4.36094954      11.14123016      13.22501919       1.00800000       0.00028289      -0.00011271      -0.00011723      435        2      145       0.55640000       0.55640000 _  _ 
O        6.19193094      12.32233559       9.94686921      15.99940000      -0.00017439       0.00033858      -0.00051528      436        1      146      -1.11280000      -1.11280000 436(1),437(1) 436-437(1)
H        5.65357696      12.24160719       9.15687596       1.00800000       0.00009558      -0.00029385      -0.00006584      437        2      146       0.55640000       0.55640000 _  _ 
H        5.67683639      12.77639046      10.64864448       1.00800000       0.00005876       0.00002190       0.00005086      438        2      146       0.55640000       0.55640000 _  _ 
O       14.26489783      10.42061529      12.60192078      15.99940000       0.00023273       0.00019008      -0.00031468      439        1      147      -1.11280000      -1.11280000 439(1),440(1) 439-440(1)
H       14.05581461       9.89966428      11.79538249       1.00800000      -0.00002980      -0.00020539      -0.00000838      440        2      147       0.55640000       0.55640000 _  _ 
H       14.27774046       9.79141105      13.30639269       1.00800000       0.00003088       0.00022333      -0.00017267      441        2      147       0.55640000       0.55640000 _  _ 
O       13.16932685      18.27410054      16.13457874      15.99940000      -0.00013527       0.00039614      -0.00137637      442        1      148      -1.11280000      -1.11280000 442(1),443(1) 442-443(1)
H       12.76319076      19.16481407      16.28920483       1.00800000       0.00018961       0.00023336      -0.00006447      443        2      148       0.55640000       0.55640000 _  _ 
H       13.58351467      18.39849011      15.29369997       1.00800000       0.00019686      -0.00010210       0.00011762      444        2      148       0.55640000       0.55640000 _  _ 
O       19.32157638      14.39552081      19.47743525      15.99940000       0.00007630       0.00004394       0.00068480      445        1      149      -1.11280000      -1.11280000 445(1),446(1) 445-446(1)
H       19.31591686      15.35061503      19.39243112       1.00800000       0.00000053      -0.00020840      -0.00006167      446        2      149       0.55640000       0.55640000 _  _ 
H       18.57580200      14.10044112      18.94088869       1.00800000      -0.00032362       0.00008998       0.00010037      447        2      149       0.55640000       0.55640000 _  _ 
O       21.71421079      14.84892146      12.57660777      15.99940000      -0.00043853       0.00043686       0.00022272      448        1      150      -1.11280000      -1.11280000 448(1),449(1) 448-449(1)
H       20.92715944      14.33256700      12.77907543       1.00800000      -0.00000970      -0.00001085       0.00012056      449        2      150       0.55640000       0.55640000 _  _ 
H       21.42741151      15.67017229      12.21705623       1.00800000       0.00011903      -0.00006432       0.00008723      450        2      150       0.55640000       0.55640000 _  _ 
O        9.93371297      13.30043251      12.21386225      15.99940000       0.00045903       0.00082804       0.00034673      451        1      151      -1.11280000      -1.11280000 451(1),452(1) 451-452(1)
H       10.64383273      13.06920428      12.79920833       1.00800000      -0.00017798       0.00002340      -0.00020264      452        2      151       0.55640000       0.55640000 _  _ 
H       10.15428409      14.20171630      11.95758308       1.00800000      -0.00003330      -0.00007048       0.00010540      453        2      151       0.55640000       0.55640000 _  _ 
O       13.25379099      13.40885091      10.85831522      15.99940000      -0.00023952       0.00092542       0.00115165      454        1      152      -1.11280000      -1.11280000 454(1),455(1) 454-455(1)
H       14.18629977      13.23042652      10.63127858       1.00800000       0.00002663       0.00001221      -0.00007385      455        2      152       0.55640000       0.55640000 _  _ 
H       13.29578813      13.92821375      11.66164599       1.00800000       0.00009751       0.00027199       0.00026174      456        2      152       0.55640000       0.55640000 _  _ 
O       21.53640209      12.76631383      20.25465903      15.99940000       0.00062764      -0.00139176       0.00081158      457        1      153      -1.11280000      -1.11280000 457(1),458(1) 457-458(1)
H       20.89948824      13.49088088      20.02983461       1.00800000      -0.00004913       0.00003739      -0.00014128      458        2      153       0.55640000       0.55640000 _  _ 
H       21.10245550      12.21027768      20.92564364       1.00800000      -0.00015624      -0.00002272       0.00001354      459        2      153       0.55640000       0.55640000 _  _ 
O        7.36959800      13.49069955      12.46770628      15.99940000      -0.00053602      -0.00019811       0.00006355      460        1      154      -1.11280000      -1.11280000 460(1),461(1) 460-461(1)
H        7.07270458      13.66441131      13.37172523       1.00800000      -0.00017461       0.00012966      -0.00012430      461        2      154       0.55640000       0.55640000 _  _ 
H        8.37459763      13.27684864      12.59549394       1.00800000       0.00026582      -0.00003525       0.00017573      462        2      154       0.55640000       0.55640000 _  _ 
O        7.65140361      17.86428983      12.85070214      15.99940000      -0.00008493      -0.00040824      -0.00072444      463        1      155      -1.11280000      -1.11280000 463(1),464(1) 463-464(1)
H        7.60210670      17.17802303      12.18363796       1.00800000       0.00019138      -0.00006378      -0.00015796      464        2      155       0.55640000       0.55640000 _  _ 
H        8.50034979      18.02894157      13.32237428       1.00800000      -0.00004445      -0.00016427       0.00014865      465        2      155       0.55640000       0.55640000 _  _ 
O        9.81651806      18.55176874      14.35798941      15.99940000       0.00091383       0.00066461       0.00113042      466        1      156      -1.11280000      -1.11280000 466(1),467(1) 466-467(1)
H       10.14535501      19.42600059      14.68290531       1.00800000      -0.00013953       0.00000114      -0.00023256      467        2      156       0.55640000       0.55640000 _  _ 
H       10.07748349      17.93168790      15.03777055       1.00800000      -0.00008486       0.00004715       0.00013101      468        2      156       0.55640000       0.55640000 _  _ 
O       20.40768087      18.21035541      16.65556847      15.99940000      -0.00061690      -0.00005147       0.00027459      469        1      157      -1.11280000      -1.11280000 469(1),470(1) 469-470(1)
H       20.99740802      17.60798613      16.20352161       1.00800000      -0.00010888       0.00006723      -0.00006317      470        2      157       0.55640000       0.55640000 _  _ 
H       20.87245680      19.04986977      16.78715826       1.00800000       0.00022402      -0.00010802      -0.00023038      471        2      157       0.55640000       0.55640000 _  _ 
O        3.95117544      16.16532453      14.14445241      15.99940000      -0.00075881       0.00114114      -0.00055772      472        1      158      -1.11280000      -1.11280000 472(1),473(1) 472-473(1)
H        3.46130972      15.40886333      13.84158169       1.00800000      -0.00001613       0.00008540       0.00004685      473        2      158       0.55640000       0.55640000 _  _ 
H        4.08666353      15.98027936      15.08713485       1.00800000       0.00012322       0.00023900      -0.00013070      474        2      158       0.55640000       0.55640000 _  _ 
O        9.99676871      19.83501234       9.24048326      15.99940000      -0.00073059      -0.00155603      -0.00021260      475        1      159      -1.11280000      -1.11280000 475(1),476(1) 475-476(1)
H        9.44139131      20.58741354       9.40335782       1.00800000       0.00049170      -0.00012744       0.00025987      476        2      159       0.55640000       0.55640000 _  _ 
H        9.68477776      19.47928743       8.41453750       1.00800000      -0.00017060      -0.00015182       0.00009064      477        2      159       0.55640000       0.55640000 _  _ 
O       11.11780424      20.92571483      15.00537186      15.99940000       0.00041616       0.00153435       0.00012859      478        1      160      -1.11280000      -1.11280000 478(1),479(1) 478-479(1)
H       10.55463199      21.51275675      15.50672588       1.00800000       0.00024241       0.00011615       0.00008275      479        2      160       0.55640000       0.55640000 _  _ 
H       11.48608781      21.52731316      14.34592152       1.00800000       0.00006680      -0.00029108      -0.00023725      480        2      160       0.55640000       0.55640000 _  _ 
O       16.02201596      19.39383986      17.33585258      15.99940000       0.00094434       0.00009029       0.00107534      481        1      161      -1.11280000      -1.11280000 481(1),482(1) 481-482(1)
H       15.77759071      20.06271246      16.71666140       1.00800000       0.00006465       0.00011204       0.00004881      482        2      161       0.55640000       0.55640000 _  _ 
H       16.17266114      18.58835597      16.88749785       1.00800000      -0.00012487      -0.00011607      -0.00010232      483        2      161       0.55640000       0.55640000 _  _ 
O        6.28528415      20.86598925      18.06162807      15.99940000       0.00019522      -0.00040926       0.00058078      484        1      162      -1.11280000      -1.11280000 484(1),485(1) 484-485(1)
H        5.69143339      21.58548438      17.93029225       1.00800000      -0.00012115      -0.00014189      -0.00005584      485        2      162       0.55640000       0.55640000 _  _ 
H        5.68904130      20.13145376      17.73700120       1.00800000       0.00011693      -0.00004986      -0.00005234      486        2      162       0.55640000       0.55640000 _  _ 
O        7.12319915      21.23219007      15.35650330      15.99940000      -0.00081481       0.00087602       0.00020437      487        1      163      -1.11280000      -1.11280000 487(1),488(1) 487-488(1)
H        6.62168047      21.02454904      16.21287316       1.00800000      -0.00015887      -0.00025744       0.00003829      488        2      163       0.55640000       0.55640000 _  _ 
H        6.68126127      20.76343251      14.60602958       1.00800000       0.00010675       0.00001957       0.00006410      489        2      163       0.55640000       0.55640000 _  _ 
O       13.34254732      22.48381619      16.20377167      15.99940000      -0.00049643      -0.00010300      -0.00003951      490        1      164      -1.11280000      -1.11280000 490(1),491(1) 490-491(1)
H       12.81129584      21.69908596      16.31695832       1.00800000       0.00009870       0.00010447       0.00000787      491        2      164       0.55640000       0.55640000 _  _ 
H       13.15011976      23.02277015      16.94928832       1.00800000      -0.00002253      -0.00008122      -0.00007754      492        2      164       0.55640000       0.55640000 _  _ 
O       17.72337900      18.38552937      15.13251555      15.99940000       0.00004098       0.00043169      -0.00018041      493        1      165      -1.11280000      -1.11280000 493(1),494(1) 493-494(1)
H       18.60130691      18.42460094      15.54306845       1.00800000       0.00009294      -0.00015825       0.00002288      494        2      165       0.55640000       0.55640000 _  _ 
H       17.39471662      19.29399183      15.10361877       1.00800000      -0.00002106       0.00017089       0.00025787      495        2      165       0.55640000       0.55640000 _  _ 
O        3.74486105       3.05798486      13.80401026      15.99940000       0.00052700      -0.00035095       0.00089152      496        1      166      -1.11280000      -1.11280000 496(1),497(1) 496-497(1)
H        3.38664375       3.94282635      13.64736464       1.00800000      -0.00014392       0.00022504      -0.00002296      497        2      166       0.55640000       0.55640000 _  _ 
H        4.59625582      22.63023528      13.30818160       1.00800000       0.00022100      -0.00014535       0.00007261      498        2      166       0.55640000       0.55640000 _  _ 
O        9.23841506      22.55822003      12.44042899      15.99940000      -0.00076105       0.00083458       0.00075638      499        1      167      -1.11280000      -1.11280000 499(1),500(1) 499-500(1)
H       10.05869452      22.14753002      12.25059384       1.00800000       0.00014887       0.00009217       0.00017591      500        2      167       0.55640000       0.55640000 _  _ 
H        8.76059138      22.52023232      11.59669792       1.00800000       0.00022123       0.00017281      -0.00022744      501        2      167       0.55640000       0.55640000 _  _ 
O       13.75083971       6.03254645      15.16637896      15.99940000       0.00077165      -0.00001295       0.00071067      502        1      168      -1.11280000      -1.11280000 502(1),503(1) 502-503(1)
H       13.75471261       6.06207497      16.14709904       1.00800000       0.00004477       0.00012839       0.00001316      503        2      168       0.55640000       0.55640000 _  _ 
H       12.79511976       6.11118043      14.97516066       1.00800000       0.00007203       0.00004473      -0.00011992      504        2      168       0.55640000       0.55640000 _  _ 
O       16.77945733      21.23582787      14.99799441      15.99940000      -0.00032906      -0.00080186       0.00027311      505        1      169      -1.11280000      -1.11280000 505(1),506(1) 505-506(1)
H       16.31630150      21.42007938      14.14024930       1.00800000       0.00009569      -0.00007192      -0.00039185      506        2      169       0.55640000       0.55640000 _  _ 
H       17.55754421      21.86829175      15.06867904       1.00800000       0.00015122      -0.00019812      -0.00020897      507        2      169       0.55640000       0.55640000 _  _ 
O        6.72869079       6.93750168      12.32781676      15.99940000       0.00034233      -0.00077804      -0.00055414      508        1      170      -1.11280000      -1.11280000 508(1),509(1) 508-509(1)
H        6.37789181       6.17220122      11.83144110       1.00800000      -0.00010227      -0.00008785      -0.00005666      509        2      170       0.55640000       0.55640000 _  _ 
H        6.15647824       7.08613901      13.10929432       1.00800000       0.00027143      -0.00048291      -0.00010298      510        2      170       0.55640000       0.55640000 _  _ 
O        9.82298054       9.79805879      11.48276971      15.99940000      -0.00067003      -0.00041118       0.00149763      511        1      171      -1.11280000      -1.11280000 511(1),512(1) 511-512(1)
H       10.24418632       9.64515089      12.36753075       1.00800000      -0.00000458       0.00018234       0.00016309      512        2      171       0.55640000       0.55640000 _  _ 
H        9.00755882      10.22190130      11.69409741       1.00800000      -0.00009546      -0.00021514       0.00021399      513        2      171       0.55640000       0.55640000 _  _ 
O       11.58580374      10.43504540      16.42282666      15.99940000       0.00052973      -0.00004006      -0.00031340      514        1      172      -1.11280000      -1.11280000 514(1),515(1) 514-515(1)
H       12.50665827      10.68809429      16.70891368       1.00800000       0.00023989      -0.00037936      -0.00003353      515        2      172       0.55640000       0.55640000 _  _ 
H       11.48676063      10.29995685      15.48079444       1.00800000       0.00011019      -0.00000715       0.00021196      516        2      172       0.55640000       0.55640000 _  _ 
O       19.30296098      11.01467320      17.31726363      15.99940000       0.00015691       0.00077380       0.00065482      517        1      173      -1.11280000      -1.11280000 517(1),518(1) 517-518(1)
H       19.96098611      11.15129051      17.95382146       1.00800000      -0.00003485      -0.00018502      -0.00000665      518        2      173       0.55640000       0.55640000 _  _ 
H       18.53260524      10.88215679      17.85300453       1.00800000      -0.00023171       0.00000776      -0.00017443      519        2      173       0.55640000       0.55640000 _  _ 
O       20.39660551       8.77439849      12.94608474      15.99940000       0.00118376       0.00039627       0.00062733      520        1      174      -1.11280000      -1.11280000 520(1),521(1) 520-521(1)
H       20.14692680       9.72635208      12.68883980       1.00800000      -0.00009337      -0.00007580       0.00013008      521        2      174       0.55640000       0.55640000 _  _ 
H       20.80551287       8.88109773      13.81784903       1.00800000      -0.00022537       0.00003887      -0.00003413      522        2      174       0.55640000       0.55640000 _  _ 
O       10.68946723       9.53298881      14.01226430      15.99940000       0.00110834       0.00104935      -0.00041739      523        1      175      -1.11280000      -1.11280000 523(1),524(1) 523-524(1)
H       10.93206388       8.57487747      13.87089677       1.00800000      -0.00016290       0.00022297      -0.00021779      524        2      175       0.55640000       0.55640000 _  _ 
H        9.74419246       9.59228177      14.27570515       1.00800000      -0.00012356       0.00008507       0.00012523      525        2      175       0.55640000       0.55640000 _  _ 
O       19.11311174      13.89009779      16.01205509      15.99940000       0.00048089       0.00017330       0.00117785      526        1      176      -1.11280000      -1.11280000 526(1),527(1) 526-527(1)
H       19.01370346      13.21114974      15.33740804       1.00800000       0.00002199      -0.00011388      -0.00013158      527        2      176       0.55640000       0.55640000 _  _ 
H       18.67416914      13.51896442      16.78427404       1.00800000       0.00021845      -0.00008230       0.00006823      528        2      176       0.55640000       0.55640000 _  _ 
O       18.81906625       7.57870103      18.70432308      15.99940000      -0.00053956       0.00115481       0.00053483      529        1      177      -1.11280000      -1.11280000 529(1),530(1) 529-530(1)
H       18.50248561       6.86485709      19.27199844       1.00800000       0.00022748      -0.00000690       0.00025936      530        2      177       0.55640000       0.55640000 _  _ 
H       18.31518341       8.40006311      18.82834548       1.00800000      -0.00002086       0.00010438      -0.00036374      531        2      177       0.55640000       0.55640000 _  _ 
O       16.85022557      10.01776495      16.56866730      15.99940000       0.00028621       0.00077369      -0.00002619      532        1      178      -1.11280000      -1.11280000 532(1),533(1) 532-533(1)
H       17.65572238       9.69289247      16.23443833       1.00800000       0.00017651       0.00030781      -0.00003294      533        2      178       0.55640000       0.55640000 _  _ 
H       16.65620899      10.62779972      15.86698375       1.00800000       0.00040020       0.00012168      -0.00019091      534        2      178       0.55640000       0.55640000 _  _ 
O       12.04532865      12.62582118      13.80847091      15.99940000      -0.00008327       0.00043188      -0.00000896      535        1      179      -1.11280000      -1.11280000 535(1),536(1) 535-536(1)
H       12.84527737      12.08358579      13.73486450       1.00800000       0.00027639       0.00012602       0.00001659      536        2      179       0.55640000       0.55640000 _  _ 
H       11.45531960      12.32992728      14.54924092       1.00800000      -0.00006160      -0.00015883      -0.00002967      537        2      179       0.55640000       0.55640000 _  _ 
O       14.73179167      14.52885673      15.12477122      15.99940000      -0.00084542       0.00028596      -0.00036099      538        1      180      -1.11280000      -1.11280000 538(1),539(1) 538-539(1)
H       15.13697824      13.63222116      15.25864876       1.00800000      -0.00012925       0.00011372      -0.00004038      539        2      180       0.55640000       0.55640000 _  _ 
H       13.91724725      14.33567913      14.70211319       1.00800000      -0.00006534      -0.00014004      -0.00006889      540        2      180       0.55640000       0.55640000 _  _ 
O       17.91725868       5.63495775      20.58787045      15.99940000       0.00002276      -0.00105471      -0.00011909      541        1      181      -1.11280000      -1.11280000 541(1),542(1) 541-542(1)
H       18.60592483       5.58506900      21.27191744       1.00800000      -0.00019163      -0.00004204      -0.00001997      542        2      181       0.55640000       0.55640000 _  _ 
H       17.19968048       6.06246558      21.02413713       1.00800000      -0.00006998       0.00009770       0.00013740      543        2      181       0.55640000       0.55640000 _  _ 
O        3.69972094      13.46366540      10.93948879      15.99940000      -0.00043013       0.00044703       0.00056487      544        1      182      -1.11280000      -1.11280000 544(1),545(1) 544-545(1)
H        3.17160445      14.10832590      11.48661286       1.00800000       0.00011324      -0.00002928      -0.00001766      545        2      182       0.55640000       0.55640000 _  _ 
H        3.15562956      13.33183578      10.11385638       1.00800000      -0.00010877       0.00009287      -0.00025371      546        2      182       0.55640000       0.55640000 _  _ 
O        6.31885226      13.93598222      15.03594376      15.99940000       0.00042436      -0.00005939       0.00063092      547        1      183      -1.11280000      -1.11280000 547(1),548(1) 547-548(1)
H        6.61394030      14.85477536      15.09157862       1.00800000       0.00001550      -0.00003474       0.00021046      548        2      183       0.55640000       0.55640000 _  _ 
H        5.33842145      13.89999179      15.05143251       1.00800000      -0.00010583      -0.00031605       0.00028300      549        2      183       0.55640000       0.55640000 _  _ 
O       16.48756164      16.49262553      13.85447436      15.99940000      -0.00055334      -0.00001336       0.00073626      550        1      184      -1.11280000      -1.11280000 550(1),551(1) 550-551(1)
H       17.07080308      17.00385640      14.45334897       1.00800000      -0.00012971       0.00001766       0.00004271      551        2      184       0.55640000       0.55640000 _  _ 
H       16.13106166      15.77441663      14.37595103       1.00800000      -0.00017513       0.00016285      -0.00023691      552        2      184       0.55640000       0.55640000 _  _ 
O       18.60559960      16.85942805      18.10005000      15.99940000       0.00027001      -0.00010454      -0.00063102      553        1      185      -1.11280000      -1.11280000 553(1),554(1) 553-554(1)
H       19.15359346      17.50094322      17.57389427       1.00800000       0.00004275      -0.00000608       0.00003898      554        2      185       0.55640000       0.55640000 _  _ 
H       18.08327526      16.46956096      17.36757176       1.00800000      -0.00004934      -0.00025026       0.00004981      555        2      185       0.55640000       0.55640000 _  _ 
O       21.19162977      15.69760113      16.44865208      15.99940000       0.00068552       0.00115852       0.00079947      556        1      186      -1.11280000      -1.11280000 556(1),557(1) 556-557(1)
H       21.87805566      15.17778413      16.02398627       1.00800000       0.00007973      -0.00006022      -0.00024272      557        2      186       0.55640000       0.55640000 _  _ 
H       20.45590001      15.12643674      16.26724088       1.00800000      -0.00014103       0.00017447       0.00000370      558        2      186       0.55640000       0.55640000 _  _ 
O        5.74295977      20.09646907      13.05604683      15.99940000       0.00013564      -0.00061655       0.00085705      559        1      187      -1.11280000      -1.11280000 559(1),560(1) 559-560(1)
H        6.39303850      19.38157869      12.79976300       1.00800000       0.00007476       0.00007239       0.00020881      560        2      187       0.55640000       0.55640000 _  _ 
H        5.61858174      20.50766014      12.18091893       1.00800000      -0.00028308      -0.00022316       0.00027130      561        2      187       0.55640000       0.55640000 _  _ 
O        7.56269544      16.41878046      15.34618648      15.99940000      -0.00077071       0.00036431       0.00073677      562        1      188      -1.11280000      -1.11280000 562(1),563(1) 562-563(1)
H        8.29725121      16.82435684      15.74875556       1.00800000      -0.00008342       0.00005745      -0.00009507      563        2      188       0.55640000       0.55640000 _  _ 
H        7.37565090      16.87195224      14.51747696       1.00800000       0.00008156      -0.00022902       0.00024844      564        2      188       0.55640000       0.55640000 _  _ 
O       20.65655008      19.12924331      13.48474933      15.99940000      -0.00041967       0.00049599      -0.00021873      565        1      189      -1.11280000      -1.11280000 565(1),566(1) 565-566(1)
H       21.50697116      19.28234537      13.90013708       1.00800000      -0.00003736       0.00010942       0.00009075      566        2      189       0.55640000       0.55640000 _  _ 
H       20.02601366      19.33913424      14.11228884       1.00800000       0.00039381      -0.00009525       0.00021935      567        2      189       0.55640000       0.55640000 _  _ 
O        3.68032361      18.89685737      14.14683993      15.99940000       0.00003756      -0.00088895      -0.00044228      568        1      190      -1.11280000      -1.11280000 568(1),569(1) 568-569(1)
H        4.38724270      19.33324215      13.65208799       1.00800000       0.00012358       0.00010899       0.00037152      569        2      190       0.55640000       0.55640000 _  _ 
H        3.80994908      17.94522866      14.06184633       1.00800000       0.00031980      -0.00015189       0.00006598      570        2      190       0.55640000       0.55640000 _  _ 
O       12.09363617       3.45123979      13.30680945      15.99940000      -0.00033068      -0.00047388       0.00102469      571        1      191      -1.11280000      -1.11280000 571(1),572(1) 571-572(1)
H       12.87963909       3.57567953      13.88797537       1.00800000       0.00021178       0.00002544      -0.00016613      572        2      191       0.55640000       0.55640000 _  _ 
H       12.49603256       3.45475972      12.43727173       1.00800000      -0.00006888      -0.00002176      -0.00012659      573        2      191       0.55640000       0.55640000 _  _ 
O       10.01767393      17.33617966      17.00607061      15.99940000       0.00000847       0.00109836      -0.00021090      574        1      192      -1.11280000      -1.11280000 574(1),575(1) 574-575(1)
H        9.47887222      16.81683917      17.60436579       1.00800000       0.00016770      -0.00010282      -0.00005032      575        2      192       0.55640000       0.55640000 _  _ 
H       10.69591125      16.71235284      16.73626995       1.00800000      -0.00010160      -0.00012084      -0.00013199      576        2      192       0.55640000       0.55640000 _  _ 
O        3.70948958      22.38764462      16.74864466      15.99940000      -0.00060430      -0.00092327      -0.00024836      577        1      193      -1.11280000      -1.11280000 577(1),578(1) 577-578(1)
H        3.93120874      22.55881862      15.82695893       1.00800000       0.00013299      -0.00007117      -0.00005963      578        2      193       0.55640000       0.55640000 _  _ 
H        3.37978731       3.55619437      17.04874880       1.00800000       0.00010602      -0.00013714      -0.00008837      579        2      193       0.55640000       0.55640000 _  _ 
O        4.40622991      21.81259921      21.86165560      15.99940000      -0.00147683      -0.00042062      -0.00030753      580        1      194      -1.11280000      -1.11280000 580(1),581(1) 580-581(1)
H        4.89163133      20.97349545      21.85264359       1.00800000       0.00005262       0.00019201       0.00026993      581        2      194       0.55640000       0.55640000 _  _ 
H        4.92080423      22.43328485      22.39628312       1.00800000       0.00016131      -0.00005397      -0.00019780      582        2      194       0.55640000       0.55640000 _  _ 
O        8.15981847      20.86732516      20.52456308      15.99940000       0.00109296      -0.00036258      -0.00039019      583        1      195      -1.11280000      -1.11280000 583(1),584(1) 583-584(1)
H        8.23443626      19.99076778      20.92261547       1.00800000      -0.00022556       0.00009139      -0.00007420      584        2      195       0.55640000       0.55640000 _  _ 
H        7.66425042      20.70299203      19.69188015       1.00800000       0.00011946      -0.00002539      -0.00013895      585        2      195       0.55640000       0.55640000 _  _ 
O       12.33285473       4.09649870      18.79818242      15.99940000       0.00068276       0.00004351       0.00011020      586        1      196      -1.11280000      -1.11280000 586(1),587(1) 586-587(1)
H       11.50087958       3.61333435      18.82924574       1.00800000      -0.00004848      -0.00009345       0.00018555      587        2      196       0.55640000       0.55640000 _  _ 
H       13.01223071       3.48224744      19.04291595       1.00800000      -0.00013284      -0.00007843       0.00001049      588        2      196       0.55640000       0.55640000 _  _ 
O       18.25133144       6.48309967      16.27235437      15.99940000      -0.00059213       0.00022706       0.00036842      589        1      197      -1.11280000      -1.11280000 589(1),590(1) 589-590(1)
H       18.21852040       6.72782135      17.19345704       1.00800000      -0.00001701       0.00019731      -0.00013031      590        2      197       0.55640000       0.55640000 _  _ 
H       18.04038763       5.51101688      16.19276001       1.00800000      -0.00006612      -0.00024828       0.00002101      591        2      197       0.55640000       0.55640000 _  _ 
O        5.31956689       6.08270182      16.77033089      15.99940000       0.00034159      -0.00033327      -0.00014748      592        1      198      -1.11280000      -1.11280000 592(1),593(1) 592-593(1)
H        5.16487185       6.59429671      15.94143509       1.00800000      -0.00009347      -0.00011429       0.00013040      593        2      198       0.55640000       0.55640000 _  _ 
H        4.45914710       5.79572595      17.05318754       1.00800000      -0.00033363       0.00005410      -0.00001989      594        2      198       0.55640000       0.55640000 _  _ 
O        9.10085264       5.55365031      13.39929103      15.99940000       0.00033108       0.00082512       0.00008234      595        1      199      -1.11280000      -1.11280000 595(1),596(1) 595-596(1)
H        8.53122031       6.08439891      12.85711131       1.00800000      -0.00031060       0.00010591       0.00011429      596        2      199       0.55640000       0.55640000 _  _ 
H        9.08093290       4.64590852      13.16337707       1.00800000      -0.00006803       0.00027725       0.00009130      597        2      199       0.55640000       0.55640000 _  _ 
O       12.41047763       6.86985612      17.64821722      15.99940000       0.00062085       0.00034133       0.00056284      598        1      200      -1.11280000      -1.11280000 598(1),599(1) 598-599(1)
H       12.23503157       6.04018710      18.14894939       1.00800000       0.00005133      -0.00004318      -0.00023303      599        2      200       0.55640000       0.55640000 _  _ 
H       11.51744411       7.03044759      17.26376549       1.00800000      -0.00020265      -0.00012094      -0.00013526      600        2      200       0.55640000       0.55640000 _  _ 
O        4.36323765       8.94357768      20.36276171      15.99940000      -0.00057042      -0.00027082       0.00124571      601        1      201      -1.11280000      -1.11280000 601(1),602(1) 601-602(1)
H        4.18391209       8.01346299      20.36719778       1.00800000       0.00021110      -0.00003868       0.00023877      602        2      201       0.55640000       0.55640000 _  _ 
H        3.51098594       9.28444326      19.97501899       1.00800000       0.00013529       0.00002082      -0.00007419      603        2      201       0.55640000       0.55640000 _  _ 
O       21.08987181       9.95560386      15.67056053      15.99940000       0.00024938       0.00015876      -0.00002246      604        1      202      -1.11280000      -1.11280000 604(1),605(1) 604-605(1)
H       21.49836897      10.72401889      15.27081045       1.00800000       0.00002327       0.00027199       0.00014240      605        2      202       0.55640000       0.55640000 _  _ 
H       20.43802921      10.33570793      16.22214951       1.00800000      -0.00014595      -0.00012545      -0.00012322      606        2      202       0.55640000       0.55640000 _  _ 
O        9.33412549       6.87775219      18.10493430      15.99940000       0.00030629      -0.00166285      -0.00040077      607        1      203      -1.11280000      -1.11280000 607(1),608(1) 607-608(1)
H        8.97130889       6.27588098      17.44152232       1.00800000      -0.00007207      -0.00036068      -0.00001327      608        2      203       0.55640000       0.55640000 _  _ 
H        9.10720346       6.53787938      18.96062391       1.00800000       0.00005352       0.00000648      -0.00023724      609        2      203       0.55640000       0.55640000 _  _ 
O       14.13471414      11.52137180      17.38764784      15.99940000       0.00114572      -0.00027227      -0.00003745      610        1      204      -1.11280000      -1.11280000 610(1),611(1) 610-611(1)
H       14.65153345      11.00371607      17.99084028       1.00800000       0.00008034      -0.00027502      -0.00017586      611        2      204       0.55640000       0.55640000 _  _ 
H       14.00583646      12.42460134      17.77154102       1.00800000       0.00003820      -0.00006910      -0.00004785      612        2      204       0.55640000       0.55640000 _  _ 
O       22.55231227       6.07653204      13.64874870      15.99940000       0.00071804      -0.00077370      -0.00067425      613        1      205      -1.11280000      -1.11280000 613(1),614(1) 613-614(1)
H       22.42390660       6.45000846      12.79064146       1.00800000       0.00031940       0.00027421       0.00020882      614        2      205       0.55640000       0.55640000 _  _ 
H       21.87613425       6.44817850      14.21324579       1.00800000      -0.00006360       0.00010635      -0.00020023      615        2      205       0.55640000       0.55640000 _  _ 
O        5.03935043      10.20920385      14.99663529      15.99940000       0.00080670      -0.00005053       0.00091105      616        1      206      -1.11280000      -1.11280000 616(1),617(1) 616-617(1)
H        4.57717616      10.35299227      15.85024752       1.00800000      -0.00010558      -0.00018673       0.00016052      617        2      206       0.55640000       0.55640000 _  _ 
H        5.94662566      10.55369550      15.09082425       1.00800000      -0.00002511      -0.00009427       0.00005612      618        2      206       0.55640000       0.55640000 _  _ 
O        5.34903335      10.24211202      17.96895391      15.99940000       0.00022076       0.00007019       0.00055564      619        1      207      -1.11280000      -1.11280000 619(1),620(1) 619-620(1)
H        4.89394992       9.44708834      18.28841044       1.00800000      -0.00006165      -0.00035021       0.00014168      620        2      207       0.55640000       0.55640000 _  _ 
H        6.23905150      10.20966972      18.35006655       1.00800000       0.00009661      -0.00004024       0.00013241      621        2      207       0.55640000       0.55640000 _  _ 
O       14.75044996       8.67626416      14.49213887      15.99940000      -0.00021782       0.00068102       0.00084016      622        1      208      -1.11280000      -1.11280000 622(1),623(1) 622-623(1)
H       14.61092087       7.67738462      14.50989045       1.00800000      -0.00000037       0.00010680      -0.00012747      623        2      208       0.55640000       0.55640000 _  _ 
H       14.84702708       8.68822742      15.42702386       1.00800000      -0.00006621      -0.00005443      -0.00006897      624        2      208       0.55640000       0.55640000 _  _ 
O        5.48670381      11.21602047      21.43674864      15.99940000       0.00076044      -0.00088221       0.00096693      625        1      209      -1.11280000      -1.11280000 625(1),626(1) 625-626(1)
H        5.14765144      10.56769361      20.79948270       1.00800000      -0.00006027      -0.00012893      -0.00024018      626        2      209       0.55640000       0.55640000 _  _ 
H        4.99241968      11.19500651      22.22813189       1.00800000      -0.00018071       0.00002211       0.00014277      627        2      209       0.55640000       0.55640000 _  _ 
O        7.83519414      10.34121711      14.70365937      15.99940000       0.00038023      -0.00021635      -0.00008525      628        1      210      -1.11280000      -1.11280000 628(1),629(1) 628-629(1)
H        8.17272892      11.22229118      14.90687688       1.00800000      -0.00014003       0.00027763       0.00014577      629        2      210       0.55640000       0.55640000 _  _ 
H        7.67505136      10.32423724      13.77687294       1.00800000       0.00006639      -0.00014108       0.00000427      630        2      210       0.55640000       0.55640000 _  _ 
O       15.56828183      11.76505961      14.96787267      15.99940000       0.00075183       0.00106341      -0.00051462      631        1      211      -1.11280000      -1.11280000 631(1),632(1) 631-632(1)
H       15.28803570      11.87055512      14.04804675       1.00800000       0.00003967      -0.00025398      -0.00021314      632        2      211       0.55640000       0.55640000 _  _ 
H       14.83505456      11.43006423      15.60443461       1.00800000      -0.00006071       0.00008446       0.00027342      633        2      211       0.55640000       0.55640000 _  _ 
O       13.44181019      14.12881622      18.35851260      15.99940000      -0.00016490      -0.00118003      -0.00027261      634        1      212      -1.11280000      -1.11280000 634(1),635(1) 634-635(1)
H       13.68746733      13.97694031      19.25868858       1.00800000      -0.00000981      -0.00009524       0.00026800      635        2      212       0.55640000       0.55640000 _  _ 
H       13.09983919      15.00972142      18.26906851       1.00800000      -0.00006769       0.00004804       0.00044543      636        2      212       0.55640000       0.55640000 _  _ 
O       17.71451458      14.01447119      21.73382910      15.99940000      -0.00079868       0.00050917       0.00059775      637        1      213      -1.11280000      -1.11280000 637(1),638(1) 637-638(1)
H       17.90427752      14.25872115      22.67152812       1.00800000      -0.00005554       0.00010611       0.00009625      638        2      213       0.55640000       0.55640000 _  _ 
H       18.47291288      14.38957982      21.24468359       1.00800000       0.00020186      -0.00001145      -0.00009035      639        2      213       0.55640000       0.55640000 _  _ 
O       18.85717243       3.27910218      15.30587662      15.99940000       0.00047373      -0.00006879      -0.00027381      640        1      214      -1.11280000      -1.11280000 640(1),641(1) 640-641(1)
H       19.34507713       3.54819463      14.51889686       1.00800000       0.00000376       0.00019375      -0.00009649      641        2      214       0.55640000       0.55640000 _  _ 
H       19.49949845      22.40106847      15.73607746       1.00800000      -0.00013232      -0.00007419      -0.00017596      642        2      214       0.55640000       0.55640000 _  _ 
O       11.41182517      15.55036001      15.18259331      15.99940000      -0.00055764       0.00060513      -0.00036425      643        1      215      -1.11280000      -1.11280000 643(1),644(1) 643-644(1)
H       12.18810996      15.61775223      14.53272564       1.00800000      -0.00020976      -0.00021285       0.00000574      644        2      215       0.55640000       0.55640000 _  _ 
H       10.72191979      15.03585367      14.86584290       1.00800000       0.00026116      -0.00009585       0.00008483      645        2      215       0.55640000       0.55640000 _  _ 
O        8.51196050      15.88168659      18.59692031      15.99940000       0.00040657       0.00008378       0.00038480      646        1      216      -1.11280000      -1.11280000 646(1),647(1) 646-647(1)
H        7.68270401      16.24230794      18.98115198       1.00800000      -0.00024394      -0.00014124      -0.00015705      647        2      216       0.55640000       0.55640000 _  _ 
H        8.42292028      14.97663598      18.42731144       1.00800000      -0.00013038       0.00008584      -0.00010726      648        2      216       0.55640000       0.55640000 _  _ 
O       20.89844047      21.04048817      16.42824301      15.99940000       0.00067885      -0.00001624      -0.00012537      649        1      217      -1.11280000      -1.11280000 649(1),650(1) 649-650(1)
H       21.83674684      21.23731302      16.53681320       1.00800000       0.00001577      -0.00017843      -0.00020453      650        2      217       0.55640000       0.55640000 _  _ 
H       20.64776143      21.07607358      17.37499017       1.00800000      -0.00023869       0.00007177       0.00017028      651        2      217       0.55640000       0.55640000 _  _ 
O       21.65946157      16.22190075      19.53029824      15.99940000      -0.00032606      -0.00079062       0.00114129      652        1      218      -1.11280000      -1.11280000 652(1),653(1) 652-653(1)
H       21.21573515      15.91981371      18.69942848       1.00800000       0.00017726       0.00004319       0.00006944      653        2      218       0.55640000       0.55640000 _  _ 
H       21.03253158      16.39443444      20.27250327       1.00800000       0.00013241      -0.00020491      -0.00001289      654        2      218       0.55640000       0.55640000 _  _ 
O        5.13982164      16.48885265      16.45572140      15.99940000      -0.00012502      -0.00045039       0.00054146      655        1      219      -1.11280000      -1.11280000 655(1),656(1) 655-656(1)
H        6.05796418      16.66662488      16.29352592       1.00800000      -0.00004917       0.00013211       0.00036715      656        2      219       0.55640000       0.55640000 _  _ 
H        5.04891513      15.80280356      17.14189625       1.00800000       0.00006450      -0.00002921      -0.00014623      657        2      219       0.55640000       0.55640000 _  _ 
O        6.34293445      16.66283081      20.40102280      15.99940000      -0.00049174      -0.00003169      -0.00037303      658        1      220      -1.11280000      -1.11280000 658(1),659(1) 658-659(1)
H        6.72146672      16.22803305      21.17198919       1.00800000      -0.00013987       0.00001932      -0.00017619      659        2      220       0.55640000       0.55640000 _  _ 
H        5.91540809      15.90652714      19.97759477       1.00800000       0.00030417      -0.00014532      -0.00003147      660        2      220       0.55640000       0.55640000 _  _ 
O        4.16622317      19.04855425      16.88136312      15.99940000       0.00028852       0.00058761       0.00037719      661        1      221      -1.11280000      -1.11280000 661(1),662(1) 661-662(1)
H        4.05997946      19.31775081      15.96640403       1.00800000      -0.00009226      -0.00006592      -0.00017280      662        2      221       0.55640000       0.55640000 _  _ 
H        4.48081044      18.13064866      16.78350574       1.00800000      -0.00009459       0.00004386      -0.00017019      663        2      221       0.55640000       0.55640000 _  _ 
O        6.86447273      13.98738179      21.41883021      15.99940000       0.00213976      -0.00061021      -0.00032756      664        1      222      -1.11280000      -1.11280000 664(1),665(1) 664-665(1)
H        6.47572018      13.08446603      21.51784409       1.00800000       0.00007681       0.00004179       0.00015688      665        2      222       0.55640000       0.55640000 _  _ 
H        7.75827695      13.88553573      21.08396475       1.00800000       0.00018789       0.00018016      -0.00019790      666        2      222       0.55640000       0.55640000 _  _ 
O       16.24881003      15.61980009      17.39750224      15.99940000      -0.00026821      -0.00049870       0.00018618      667        1      223      -1.11280000      -1.11280000 667(1),668(1) 667-668(1)
H       15.56641400      15.22436819      16.76245173       1.00800000       0.00014907       0.00002642      -0.00002886      668        2      223       0.55640000       0.55640000 _  _ 
H       15.90055706      15.68034198      18.28112278       1.00800000       0.00000952       0.00010720      -0.00017428      669        2      223       0.55640000       0.55640000 _  _ 
O       11.37675192      19.85429897      17.93978228      15.99940000       0.00048036       0.00017113      -0.00038543      670        1      224      -1.11280000      -1.11280000 670(1),671(1) 670-671(1)
H       11.12956057      20.49315758      18.64098811       1.00800000       0.00004080       0.00017937       0.00015456      671        2      224       0.55640000       0.55640000 _  _ 
H       10.80354009      19.12439986      17.80810209       1.00800000      -0.00000312       0.00007243      -0.00007081      672        2      224       0.55640000       0.55640000 _  _ 
O        8.25771480       5.49848421      16.03753097      15.99940000       0.00001702       0.00040572      -0.00046405      673        1      225      -1.11280000      -1.11280000 673(1),674(1) 673-674(1)
H        8.57152036       5.44208861      15.16834266       1.00800000      -0.00008149       0.00013388       0.00003314      674        2      225       0.55640000       0.55640000 _  _ 
H        7.33957405       5.77271242      16.08870819       1.00800000       0.00024781      -0.00006345      -0.00013405      675        2      225       0.55640000       0.55640000 _  _ 
O        6.50940119       6.36873363      19.49053234      15.99940000      -0.00103828       0.00089490       0.00017898      676        1      226      -1.11280000      -1.11280000 676(1),677(1) 676-677(1)
H        7.22263490       5.80717020      19.72716883       1.00800000       0.00011780      -0.00009177      -0.00008307      677        2      226       0.55640000       0.55640000 _  _ 
H        6.08695523       6.09362253      18.61454580       1.00800000       0.00001536       0.00006648      -0.00007926      678        2      226       0.55640000       0.55640000 _  _ 
O        9.11449121      22.52663343      16.75463419      15.99940000      -0.00025813      -0.00009662       0.00096341      679        1      227      -1.11280000      -1.11280000 679(1),680(1) 679-680(1)
H        8.53799696      21.85904358      16.32814662       1.00800000       0.00003151      -0.00008624      -0.00002007      680        2      227       0.55640000       0.55640000 _  _ 
H        8.72508068       3.65212169      16.27537007       1.00800000      -0.00024269      -0.00014238      -0.00004348      681        2      227       0.55640000       0.55640000 _  _ 
O       10.46418528       6.45476470      22.52202388      15.99940000      -0.00111445      -0.00002461      -0.00006757      682        1      228      -1.11280000      -1.11280000 682(1),683(1) 682-683(1)
H       10.49076240       6.71317564       3.80271728       1.00800000       0.00030614      -0.00001440      -0.00003625      683        2      228       0.55640000       0.55640000 _  _ 
H       10.51688092       7.34726334      22.09196111       1.00800000       0.00030125       0.00017137       0.00006074      684        2      228       0.55640000       0.55640000 _  _ 
O       20.80774365       7.11653594      15.88125960      15.99940000       0.00085090      -0.00059739       0.00038784      685        1      229      -1.11280000      -1.11280000 685(1),686(1) 685-686(1)
H       19.92939220       7.02198684      16.34114394       1.00800000      -0.00013768       0.00024898       0.00018540      686        2      229       0.55640000       0.55640000 _  _ 
H       21.22274224       7.96940575      16.22712937       1.00800000       0.00022561       0.00002433      -0.00017925      687        2      229       0.55640000       0.55640000 _  _ 
O        3.88871760       6.00427082      20.52358538      15.99940000       0.00059683      -0.00048770       0.00095598      688        1      230      -1.11280000      -1.11280000 688(1),689(1) 688-689(1)
H        4.61928112       5.70244256      20.05366150       1.00800000       0.00003978       0.00007483       0.00020760      689        2      230       0.55640000       0.55640000 _  _ 
H       22.77087479       5.45450240      20.25366977       1.00800000       0.00011129      -0.00001250       0.00008192      690        2      230       0.55640000       0.55640000 _  _ 
O        7.10882996       8.34824858      21.68628532      15.99940000      -0.00003166       0.00010267       0.00060127      691        1      231      -1.11280000      -1.11280000 691(1),692(1) 691-692(1)
H        6.40044887       8.95698654      21.76071531       1.00800000       0.00003327       0.00021962       0.00005863      692        2      231       0.55640000       0.55640000 _  _ 
H        6.78611298       7.88269043      20.84544253       1.00800000      -0.00021364       0.00008535       0.00021921      693        2      231       0.55640000       0.55640000 _  _ 
O       14.00337694       8.99603116      18.48407581      15.99940000      -0.00092378      -0.00018574      -0.00001216      694        1      232      -1.11280000      -1.11280000 694(1),695(1) 694-695(1)
H       13.51507385       9.12649459      19.31438694       1.00800000      -0.00011195       0.00029011       0.00005007      695        2      232       0.55640000       0.55640000 _  _ 
H       13.46333660       8.29177824      18.11513218       1.00800000       0.00012444      -0.00010846       0.00023013      696        2      232       0.55640000       0.55640000 _  _ 
O       21.49299792       8.35568313      22.38387476      15.99940000      -0.00024841      -0.00081921      -0.00007737      697        1      233      -1.11280000      -1.11280000 697(1),698(1) 697-698(1)
H       21.68695024       8.53420288      21.42127573       1.00800000       0.00010626       0.00004391       0.00005758      698        2      233       0.55640000       0.55640000 _  _ 
H       22.43031326       8.08319289      22.75334897       1.00800000      -0.00000462      -0.00003866       0.00005505      699        2      233       0.55640000       0.55640000 _  _ 
O        5.12136508       7.58060426      14.38763445      15.99940000      -0.00058883       0.00024914      -0.00053007      700        1      234      -1.11280000      -1.11280000 700(1),701(1) 700-701(1)
H        4.99750244       8.57257108      14.55866551       1.00800000       0.00005483      -0.00029933      -0.00020542      701        2      234       0.55640000       0.55640000 _  _ 
H        4.21707860       7.25987101      14.25364339       1.00800000      -0.00004101       0.00022708      -0.00008434      702        2      234       0.55640000       0.55640000 _  _ 
O        9.62922813      12.16920996      22.65147584      15.99940000      -0.00016246       0.00032655       0.00095488      703        1      235      -1.11280000      -1.11280000 703(1),704(1) 703-704(1)
H        9.00435019      12.71978874      23.17843581       1.00800000      -0.00006715      -0.00004205      -0.00028505      704        2      235       0.55640000       0.55640000 _  _ 
H        9.90603670      11.51396177       3.71189334       1.00800000      -0.00022266       0.00001438      -0.00007243      705        2      235       0.55640000       0.55640000 _  _ 
O       12.34018391       8.77171885       5.17229630      15.99940000       0.00032116      -0.00053073      -0.00072635      706        1      236      -1.11280000      -1.11280000 706(1),707(1) 706-707(1)
H       12.83579069       7.93699762       5.29293272       1.00800000      -0.00031190      -0.00022546      -0.00018919      707        2      236       0.55640000       0.55640000 _  _ 
H       12.29086283       8.88179987       4.20383359       1.00800000      -0.00028621       0.00009942       0.00003781      708        2      236       0.55640000       0.55640000 _  _ 
O       22.00270432       9.89970090       5.30145537      15.99940000      -0.00017609       0.00133352       0.00009720      709        1      237      -1.11280000      -1.11280000 709(1),710(1) 709-710(1)
H       21.92184852       9.46721482       4.42449645       1.00800000      -0.00017962       0.00004516      -0.00008786      710        2      237       0.55640000       0.55640000 _  _ 
H       21.36656673      10.61765502       5.22292924       1.00800000      -0.00003112      -0.00008230       0.00013825      711        2      237       0.55640000       0.55640000 _  _ 
O        4.06932917      12.04674564       4.35188121      15.99940000       0.00004333      -0.00063126       0.00113867      712        1      238      -1.11280000      -1.11280000 712(1),713(1) 712-713(1)
H        3.43363108      11.53413938       4.93836217       1.00800000       0.00004156      -0.00010547      -0.00002375      713        2      238       0.55640000       0.55640000 _  _ 
H        3.60862747      12.63145147       3.77268085       1.00800000      -0.00022263      -0.00009311       0.00001058      714        2      238       0.55640000       0.55640000 _  _ 
O        7.80430655      11.21088909      19.21389808      15.99940000      -0.00047697       0.00004148      -0.00011295      715        1      239      -1.11280000      -1.11280000 715(1),716(1) 715-716(1)
H        8.40036883      10.61251660      18.76182647       1.00800000       0.00014694       0.00008940      -0.00032104      716        2      239       0.55640000       0.55640000 _  _ 
H        7.66726671      10.92526628      20.21162689       1.00800000      -0.00000423      -0.00004987       0.00027612      717        2      239       0.55640000       0.55640000 _  _ 
O        9.52590702      12.79375652      15.63564009      15.99940000       0.00117297       0.00046320      -0.00074067      718        1      240      -1.11280000      -1.11280000 718(1),719(1) 718-719(1)
H       10.04061332      12.65569007      16.47873913       1.00800000      -0.00012411       0.00033706       0.00015532      719        2      240       0.55640000       0.55640000 _  _ 
H        8.84538760      13.45049910      15.97053704       1.00800000       0.00007419       0.00006701      -0.00003554      720        2      240       0.55640000       0.55640000 _  _ 
O       21.04183144       8.98210651      19.73919865      15.99940000      -0.00129149      -0.00045676      -0.00111083      721        1      241      -1.11280000      -1.11280000 721(1),722(1) 721-722(1)
H       20.44439542       9.66917902      20.00871424       1.00800000      -0.00001275      -0.00000059       0.00017593      722        2      241       0.55640000       0.55640000 _  _ 
H       20.57166639       8.28457791      19.26498994       1.00800000       0.00008299      -0.00010243       0.00010855      723        2      241       0.55640000       0.55640000 _  _ 
O        3.54317125      13.73741950      15.56227798      15.99940000      -0.00102616      -0.00018765      -0.00059471      724        1      242      -1.11280000      -1.11280000 724(1),725(1) 724-725(1)
H        3.43650375      13.04400173      16.26695044       1.00800000      -0.00005624       0.00003725       0.00000201      725        2      242       0.55640000       0.55640000 _  _ 
H        3.09894935      13.32596768      14.77878675       1.00800000      -0.00029935      -0.00002148       0.00014692      726        2      242       0.55640000       0.55640000 _  _ 
O       13.77567615      14.87728293       3.82212885      15.99940000       0.00023807       0.00007147       0.00044440      727        1      243      -1.11280000      -1.11280000 727(1),728(1) 727-728(1)
H       14.37824299      15.10373127       4.53697934       1.00800000      -0.00007288       0.00007091       0.00019913      728        2      243       0.55640000       0.55640000 _  _ 
H       12.95023104      14.78685422       4.27355181       1.00800000       0.00003491       0.00018720       0.00003627      729        2      243       0.55640000       0.55640000 _  _ 
O       21.53855334      12.44225067      13.73424894      15.99940000      -0.00077785      -0.00192309       0.00010463      730        1      244      -1.11280000      -1.11280000 730(1),731(1) 730-731(1)
H       21.75347014      11.82095146      13.07438098       1.00800000      -0.00013379      -0.00011881       0.00015353      731        2      244       0.55640000       0.55640000 _  _ 
H       20.60626821      12.17566086      13.84921870       1.00800000       0.00010971      -0.00021374       0.00010494      732        2      244       0.55640000       0.55640000 _  _ 
O        3.25568210      11.95165048      17.83341718      15.99940000       0.00008462      -0.00001158      -0.00072726      733        1      245      -1.11280000      -1.11280000 733(1),734(1) 733-734(1)
H       22.54177580      12.28149296      18.67846511       1.00800000       0.00001577       0.00002307      -0.00024041      734        2      245       0.55640000       0.55640000 _  _ 
H        4.00666639      11.45388146      18.12981701       1.00800000      -0.00002505       0.00003126      -0.00007659      735        2      245       0.55640000       0.55640000 _  _ 
O        7.33198764      13.44965900      17.72108472      15.99940000       0.00053239       0.00074941       0.00209280      736        1      246      -1.11280000      -1.11280000 736(1),737(1) 736-737(1)
H        7.49628669      12.59411230      18.16733969       1.00800000      -0.00023073      -0.00006961      -0.00018999      737        2      246       0.55640000       0.55640000 _  _ 
H        7.11802843      13.34821500      16.79533773       1.00800000      -0.00009174       0.00005798       0.00010455      738        2      246       0.55640000       0.55640000 _  _ 
O        4.55399829      15.31067513      18.96904037      15.99940000       0.00028191      -0.00031260      -0.00022209      739        1      247      -1.11280000      -1.11280000 739(1),740(1) 739-740(1)
H        4.47042883      14.36881448      18.75586543       1.00800000      -0.00002393      -0.00004748       0.00017234      740        2      247       0.55640000       0.55640000 _  _ 
H        3.65077344      15.61662418      19.20243318       1.00800000      -0.00004606      -0.00019778      -0.00022702      741        2      247       0.55640000       0.55640000 _  _ 
O       15.46755152      16.06572733      20.03745389      15.99940000       0.00076305      -0.00018548      -0.00053593      742        1      248      -1.11280000      -1.11280000 742(1),743(1) 742-743(1)
H       14.75232548      16.43991075      20.56791373       1.00800000      -0.00006426       0.00001311      -0.00010005      743        2      248       0.55640000       0.55640000 _  _ 
H       16.15787403      15.96183086      20.68212133       1.00800000      -0.00023153       0.00010089       0.00007832      744        2      248       0.55640000       0.55640000 _  _ 
O       19.98720190      16.39686987      21.60911855      15.99940000       0.00024981       0.00004899      -0.00003943      745        1      249      -1.11280000      -1.11280000 745(1),746(1) 745-746(1)
H       19.26379892      16.98857571      21.73677984       1.00800000       0.00005018       0.00000428      -0.00024981      746        2      249       0.55640000       0.55640000 _  _ 
H       20.39726022      16.21156837      22.47648802       1.00800000       0.00019122      -0.00021841      -0.00004141      747        2      249       0.55640000       0.55640000 _  _ 
O        4.68314179      19.03765257      21.39632777      15.99940000      -0.00041287       0.00117853       0.00025138      748        1      250      -1.11280000      -1.11280000 748(1),749(1) 748-749(1)
H        5.25637770      18.28430493      21.17529891       1.00800000      -0.00014287       0.00025795       0.00027350      749        2      250       0.55640000       0.55640000 _  _ 
H        4.15304816      19.13890069      20.61691427       1.00800000       0.00005653       0.00018544      -0.00006815      750        2      250       0.55640000       0.55640000 _  _ 
O        9.98455292      14.38779272      20.60523125      15.99940000      -0.00024871      -0.00067426       0.00025747      751        1      251      -1.11280000      -1.11280000 751(1),752(1) 751-752(1)
H       10.23511676      14.08696583      21.48497590       1.00800000      -0.00026791       0.00021759      -0.00016325      752        2      251       0.55640000       0.55640000 _  _ 
H       10.11759526      15.36408105      20.67493033       1.00800000       0.00003243      -0.00012861      -0.00018147      753        2      251       0.55640000       0.55640000 _  _ 
O       12.81073631      16.86108651      18.44823805      15.99940000      -0.00015533       0.00034773       0.00025659      754        1      252      -1.11280000      -1.11280000 754(1),755(1) 754-755(1)
H       12.90125177      17.35064684      17.63037779       1.00800000      -0.00008548      -0.00013296      -0.00030386      755        2      252       0.55640000       0.55640000 _  _ 
H       13.74816251      16.70978824      18.64772898       1.00800000       0.00029837      -0.00011919       0.00000455      756        2      252       0.55640000       0.55640000 _  _ 
O       21.59617717      21.63012720      20.47588814      15.99940000      -0.00027007      -0.00079657      -0.00119215      757        1      253      -1.11280000      -1.11280000 757(1),758(1) 757-758(1)
H       21.63933049      20.86236465      19.84627057       1.00800000      -0.00016330       0.00023383       0.00013623      758        2      253       0.55640000       0.55640000 _  _ 
H       22.52331773      21.63028544      20.79441273       1.00800000      -0.00006350       0.00008508      -0.00022436      759        2      253       0.55640000       0.55640000 _  _ 
O        7.85854986      22.86978803       3.29039292      15.99940000       0.00069434       0.00123297      -0.00064983      760        1      254      -1.11280000      -1.11280000 760(1),761(1) 760-761(1)
H        7.92476896      22.26956220      22.19791179       1.00800000      -0.00006288      -0.00008185       0.00009682      761        2      254       0.55640000       0.55640000 _  _ 
H        7.93388471       4.05636018       2.90306819       1.00800000      -0.00025003       0.00020224      -0.00018131      762        2      254       0.55640000       0.55640000 _  _ 
O        9.16771589      18.67937244      21.87310092      15.99940000      -0.00077143       0.00055064      -0.00014188      763        1      255      -1.11280000      -1.11280000 763(1),764(1) 763-764(1)
H        9.64375338      19.26347546      22.43597542       1.00800000       0.00000740      -0.00008659      -0.00023694      764        2      255       0.55640000       0.55640000 _  _ 
H        9.81200781      18.22126579      21.36949081       1.00800000      -0.00012626      -0.00021343      -0.00028975      765        2      255       0.55640000       0.55640000 _  _ 
O        9.96504958      22.81976776      19.49847424      15.99940000      -0.00014965       0.00027437       0.00088179      766        1      256      -1.11280000      -1.11280000 766(1),767(1) 766-767(1)
H        9.36011445      22.25886267      20.01204082       1.00800000      -0.00010846      -0.00004743       0.00009064      767        2      256       0.55640000       0.55640000 _  _ 
H        9.52877441      22.65890224      18.60178874       1.00800000       0.00000267      -0.00015019       0.00010488      768        2      256       0.55640000       0.55640000 _  _ 
